********************************************************************************
Field Output Report, written Tue Feb 20 13:43:37 2018

Source 1
---------

   ODB: C:/Users/JMJFVA~1/AppData/Local/Temp/A320.odb
   Step: Jam1
   Frame: Increment      1: Step Time =    1.000

Loc 1 : Element nodal  values at shell < ALUMINIUM > < 5 section points > from source 1 : SNEG, (fraction = -1.0) ( Average criteria = 75%, Not averaged across region boundaries )
Loc 2 : Element nodal  values at shell < ALUMINIUM > < 5 section points > from source 1 : SPOS, (fraction = 1.0) ( Average criteria = 75%, Not averaged across region boundaries )

Output sorted by column "Node Label".

Field Output reported at element nodes for region: A320-1.Region_1
   Computation algorithm: EXTRAPOLATE_COMPUTE_AVERAGE
   Averaged at nodes
   Averaging regions: ODB_REGIONS

   Element Label      Node Label         S.Mises         S.Mises
                                          @Loc 1          @Loc 2
-----------------------------------------------------------------
            2271               3     2.49902E-03     3.69059E-03
             874               3     2.49902E-03     3.69059E-03
            2325               4     126.456E-06     275.447E-06
            3976               6     67.7265E-03     69.3440E-03
            1756               6     67.7265E-03     69.3440E-03
            4066               8     77.8593E-03     79.4408E-03
            3410               8     77.8593E-03     79.4408E-03
            5864              10     59.3259E-03     61.3771E-03
            3500              10     59.3259E-03     61.3771E-03
            5084              15     2.59339E-03     3.92880E-03
            6566              15     2.59339E-03     3.92880E-03
            2288              16     2.37389E-03     2.80687E-03
             857              16     2.37389E-03     2.80687E-03
            2342              19     376.823E-06     444.654E-06
            1739              20     23.9089E-03     24.3908E-03
            3959              20     23.9089E-03     24.3908E-03
            4049              23     87.6982E-03     137.233E-03
            3393              23     87.6982E-03     137.233E-03
            5847              24     20.2153E-03     43.4614E-03
            3483              24     20.2153E-03     43.4614E-03
            5067              26     2.40003E-03     2.70783E-03
            6549              26     2.40003E-03     2.70783E-03
            5174              27     168.150E-06     321.065E-06
            5157              28     402.706E-06     490.746E-06
            2289              38     479.046E-06     530.603E-06
            2271              38     479.046E-06     530.603E-06
            2289              39     227.867E-06     234.562E-06
            2307              39     227.867E-06     234.562E-06
            2307              40     89.9879E-06     209.381E-06
            2325              40     89.9879E-06     209.381E-06
            1738             102     63.3486E-03     63.4761E-03
            1756             102     63.3486E-03     63.4761E-03
            1738             103     62.9487E-03     62.9669E-03
            1720             103     62.9487E-03     62.9669E-03
            1720             104     61.9662E-03     63.0737E-03
            1702             104     61.9662E-03     63.0737E-03
            1702             105     61.3917E-03     61.7654E-03
            1684             105     61.3917E-03     61.7654E-03
            1684             106     60.2187E-03     61.0871E-03
            1666             106     60.2187E-03     61.0871E-03
            1666             107     59.3905E-03     59.7350E-03
            1648             107     59.3905E-03     59.7350E-03
            1648             108     57.9842E-03     58.8105E-03
            1630             108     57.9842E-03     58.8105E-03
            1630             109     56.6025E-03     56.6409E-03
            1612             109     56.6025E-03     56.6409E-03
            1612             110     54.7140E-03     54.1650E-03
            1594             110     54.7140E-03     54.1650E-03
            1576             111     54.2658E-03     55.9397E-03
            1594             111     54.2658E-03     55.9397E-03
            1558             112     55.8035E-03     56.0550E-03
            1576             112     55.8035E-03     56.0550E-03
            1558             113     54.8980E-03     54.9272E-03
            1540             113     54.8980E-03     54.9272E-03
            1540             114     53.5150E-03     54.4601E-03
            1522             114     53.5150E-03     54.4601E-03
            1504             115     52.4866E-03     52.8779E-03
            1522             115     52.4866E-03     52.8779E-03
            1504             116     51.1504E-03     51.7713E-03
            1486             116     51.1504E-03     51.7713E-03
            1486             117     49.9127E-03     50.3829E-03
            1468             117     49.9127E-03     50.3829E-03
            1468             118     48.4827E-03     48.8648E-03
            1450             118     48.4827E-03     48.8648E-03
            1450             119     46.9235E-03     47.4232E-03
            1432             119     46.9235E-03     47.4232E-03
            1414             120     45.0951E-03     45.1649E-03
            1432             120     45.0951E-03     45.1649E-03
            1396             121     42.9488E-03     42.3057E-03
            1414             121     42.9488E-03     42.3057E-03
            1396             122     42.9176E-03     44.2884E-03
            1378             122     42.9176E-03     44.2884E-03
            1378             123     44.4678E-03     44.8777E-03
            1360             123     44.4678E-03     44.8777E-03
            1360             124     43.0329E-03     43.0298E-03
            1342             124     43.0329E-03     43.0298E-03
            1324             125     41.1848E-03     41.9801E-03
            1342             125     41.1848E-03     41.9801E-03
            1324             126     39.7604E-03     40.0431E-03
            1306             126     39.7604E-03     40.0431E-03
            1306             127     38.0664E-03     38.5546E-03
            1288             127     38.0664E-03     38.5546E-03
            1270             128     36.5174E-03     36.8189E-03
            1288             128     36.5174E-03     36.8189E-03
            1252             129     34.7534E-03     35.0255E-03
            1270             129     34.7534E-03     35.0255E-03
            1252             130     32.9317E-03     33.1765E-03
            1234             130     32.9317E-03     33.1765E-03
            1216             131     30.7454E-03     30.7889E-03
            1234             131     30.7454E-03     30.7889E-03
            1198             132     28.3220E-03     27.6434E-03
            1216             132     28.3220E-03     27.6434E-03
            1180             133     28.7848E-03     29.7946E-03
            1198             133     28.7848E-03     29.7946E-03
            1180             134     30.3575E-03     30.9369E-03
            1162             134     30.3575E-03     30.9369E-03
            1144             135     28.4050E-03     28.3496E-03
            1162             135     28.4050E-03     28.3496E-03
            1126             136     26.1121E-03     26.7001E-03
            1144             136     26.1121E-03     26.7001E-03
            1108             137     24.3116E-03     24.4506E-03
            1126             137     24.3116E-03     24.4506E-03
            1090             138     22.2961E-03     22.6057E-03
            1108             138     22.2961E-03     22.6057E-03
            1090             139     20.4788E-03     20.5670E-03
            1072             139     20.4788E-03     20.5670E-03
            1054             140     18.4415E-03     18.5600E-03
            1072             140     18.4415E-03     18.5600E-03
            1036             141     16.4351E-03     16.3611E-03
            1054             141     16.4351E-03     16.3611E-03
            1018             142     14.0202E-03     13.9655E-03
            1036             142     14.0202E-03     13.9655E-03
            1000             143     11.3828E-03     10.7972E-03
            1018             143     11.3828E-03     10.7972E-03
            1000             144     11.8035E-03     12.4765E-03
             982             144     11.8035E-03     12.4765E-03
             982             145     12.7310E-03     13.4538E-03
             964             145     12.7310E-03     13.4538E-03
             964             146     10.2651E-03     10.0200E-03
             946             146     10.2651E-03     10.0200E-03
             928             147     7.57897E-03     7.78620E-03
             946             147     7.57897E-03     7.78620E-03
             910             148     5.68994E-03     5.39703E-03
             928             148     5.68994E-03     5.39703E-03
             892             149     4.46530E-03     3.99235E-03
             910             149     4.46530E-03     3.99235E-03
             892             150     4.31032E-03     5.12750E-03
             874             150     4.31032E-03     5.12750E-03
            4048             162     78.5510E-03     76.7709E-03
            4066             162     78.5510E-03     76.7709E-03
            4030             163     76.9367E-03     76.1634E-03
            4048             163     76.9367E-03     76.1634E-03
            4030             164     74.5929E-03     74.6156E-03
            4012             164     74.5929E-03     74.6156E-03
            3994             165     71.5791E-03     72.1275E-03
            4012             165     71.5791E-03     72.1275E-03
            3994             166     70.6993E-03     73.2135E-03
            3976             166     70.6993E-03     73.2135E-03
            3500             178     66.2228E-03     66.9586E-03
            3482             178     66.2228E-03     66.9586E-03
            3464             179     70.4040E-03     69.9088E-03
            3482             179     70.4040E-03     69.9088E-03
            3464             180     73.1158E-03     74.0082E-03
            3446             180     73.1158E-03     74.0082E-03
            3446             181     76.3845E-03     74.7742E-03
            3428             181     76.3845E-03     74.7742E-03
            3410             182     78.0843E-03     76.8279E-03
            3428             182     78.0843E-03     76.8279E-03
            6566             250     3.79635E-03     4.74048E-03
            6548             250     3.79635E-03     4.74048E-03
            6530             251     3.88483E-03     3.49658E-03
            6548             251     3.88483E-03     3.49658E-03
            6512             252     6.17427E-03     5.62590E-03
            6530             252     6.17427E-03     5.62590E-03
            6512             253     8.94926E-03     9.83343E-03
            6494             253     8.94926E-03     9.83343E-03
            6476             254     8.62995E-03     9.54043E-03
            6494             254     8.62995E-03     9.54043E-03
            6458             255     8.57775E-03     8.17909E-03
            6476             255     8.57775E-03     8.17909E-03
            6458             256     11.3753E-03     11.2328E-03
            6440             256     11.3753E-03     11.2328E-03
            6440             257     13.9221E-03     13.7514E-03
            6422             257     13.9221E-03     13.7514E-03
            6422             258     16.0911E-03     16.1688E-03
            6404             258     16.0911E-03     16.1688E-03
            6386             259     18.3253E-03     18.3628E-03
            6404             259     18.3253E-03     18.3628E-03
            6386             260     20.3368E-03     20.6232E-03
            6368             260     20.3368E-03     20.6232E-03
            6368             261     22.5877E-03     22.6992E-03
            6350             261     22.5877E-03     22.6992E-03
            6332             262     24.6192E-03     25.2067E-03
            6350             262     24.6192E-03     25.2067E-03
            6314             263     27.2186E-03     27.1281E-03
            6332             263     27.2186E-03     27.1281E-03
            6314             264     29.4454E-03     30.1426E-03
            6296             264     29.4454E-03     30.1426E-03
            6278             265     27.6507E-03     28.6643E-03
            6296             265     27.6507E-03     28.6643E-03
            6260             266     26.9704E-03     26.1970E-03
            6278             266     26.9704E-03     26.1970E-03
            6242             267     29.7105E-03     29.6915E-03
            6260             267     29.7105E-03     29.6915E-03
            6242             268     32.1688E-03     32.3921E-03
            6224             268     32.1688E-03     32.3921E-03
            6206             269     34.3044E-03     34.4722E-03
            6224             269     34.3044E-03     34.4722E-03
            6206             270     36.2288E-03     36.6009E-03
            6188             270     36.2288E-03     36.6009E-03
            6170             271     38.2046E-03     38.4869E-03
            6188             271     38.2046E-03     38.4869E-03
            6152             272     39.9037E-03     40.4628E-03
            6170             272     39.9037E-03     40.4628E-03
            6152             273     41.8626E-03     42.1487E-03
            6134             273     41.8626E-03     42.1487E-03
            6116             274     43.4970E-03     44.3798E-03
            6134             274     43.4970E-03     44.3798E-03
            6116             275     45.6543E-03     45.6169E-03
            6098             275     45.6543E-03     45.6169E-03
            6098             276     47.3363E-03     47.8600E-03
            6080             276     47.3363E-03     47.8600E-03
            6080             277     45.2856E-03     46.7723E-03
            6062             277     45.2856E-03     46.7723E-03
            6044             278     44.9700E-03     44.2075E-03
            6062             278     44.9700E-03     44.2075E-03
            6044             279     47.4809E-03     47.5391E-03
            6026             279     47.4809E-03     47.5391E-03
            6026             280     49.6640E-03     50.1707E-03
            6008             280     49.6640E-03     50.1707E-03
            5990             281     51.5191E-03     51.9270E-03
            6008             281     51.5191E-03     51.9270E-03
            5972             282     53.2318E-03     53.7275E-03
            5990             282     53.2318E-03     53.7275E-03
            5954             283     54.7220E-03     55.3985E-03
            5972             283     54.7220E-03     55.3985E-03
            5954             284     56.3415E-03     56.7613E-03
            5936             284     56.3415E-03     56.7613E-03
            5936             285     57.6090E-03     58.6545E-03
            5918             285     57.6090E-03     58.6545E-03
            5918             286     59.3181E-03     59.3187E-03
            5900             286     59.3181E-03     59.3187E-03
            5882             287     60.4899E-03     60.8280E-03
            5900             287     60.4899E-03     60.8280E-03
            5882             288     57.6646E-03     59.7598E-03
            5864             288     57.6646E-03     59.7598E-03
            2324             326     412.427E-06     413.596E-06
            2342             326     412.427E-06     413.596E-06
            2324             327     444.605E-06     375.120E-06
            2306             327     444.605E-06     375.120E-06
            2306             328     398.567E-06     396.516E-06
            2288             328     398.567E-06     396.516E-06
             857             329     2.50140E-03     2.74678E-03
            2287             329     2.50140E-03     2.74678E-03
            2288             329     2.50140E-03     2.74678E-03
             858             329     2.50140E-03     2.74678E-03
             859             330     2.65239E-03     2.63327E-03
            2287             330     2.65239E-03     2.63327E-03
            2286             330     2.65239E-03     2.63327E-03
             858             330     2.65239E-03     2.63327E-03
            2285             331     2.70270E-03     2.60207E-03
            2286             331     2.70270E-03     2.60207E-03
             860             331     2.70270E-03     2.60207E-03
             859             331     2.70270E-03     2.60207E-03
            2285             332     2.74824E-03     2.61742E-03
            2284             332     2.74824E-03     2.61742E-03
             861             332     2.74824E-03     2.61742E-03
             860             332     2.74824E-03     2.61742E-03
            2283             333     2.79304E-03     2.62808E-03
            2284             333     2.79304E-03     2.62808E-03
             862             333     2.79304E-03     2.62808E-03
             861             333     2.79304E-03     2.62808E-03
             863             334     2.84292E-03     2.65312E-03
             862             334     2.84292E-03     2.65312E-03
            2283             334     2.84292E-03     2.65312E-03
            2282             334     2.84292E-03     2.65312E-03
             864             335     2.89337E-03     2.67959E-03
             863             335     2.89337E-03     2.67959E-03
            2282             335     2.89337E-03     2.67959E-03
            2281             335     2.89337E-03     2.67959E-03
            2280             336     2.94631E-03     2.70750E-03
             864             336     2.94631E-03     2.70750E-03
            2281             336     2.94631E-03     2.70750E-03
             865             336     2.94631E-03     2.70750E-03
             866             337     2.99566E-03     2.73520E-03
            2279             337     2.99566E-03     2.73520E-03
            2280             337     2.99566E-03     2.73520E-03
             865             337     2.99566E-03     2.73520E-03
            2279             338     3.03777E-03     2.75156E-03
             866             338     3.03777E-03     2.75156E-03
            2278             338     3.03777E-03     2.75156E-03
             867             338     3.03777E-03     2.75156E-03
             868             339     3.05880E-03     2.74984E-03
            2277             339     3.05880E-03     2.74984E-03
             867             339     3.05880E-03     2.74984E-03
            2278             339     3.05880E-03     2.74984E-03
            2277             340     3.04675E-03     2.70911E-03
             869             340     3.04675E-03     2.70911E-03
            2276             340     3.04675E-03     2.70911E-03
             868             340     3.04675E-03     2.70911E-03
            2275             341     2.95134E-03     2.58471E-03
            2276             341     2.95134E-03     2.58471E-03
             869             341     2.95134E-03     2.58471E-03
             870             341     2.95134E-03     2.58471E-03
            2275             342     2.76532E-03     2.35055E-03
            2274             342     2.76532E-03     2.35055E-03
             871             342     2.76532E-03     2.35055E-03
             870             342     2.76532E-03     2.35055E-03
             872             343     2.30785E-03     1.83719E-03
            2274             343     2.30785E-03     1.83719E-03
             871             343     2.30785E-03     1.83719E-03
            2273             343     2.30785E-03     1.83719E-03
            2273             344     1.62642E-03     1.16502E-03
             873             344     1.62642E-03     1.16502E-03
             872             344     1.62642E-03     1.16502E-03
            2272             344     1.62642E-03     1.16502E-03
             874             345     1.89839E-03     2.27281E-03
            2272             345     1.89839E-03     2.27281E-03
             873             345     1.89839E-03     2.27281E-03
            2271             345     1.89839E-03     2.27281E-03
            3976             346     64.8120E-03     65.9750E-03
            1755             346     64.8120E-03     65.9750E-03
            1756             346     64.8120E-03     65.9750E-03
            3975             346     64.8120E-03     65.9750E-03
            3974             347     60.1995E-03     60.7174E-03
            3975             347     60.1995E-03     60.7174E-03
            1755             347     60.1995E-03     60.7174E-03
            1754             347     60.1995E-03     60.7174E-03
            1753             348     56.7312E-03     57.1608E-03
            3974             348     56.7312E-03     57.1608E-03
            1754             348     56.7312E-03     57.1608E-03
            3973             348     56.7312E-03     57.1608E-03
            3973             349     53.4813E-03     53.9697E-03
            3972             349     53.4813E-03     53.9697E-03
            1752             349     53.4813E-03     53.9697E-03
            1753             349     53.4813E-03     53.9697E-03
            3971             350     50.4810E-03     51.0076E-03
            3972             350     50.4810E-03     51.0076E-03
            1752             350     50.4810E-03     51.0076E-03
            1751             350     50.4810E-03     51.0076E-03
            1751             351     47.5734E-03     48.1689E-03
            3971             351     47.5734E-03     48.1689E-03
            3970             351     47.5734E-03     48.1689E-03
            1750             351     47.5734E-03     48.1689E-03
            1749             352     44.7927E-03     45.4148E-03
            3970             352     44.7927E-03     45.4148E-03
            1750             352     44.7927E-03     45.4148E-03
            3969             352     44.7927E-03     45.4148E-03
            3969             353     42.0877E-03     42.7353E-03
            3968             353     42.0877E-03     42.7353E-03
            1749             353     42.0877E-03     42.7353E-03
            1748             353     42.0877E-03     42.7353E-03
            1748             354     39.4871E-03     40.1294E-03
            3968             354     39.4871E-03     40.1294E-03
            1747             354     39.4871E-03     40.1294E-03
            3967             354     39.4871E-03     40.1294E-03
            1746             355     36.9805E-03     37.6083E-03
            1747             355     36.9805E-03     37.6083E-03
            3967             355     36.9805E-03     37.6083E-03
            3966             355     36.9805E-03     37.6083E-03
            3966             356     34.5946E-03     35.1852E-03
            1745             356     34.5946E-03     35.1852E-03
            1746             356     34.5946E-03     35.1852E-03
            3965             356     34.5946E-03     35.1852E-03
            3964             357     32.3427E-03     32.8800E-03
            3965             357     32.3427E-03     32.8800E-03
            1744             357     32.3427E-03     32.8800E-03
            1745             357     32.3427E-03     32.8800E-03
            1743             358     30.2548E-03     30.7133E-03
            3964             358     30.2548E-03     30.7133E-03
            1744             358     30.2548E-03     30.7133E-03
            3963             358     30.2548E-03     30.7133E-03
            1743             359     28.3671E-03     28.7186E-03
            1742             359     28.3671E-03     28.7186E-03
            3963             359     28.3671E-03     28.7186E-03
            3962             359     28.3671E-03     28.7186E-03
            3962             360     26.7280E-03     26.9320E-03
            1742             360     26.7280E-03     26.9320E-03
            1741             360     26.7280E-03     26.9320E-03
            3961             360     26.7280E-03     26.9320E-03
            1740             361     25.4107E-03     25.4775E-03
            3961             361     25.4107E-03     25.4775E-03
            1741             361     25.4107E-03     25.4775E-03
            3960             361     25.4107E-03     25.4775E-03
            3959             362     24.3791E-03     24.6251E-03
            3960             362     24.3791E-03     24.6251E-03
            1740             362     24.3791E-03     24.6251E-03
            1739             362     24.3791E-03     24.6251E-03
            1721             363     5.87646E-03     7.49786E-03
            1739             363     5.87646E-03     7.49786E-03
            1703             364     4.39227E-03     5.46084E-03
            1721             364     4.39227E-03     5.46084E-03
            1703             365     2.64727E-03     3.74030E-03
            1685             365     2.64727E-03     3.74030E-03
            1667             366     1.49415E-03     3.13577E-03
            1685             366     1.49415E-03     3.13577E-03
            1649             367     1.89975E-03     2.94491E-03
            1667             367     1.89975E-03     2.94491E-03
            1649             368     3.05608E-03     4.04684E-03
            1631             368     3.05608E-03     4.04684E-03
            1631             369     4.63826E-03     5.23885E-03
            1613             369     4.63826E-03     5.23885E-03
            1613             370     6.48187E-03     7.23691E-03
            1595             370     6.48187E-03     7.23691E-03
            1595             371     7.83464E-03     9.55339E-03
            1577             371     7.83464E-03     9.55339E-03
            1577             372     6.57436E-03     8.00618E-03
            1559             372     6.57436E-03     8.00618E-03
            1559             373     4.16777E-03     5.46217E-03
            1541             373     4.16777E-03     5.46217E-03
            1541             374     2.92230E-03     3.97410E-03
            1523             374     2.92230E-03     3.97410E-03
            1523             375     1.67637E-03     2.73296E-03
            1505             375     1.67637E-03     2.73296E-03
            1505             376     1.26642E-03     2.51485E-03
            1487             376     1.26642E-03     2.51485E-03
            1487             377     1.92085E-03     2.76300E-03
            1469             377     1.92085E-03     2.76300E-03
            1469             378     3.04195E-03     3.50362E-03
            1451             378     3.04195E-03     3.50362E-03
            1451             379     4.23526E-03     4.75304E-03
            1433             379     4.23526E-03     4.75304E-03
            1415             380     5.52343E-03     5.82080E-03
            1433             380     5.52343E-03     5.82080E-03
            1397             381     7.00398E-03     7.55243E-03
            1415             381     7.00398E-03     7.55243E-03
            1379             382     8.00566E-03     9.57713E-03
            1397             382     8.00566E-03     9.57713E-03
            1361             383     5.31174E-03     6.50148E-03
            1379             383     5.31174E-03     6.50148E-03
            1361             384     1.76581E-03     2.72804E-03
            1343             384     1.76581E-03     2.72804E-03
            1343             385     1.08635E-03     2.11113E-03
            1325             385     1.08635E-03     2.11113E-03
            1325             386     1.18825E-03     1.82511E-03
            1307             386     1.18825E-03     1.82511E-03
            1307             387     1.89534E-03     2.29556E-03
            1289             387     1.89534E-03     2.29556E-03
            1271             388     2.78835E-03     3.02494E-03
            1289             388     2.78835E-03     3.02494E-03
            1253             389     3.72731E-03     3.78058E-03
            1271             389     3.72731E-03     3.78058E-03
            1235             390     4.63036E-03     4.81783E-03
            1253             390     4.63036E-03     4.81783E-03
            1235             391     5.57529E-03     5.64899E-03
            1217             391     5.57529E-03     5.64899E-03
            1199             392     6.67531E-03     6.99117E-03
            1217             392     6.67531E-03     6.99117E-03
            1181             393     7.30964E-03     8.61534E-03
            1199             393     7.30964E-03     8.61534E-03
            1181             394     4.14473E-03     5.23738E-03
            1163             394     4.14473E-03     5.23738E-03
            1163             395     1.31537E-03     1.61736E-03
            1145             395     1.31537E-03     1.61736E-03
            1127             396     2.09342E-03     2.05518E-03
            1145             396     2.09342E-03     2.05518E-03
            1109             397     2.71183E-03     2.60539E-03
            1127             397     2.71183E-03     2.60539E-03
            1091             398     3.32544E-03     3.12993E-03
            1109             398     3.32544E-03     3.12993E-03
            1073             399     3.86731E-03     3.69578E-03
            1091             399     3.86731E-03     3.69578E-03
            1073             400     4.42041E-03     4.18710E-03
            1055             400     4.42041E-03     4.18710E-03
            1055             401     4.93215E-03     4.83031E-03
            1037             401     4.93215E-03     4.83031E-03
            1019             402     5.44416E-03     5.31020E-03
            1037             402     5.44416E-03     5.31020E-03
            1019             403     6.07287E-03     6.14462E-03
            1001             403     6.07287E-03     6.14462E-03
             983             404     6.27027E-03     7.24767E-03
            1001             404     6.27027E-03     7.24767E-03
             983             405     4.66816E-03     5.74793E-03
             965             405     4.66816E-03     5.74793E-03
             965             406     3.61907E-03     3.97574E-03
             947             406     3.61907E-03     3.97574E-03
             929             407     4.20455E-03     3.77840E-03
             947             407     4.20455E-03     3.77840E-03
             911             408     4.37837E-03     3.93881E-03
             929             408     4.37837E-03     3.93881E-03
             911             409     4.57915E-03     4.10627E-03
             893             409     4.57915E-03     4.10627E-03
             875             410     4.78284E-03     4.44200E-03
             893             410     4.78284E-03     4.44200E-03
             875             411     4.61334E-03     5.07712E-03
             857             411     4.61334E-03     5.07712E-03
            2342             497     397.850E-06     428.792E-06
            2341             497     397.850E-06     428.792E-06
            2340             498     424.514E-06     411.209E-06
            2341             498     424.514E-06     411.209E-06
            2340             499     428.791E-06     411.484E-06
            2339             499     428.791E-06     411.484E-06
            2339             500     430.740E-06     411.416E-06
            2338             500     430.740E-06     411.416E-06
            2337             501     435.460E-06     408.862E-06
            2338             501     435.460E-06     408.862E-06
            2337             502     439.349E-06     408.564E-06
            2336             502     439.349E-06     408.564E-06
            2336             503     443.535E-06     408.171E-06
            2335             503     443.535E-06     408.171E-06
            2334             504     448.344E-06     408.668E-06
            2335             504     448.344E-06     408.668E-06
            2334             505     452.531E-06     408.959E-06
            2333             505     452.531E-06     408.959E-06
            2332             506     458.009E-06     410.776E-06
            2333             506     458.009E-06     410.776E-06
            2331             507     461.560E-06     411.001E-06
            2332             507     461.560E-06     411.001E-06
            2331             508     468.212E-06     414.382E-06
            2330             508     468.212E-06     414.382E-06
            2330             509     469.179E-06     413.608E-06
            2329             509     469.179E-06     413.608E-06
            2328             510     479.815E-06     416.477E-06
            2329             510     479.815E-06     416.477E-06
            2327             511     462.833E-06     404.201E-06
            2328             511     462.833E-06     404.201E-06
            2327             512     419.974E-06     354.583E-06
            2326             512     419.974E-06     354.583E-06
            2326             513     268.860E-06     301.047E-06
            2325             513     268.860E-06     301.047E-06
            3977             548     35.8033E-03     56.9133E-03
            3959             548     35.8033E-03     56.9133E-03
            3977             549     40.6139E-03     61.5637E-03
            3995             549     40.6139E-03     61.5637E-03
            3995             550     55.2946E-03     46.8317E-03
            4013             550     55.2946E-03     46.8317E-03
            4031             551     74.3469E-03     60.3875E-03
            4013             551     74.3469E-03     60.3875E-03
            4031             552     87.0695E-03     105.898E-03
            4049             552     87.0695E-03     105.898E-03
            4050             570     55.5403E-03     96.1399E-03
            3394             570     55.5403E-03     96.1399E-03
            4049             570     55.5403E-03     96.1399E-03
            3393             570     55.5403E-03     96.1399E-03
            4051             571     17.0708E-03     45.3002E-03
            3395             571     17.0708E-03     45.3002E-03
            4050             571     17.0708E-03     45.3002E-03
            3394             571     17.0708E-03     45.3002E-03
            4051             572     11.5785E-03     30.4513E-03
            3395             572     11.5785E-03     30.4513E-03
            3396             572     11.5785E-03     30.4513E-03
            4052             572     11.5785E-03     30.4513E-03
            3396             573     12.8401E-03     22.0329E-03
            3397             573     12.8401E-03     22.0329E-03
            4052             573     12.8401E-03     22.0329E-03
            4053             573     12.8401E-03     22.0329E-03
            4054             574     15.9080E-03     16.7778E-03
            3397             574     15.9080E-03     16.7778E-03
            4053             574     15.9080E-03     16.7778E-03
            3398             574     15.9080E-03     16.7778E-03
            3398             575     19.6954E-03     12.9893E-03
            3399             575     19.6954E-03     12.9893E-03
            4054             575     19.6954E-03     12.9893E-03
            4055             575     19.6954E-03     12.9893E-03
            3400             576     23.2724E-03     11.6449E-03
            4055             576     23.2724E-03     11.6449E-03
            4056             576     23.2724E-03     11.6449E-03
            3399             576     23.2724E-03     11.6449E-03
            4056             577     27.5678E-03     13.7298E-03
            3401             577     27.5678E-03     13.7298E-03
            3400             577     27.5678E-03     13.7298E-03
            4057             577     27.5678E-03     13.7298E-03
            3402             578     31.9058E-03     18.1201E-03
            4057             578     31.9058E-03     18.1201E-03
            3401             578     31.9058E-03     18.1201E-03
            4058             578     31.9058E-03     18.1201E-03
            3402             579     36.5622E-03     23.8537E-03
            4059             579     36.5622E-03     23.8537E-03
            3403             579     36.5622E-03     23.8537E-03
            4058             579     36.5622E-03     23.8537E-03
            3404             580     41.2445E-03     29.9882E-03
            3403             580     41.2445E-03     29.9882E-03
            4060             580     41.2445E-03     29.9882E-03
            4059             580     41.2445E-03     29.9882E-03
            4061             581     46.0376E-03     36.4024E-03
            3404             581     46.0376E-03     36.4024E-03
            3405             581     46.0376E-03     36.4024E-03
            4060             581     46.0376E-03     36.4024E-03
            3405             582     50.8730E-03     42.8743E-03
            4062             582     50.8730E-03     42.8743E-03
            4061             582     50.8730E-03     42.8743E-03
            3406             582     50.8730E-03     42.8743E-03
            3407             583     55.7482E-03     49.4306E-03
            4063             583     55.7482E-03     49.4306E-03
            4062             583     55.7482E-03     49.4306E-03
            3406             583     55.7482E-03     49.4306E-03
            3408             584     60.7734E-03     56.0680E-03
            4063             584     60.7734E-03     56.0680E-03
            3407             584     60.7734E-03     56.0680E-03
            4064             584     60.7734E-03     56.0680E-03
            3409             585     65.9953E-03     62.9715E-03
            4065             585     65.9953E-03     62.9715E-03
            4064             585     65.9953E-03     62.9715E-03
            3408             585     65.9953E-03     62.9715E-03
            3409             586     73.2002E-03     72.9829E-03
            4066             586     73.2002E-03     72.9829E-03
            3410             586     73.2002E-03     72.9829E-03
            4065             586     73.2002E-03     72.9829E-03
            3500             587     57.3627E-03     59.3528E-03
            5864             587     57.3627E-03     59.3528E-03
            5863             587     57.3627E-03     59.3528E-03
            3499             587     57.3627E-03     59.3528E-03
            5863             588     54.1045E-03     56.1577E-03
            5862             588     54.1045E-03     56.1577E-03
            3499             588     54.1045E-03     56.1577E-03
            3498             588     54.1045E-03     56.1577E-03
            3498             589     50.9090E-03     53.6011E-03
            3497             589     50.9090E-03     53.6011E-03
            5861             589     50.9090E-03     53.6011E-03
            5862             589     50.9090E-03     53.6011E-03
            5861             590     47.2405E-03     50.6884E-03
            3496             590     47.2405E-03     50.6884E-03
            5860             590     47.2405E-03     50.6884E-03
            3497             590     47.2405E-03     50.6884E-03
            3495             591     43.5309E-03     47.5857E-03
            3496             591     43.5309E-03     47.5857E-03
            5860             591     43.5309E-03     47.5857E-03
            5859             591     43.5309E-03     47.5857E-03
            3495             592     39.7581E-03     44.3323E-03
            5859             592     39.7581E-03     44.3323E-03
            5858             592     39.7581E-03     44.3323E-03
            3494             592     39.7581E-03     44.3323E-03
            5857             593     36.0485E-03     40.9838E-03
            3493             593     36.0485E-03     40.9838E-03
            5858             593     36.0485E-03     40.9838E-03
            3494             593     36.0485E-03     40.9838E-03
            3493             594     32.5676E-03     37.6534E-03
            5857             594     32.5676E-03     37.6534E-03
            5856             594     32.5676E-03     37.6534E-03
            3492             594     32.5676E-03     37.6534E-03
            5856             595     29.2814E-03     34.2582E-03
            5855             595     29.2814E-03     34.2582E-03
            3492             595     29.2814E-03     34.2582E-03
            3491             595     29.2814E-03     34.2582E-03
            5855             596     26.5590E-03     30.9829E-03
            3490             596     26.5590E-03     30.9829E-03
            3491             596     26.5590E-03     30.9829E-03
            5854             596     26.5590E-03     30.9829E-03
            5854             597     24.0932E-03     27.5864E-03
            3489             597     24.0932E-03     27.5864E-03
            5853             597     24.0932E-03     27.5864E-03
            3490             597     24.0932E-03     27.5864E-03
            3489             598     22.4462E-03     24.3419E-03
            5852             598     22.4462E-03     24.3419E-03
            5853             598     22.4462E-03     24.3419E-03
            3488             598     22.4462E-03     24.3419E-03
            5851             599     20.6685E-03     20.6886E-03
            5852             599     20.6685E-03     20.6886E-03
            3488             599     20.6685E-03     20.6886E-03
            3487             599     20.6685E-03     20.6886E-03
            3487             600     18.9540E-03     16.9178E-03
            3486             600     18.9540E-03     16.9178E-03
            5850             600     18.9540E-03     16.9178E-03
            5851             600     18.9540E-03     16.9178E-03
            5850             601     15.9777E-03     12.8008E-03
            5849             601     15.9777E-03     12.8008E-03
            3485             601     15.9777E-03     12.8008E-03
            3486             601     15.9777E-03     12.8008E-03
            5848             602     10.5473E-03     11.8172E-03
            3485             602     10.5473E-03     11.8172E-03
            5849             602     10.5473E-03     11.8172E-03
            3484             602     10.5473E-03     11.8172E-03
            3484             603     14.0759E-03     28.4534E-03
            5847             603     14.0759E-03     28.4534E-03
            5848             603     14.0759E-03     28.4534E-03
            3483             603     14.0759E-03     28.4534E-03
            3465             604     47.6969E-03     66.1720E-03
            3483             604     47.6969E-03     66.1720E-03
            3465             605     56.1628E-03     46.5811E-03
            3447             605     56.1628E-03     46.5811E-03
            3429             606     59.2754E-03     53.0979E-03
            3447             606     59.2754E-03     53.0979E-03
            3411             607     80.6303E-03     71.4292E-03
            3429             607     80.6303E-03     71.4292E-03
            3393             608     94.4030E-03     110.967E-03
            3411             608     94.4030E-03     110.967E-03
            5865             692     3.09815E-03     4.02911E-03
            5847             692     3.09815E-03     4.02911E-03
            5883             693     4.00776E-03     5.38620E-03
            5865             693     4.00776E-03     5.38620E-03
            5901             694     2.69577E-03     3.93777E-03
            5883             694     2.69577E-03     3.93777E-03
            5919             695     1.58000E-03     2.76671E-03
            5901             695     1.58000E-03     2.76671E-03
            5919             696     1.49792E-03     2.74375E-03
            5937             696     1.49792E-03     2.74375E-03
            5937             697     2.45079E-03     3.22629E-03
            5955             697     2.45079E-03     3.22629E-03
            5973             698     3.71360E-03     4.11146E-03
            5955             698     3.71360E-03     4.11146E-03
            5973             699     4.99547E-03     5.49309E-03
            5991             699     4.99547E-03     5.49309E-03
            6009             700     6.37166E-03     6.64816E-03
            5991             700     6.37166E-03     6.64816E-03
            6027             701     7.94024E-03     8.52250E-03
            6009             701     7.94024E-03     8.52250E-03
            6027             702     8.96609E-03     10.7049E-03
            6045             702     8.96609E-03     10.7049E-03
            6045             703     5.63193E-03     6.89925E-03
            6063             703     5.63193E-03     6.89925E-03
            6081             704     1.43616E-03     2.44235E-03
            6063             704     1.43616E-03     2.44235E-03
            6099             705     997.695E-06     2.04957E-03
            6081             705     997.695E-06     2.04957E-03
            6117             706     1.49648E-03     2.01199E-03
            6099             706     1.49648E-03     2.01199E-03
            6117             707     2.26632E-03     2.59944E-03
            6135             707     2.26632E-03     2.59944E-03
            6153             708     3.18447E-03     3.29125E-03
            6135             708     3.18447E-03     3.29125E-03
            6153             709     4.02791E-03     4.11960E-03
            6171             709     4.02791E-03     4.11960E-03
            6189             710     4.91595E-03     4.89322E-03
            6171             710     4.91595E-03     4.89322E-03
            6207             711     5.76821E-03     5.90317E-03
            6189             711     5.76821E-03     5.90317E-03
            6225             712     6.65778E-03     6.70234E-03
            6207             712     6.65778E-03     6.70234E-03
            6243             713     7.73006E-03     8.04828E-03
            6225             713     7.73006E-03     8.04828E-03
            6243             714     8.26812E-03     9.72045E-03
            6261             714     8.26812E-03     9.72045E-03
            6261             715     4.94305E-03     6.20340E-03
            6279             715     4.94305E-03     6.20340E-03
            6279             716     2.08717E-03     2.40166E-03
            6297             716     2.08717E-03     2.40166E-03
            6297             717     2.90225E-03     2.75092E-03
            6315             717     2.90225E-03     2.75092E-03
            6333             718     3.45150E-03     3.25822E-03
            6315             718     3.45150E-03     3.25822E-03
            6333             719     4.01926E-03     3.74368E-03
            6351             719     4.01926E-03     3.74368E-03
            6351             720     4.50780E-03     4.25330E-03
            6369             720     4.50780E-03     4.25330E-03
            6369             721     5.00683E-03     4.70076E-03
            6387             721     5.00683E-03     4.70076E-03
            6405             722     5.46094E-03     5.29133E-03
            6387             722     5.46094E-03     5.29133E-03
            6423             723     5.90990E-03     5.71678E-03
            6405             723     5.90990E-03     5.71678E-03
            6423             724     6.46706E-03     6.50203E-03
            6441             724     6.46706E-03     6.50203E-03
            6459             725     6.56893E-03     7.56446E-03
            6441             725     6.56893E-03     7.56446E-03
            6477             726     5.07088E-03     6.14958E-03
            6459             726     5.07088E-03     6.14958E-03
            6495             727     4.23281E-03     4.54289E-03
            6477             727     4.23281E-03     4.54289E-03
            6495             728     4.83335E-03     4.13141E-03
            6513             728     4.83335E-03     4.13141E-03
            6531             729     4.95870E-03     4.33106E-03
            6513             729     4.95870E-03     4.33106E-03
            6531             730     4.73176E-03     4.99669E-03
            6549             730     4.73176E-03     4.99669E-03
            5067             748     2.52517E-03     2.69048E-03
            6550             748     2.52517E-03     2.69048E-03
            6549             748     2.52517E-03     2.69048E-03
            5068             748     2.52517E-03     2.69048E-03
            5068             749     2.65935E-03     2.60511E-03
            6551             749     2.65935E-03     2.60511E-03
            6550             749     2.65935E-03     2.60511E-03
            5069             749     2.65935E-03     2.60511E-03
            6551             750     2.69185E-03     2.55905E-03
            6552             750     2.69185E-03     2.55905E-03
            5070             750     2.69185E-03     2.55905E-03
            5069             750     2.69185E-03     2.55905E-03
            6553             751     2.72312E-03     2.57252E-03
            5071             751     2.72312E-03     2.57252E-03
            5070             751     2.72312E-03     2.57252E-03
            6552             751     2.72312E-03     2.57252E-03
            5072             752     2.74499E-03     2.57052E-03
            6553             752     2.74499E-03     2.57052E-03
            5071             752     2.74499E-03     2.57052E-03
            6554             752     2.74499E-03     2.57052E-03
            5072             753     2.77583E-03     2.57745E-03
            6554             753     2.77583E-03     2.57745E-03
            5073             753     2.77583E-03     2.57745E-03
            6555             753     2.77583E-03     2.57745E-03
            5073             754     2.80727E-03     2.58624E-03
            6556             754     2.80727E-03     2.58624E-03
            6555             754     2.80727E-03     2.58624E-03
            5074             754     2.80727E-03     2.58624E-03
            6556             755     2.84330E-03     2.59765E-03
            6557             755     2.84330E-03     2.59765E-03
            5074             755     2.84330E-03     2.59765E-03
            5075             755     2.84330E-03     2.59765E-03
            6558             756     2.87909E-03     2.61318E-03
            5075             756     2.87909E-03     2.61318E-03
            6557             756     2.87909E-03     2.61318E-03
            5076             756     2.87909E-03     2.61318E-03
            5076             757     2.91835E-03     2.62636E-03
            6558             757     2.91835E-03     2.62636E-03
            6559             757     2.91835E-03     2.62636E-03
            5077             757     2.91835E-03     2.62636E-03
            5077             758     2.95406E-03     2.64303E-03
            5078             758     2.95406E-03     2.64303E-03
            6559             758     2.95406E-03     2.64303E-03
            6560             758     2.95406E-03     2.64303E-03
            5078             759     2.98462E-03     2.64369E-03
            5079             759     2.98462E-03     2.64369E-03
            6560             759     2.98462E-03     2.64369E-03
            6561             759     2.98462E-03     2.64369E-03
            6561             760     2.98839E-03     2.62235E-03
            5079             760     2.98839E-03     2.62235E-03
            6562             760     2.98839E-03     2.62235E-03
            5080             760     2.98839E-03     2.62235E-03
            5080             761     2.92591E-03     2.53501E-03
            5081             761     2.92591E-03     2.53501E-03
            6563             761     2.92591E-03     2.53501E-03
            6562             761     2.92591E-03     2.53501E-03
            5082             762     2.61774E-03     2.20909E-03
            6563             762     2.61774E-03     2.20909E-03
            5081             762     2.61774E-03     2.20909E-03
            6564             762     2.61774E-03     2.20909E-03
            6565             763     2.11661E-03     1.74387E-03
            5083             763     2.11661E-03     1.74387E-03
            5082             763     2.11661E-03     1.74387E-03
            6564             763     2.11661E-03     1.74387E-03
            6566             764     2.23524E-03     2.72603E-03
            6565             764     2.23524E-03     2.72603E-03
            5084             764     2.23524E-03     2.72603E-03
            5083             764     2.23524E-03     2.72603E-03
            5084             765     858.854E-06     903.700E-06
            5102             765     858.854E-06     903.700E-06
            5120             766     639.943E-06     631.737E-06
            5102             766     639.943E-06     631.737E-06
            5120             767     415.806E-06     419.467E-06
            5138             767     415.806E-06     419.467E-06
            5156             768     231.083E-06     206.395E-06
            5138             768     231.083E-06     206.395E-06
            5174             769     144.394E-06     225.818E-06
            5156             769     144.394E-06     225.818E-06
            5173             770     241.863E-06     272.674E-06
            5174             770     241.863E-06     272.674E-06
            5172             771     352.824E-06     277.960E-06
            5173             771     352.824E-06     277.960E-06
            5172             772     442.254E-06     377.919E-06
            5171             772     442.254E-06     377.919E-06
            5170             773     498.795E-06     436.970E-06
            5171             773     498.795E-06     436.970E-06
            5169             774     517.696E-06     462.730E-06
            5170             774     517.696E-06     462.730E-06
            5168             775     526.689E-06     472.999E-06
            5169             775     526.689E-06     472.999E-06
            5168             776     522.895E-06     473.425E-06
            5167             776     522.895E-06     473.425E-06
            5167             777     518.516E-06     471.979E-06
            5166             777     518.516E-06     471.979E-06
            5166             778     510.494E-06     467.410E-06
            5165             778     510.494E-06     467.410E-06
            5164             779     503.236E-06     463.841E-06
            5165             779     503.236E-06     463.841E-06
            5163             780     495.146E-06     459.498E-06
            5164             780     495.146E-06     459.498E-06
            5162             781     487.650E-06     456.670E-06
            5163             781     487.650E-06     456.670E-06
            5162             782     480.639E-06     453.508E-06
            5161             782     480.639E-06     453.508E-06
            5161             783     473.349E-06     452.291E-06
            5160             783     473.349E-06     452.291E-06
            5159             784     465.963E-06     451.206E-06
            5160             784     465.963E-06     451.206E-06
            5159             785     457.106E-06     455.547E-06
            5158             785     457.106E-06     455.547E-06
            5157             786     426.643E-06     475.791E-06
            5158             786     426.643E-06     475.791E-06
            5157             787     435.214E-06     468.982E-06
            5139             787     435.214E-06     468.982E-06
            5121             788     457.962E-06     418.842E-06
            5139             788     457.962E-06     418.842E-06
            5103             789     440.561E-06     387.678E-06
            5121             789     440.561E-06     387.678E-06
            5085             790     429.528E-06     387.928E-06
            5103             790     429.528E-06     387.928E-06
            5085             791     382.495E-06     404.617E-06
            5067             791     382.495E-06     404.617E-06
             876            1518     4.65919E-03     4.98301E-03
             858            1518     4.65919E-03     4.98301E-03
             875            1518     4.65919E-03     4.98301E-03
             857            1518     4.65919E-03     4.98301E-03
             876            1519     4.77432E-03     4.81721E-03
             877            1519     4.77432E-03     4.81721E-03
             859            1519     4.77432E-03     4.81721E-03
             858            1519     4.77432E-03     4.81721E-03
             878            1520     4.90117E-03     4.74557E-03
             877            1520     4.90117E-03     4.74557E-03
             859            1520     4.90117E-03     4.74557E-03
             860            1520     4.90117E-03     4.74557E-03
             879            1521     4.99797E-03     4.75530E-03
             860            1521     4.99797E-03     4.75530E-03
             878            1521     4.99797E-03     4.75530E-03
             861            1521     4.99797E-03     4.75530E-03
             879            1522     5.09060E-03     4.78845E-03
             862            1522     5.09060E-03     4.78845E-03
             861            1522     5.09060E-03     4.78845E-03
             880            1522     5.09060E-03     4.78845E-03
             880            1523     5.19050E-03     4.84107E-03
             863            1523     5.19050E-03     4.84107E-03
             881            1523     5.19050E-03     4.84107E-03
             862            1523     5.19050E-03     4.84107E-03
             882            1524     5.29622E-03     4.90172E-03
             881            1524     5.29622E-03     4.90172E-03
             864            1524     5.29622E-03     4.90172E-03
             863            1524     5.29622E-03     4.90172E-03
             864            1525     5.40822E-03     4.97152E-03
             865            1525     5.40822E-03     4.97152E-03
             883            1525     5.40822E-03     4.97152E-03
             882            1525     5.40822E-03     4.97152E-03
             866            1526     5.52074E-03     5.04188E-03
             865            1526     5.52074E-03     5.04188E-03
             884            1526     5.52074E-03     5.04188E-03
             883            1526     5.52074E-03     5.04188E-03
             866            1527     5.62724E-03     5.10644E-03
             867            1527     5.62724E-03     5.10644E-03
             884            1527     5.62724E-03     5.10644E-03
             885            1527     5.62724E-03     5.10644E-03
             867            1528     5.70978E-03     5.14737E-03
             886            1528     5.70978E-03     5.14737E-03
             885            1528     5.70978E-03     5.14737E-03
             868            1528     5.70978E-03     5.14737E-03
             868            1529     5.74414E-03     5.13348E-03
             887            1529     5.74414E-03     5.13348E-03
             869            1529     5.74414E-03     5.13348E-03
             886            1529     5.74414E-03     5.13348E-03
             887            1530     5.66233E-03     5.00559E-03
             888            1530     5.66233E-03     5.00559E-03
             869            1530     5.66233E-03     5.00559E-03
             870            1530     5.66233E-03     5.00559E-03
             889            1531     5.36104E-03     4.64545E-03
             870            1531     5.36104E-03     4.64545E-03
             871            1531     5.36104E-03     4.64545E-03
             888            1531     5.36104E-03     4.64545E-03
             890            1532     4.64999E-03     3.84641E-03
             871            1532     4.64999E-03     3.84641E-03
             889            1532     4.64999E-03     3.84641E-03
             872            1532     4.64999E-03     3.84641E-03
             873            1533     3.12957E-03     2.39568E-03
             891            1533     3.12957E-03     2.39568E-03
             872            1533     3.12957E-03     2.39568E-03
             890            1533     3.12957E-03     2.39568E-03
             892            1534     3.20480E-03     3.30848E-03
             874            1534     3.20480E-03     3.30848E-03
             891            1534     3.20480E-03     3.30848E-03
             873            1534     3.20480E-03     3.30848E-03
             875            1535     4.69989E-03     4.54238E-03
             876            1535     4.69989E-03     4.54238E-03
             894            1535     4.69989E-03     4.54238E-03
             893            1535     4.69989E-03     4.54238E-03
             876            1536     4.62332E-03     4.63595E-03
             894            1536     4.62332E-03     4.63595E-03
             895            1536     4.62332E-03     4.63595E-03
             877            1536     4.62332E-03     4.63595E-03
             896            1537     4.68472E-03     4.61725E-03
             877            1537     4.68472E-03     4.61725E-03
             895            1537     4.68472E-03     4.61725E-03
             878            1537     4.68472E-03     4.61725E-03
             897            1538     4.78055E-03     4.63511E-03
             878            1538     4.78055E-03     4.63511E-03
             896            1538     4.78055E-03     4.63511E-03
             879            1538     4.78055E-03     4.63511E-03
             898            1539     4.86685E-03     4.69305E-03
             897            1539     4.86685E-03     4.69305E-03
             879            1539     4.86685E-03     4.69305E-03
             880            1539     4.86685E-03     4.69305E-03
             881            1540     4.96891E-03     4.76249E-03
             899            1540     4.96891E-03     4.76249E-03
             898            1540     4.96891E-03     4.76249E-03
             880            1540     4.96891E-03     4.76249E-03
             899            1541     5.08281E-03     4.85156E-03
             881            1541     5.08281E-03     4.85156E-03
             882            1541     5.08281E-03     4.85156E-03
             900            1541     5.08281E-03     4.85156E-03
             900            1542     5.20952E-03     4.95387E-03
             883            1542     5.20952E-03     4.95387E-03
             882            1542     5.20952E-03     4.95387E-03
             901            1542     5.20952E-03     4.95387E-03
             884            1543     5.34959E-03     5.07140E-03
             902            1543     5.34959E-03     5.07140E-03
             883            1543     5.34959E-03     5.07140E-03
             901            1543     5.34959E-03     5.07140E-03
             903            1544     5.50082E-03     5.19982E-03
             902            1544     5.50082E-03     5.19982E-03
             885            1544     5.50082E-03     5.19982E-03
             884            1544     5.50082E-03     5.19982E-03
             904            1545     5.66093E-03     5.33767E-03
             885            1545     5.66093E-03     5.33767E-03
             886            1545     5.66093E-03     5.33767E-03
             903            1545     5.66093E-03     5.33767E-03
             905            1546     5.80270E-03     5.45723E-03
             886            1546     5.80270E-03     5.45723E-03
             887            1546     5.80270E-03     5.45723E-03
             904            1546     5.80270E-03     5.45723E-03
             887            1547     5.90008E-03     5.53033E-03
             905            1547     5.90008E-03     5.53033E-03
             906            1547     5.90008E-03     5.53033E-03
             888            1547     5.90008E-03     5.53033E-03
             889            1548     5.77256E-03     5.40772E-03
             906            1548     5.77256E-03     5.40772E-03
             907            1548     5.77256E-03     5.40772E-03
             888            1548     5.77256E-03     5.40772E-03
             890            1549     5.23702E-03     4.89143E-03
             908            1549     5.23702E-03     4.89143E-03
             889            1549     5.23702E-03     4.89143E-03
             907            1549     5.23702E-03     4.89143E-03
             909            1550     3.64847E-03     3.46034E-03
             890            1550     3.64847E-03     3.46034E-03
             891            1550     3.64847E-03     3.46034E-03
             908            1550     3.64847E-03     3.46034E-03
             910            1551     3.44906E-03     3.19464E-03
             891            1551     3.44906E-03     3.19464E-03
             909            1551     3.44906E-03     3.19464E-03
             892            1551     3.44906E-03     3.19464E-03
             893            1552     4.57125E-03     4.17529E-03
             894            1552     4.57125E-03     4.17529E-03
             912            1552     4.57125E-03     4.17529E-03
             911            1552     4.57125E-03     4.17529E-03
             894            1553     4.53782E-03     4.32905E-03
             912            1553     4.53782E-03     4.32905E-03
             913            1553     4.53782E-03     4.32905E-03
             895            1553     4.53782E-03     4.32905E-03
             914            1554     4.51663E-03     4.45601E-03
             896            1554     4.51663E-03     4.45601E-03
             895            1554     4.51663E-03     4.45601E-03
             913            1554     4.51663E-03     4.45601E-03
             915            1555     4.55920E-03     4.52947E-03
             914            1555     4.55920E-03     4.52947E-03
             896            1555     4.55920E-03     4.52947E-03
             897            1555     4.55920E-03     4.52947E-03
             898            1556     4.64445E-03     4.60467E-03
             897            1556     4.64445E-03     4.60467E-03
             915            1556     4.64445E-03     4.60467E-03
             916            1556     4.64445E-03     4.60467E-03
             898            1557     4.74683E-03     4.69973E-03
             899            1557     4.74683E-03     4.69973E-03
             916            1557     4.74683E-03     4.69973E-03
             917            1557     4.74683E-03     4.69973E-03
             899            1558     4.86771E-03     4.81306E-03
             900            1558     4.86771E-03     4.81306E-03
             918            1558     4.86771E-03     4.81306E-03
             917            1558     4.86771E-03     4.81306E-03
             901            1559     5.00616E-03     4.94625E-03
             900            1559     5.00616E-03     4.94625E-03
             918            1559     5.00616E-03     4.94625E-03
             919            1559     5.00616E-03     4.94625E-03
             902            1560     5.16532E-03     5.10040E-03
             901            1560     5.16532E-03     5.10040E-03
             919            1560     5.16532E-03     5.10040E-03
             920            1560     5.16532E-03     5.10040E-03
             903            1561     5.34713E-03     5.27797E-03
             921            1561     5.34713E-03     5.27797E-03
             902            1561     5.34713E-03     5.27797E-03
             920            1561     5.34713E-03     5.27797E-03
             903            1562     5.54917E-03     5.47546E-03
             921            1562     5.54917E-03     5.47546E-03
             922            1562     5.54917E-03     5.47546E-03
             904            1562     5.54917E-03     5.47546E-03
             922            1563     5.76667E-03     5.68961E-03
             923            1563     5.76667E-03     5.68961E-03
             905            1563     5.76667E-03     5.68961E-03
             904            1563     5.76667E-03     5.68961E-03
             906            1564     5.93504E-03     5.86502E-03
             924            1564     5.93504E-03     5.86502E-03
             923            1564     5.93504E-03     5.86502E-03
             905            1564     5.93504E-03     5.86502E-03
             907            1565     6.00040E-03     5.93691E-03
             925            1565     6.00040E-03     5.93691E-03
             906            1565     6.00040E-03     5.93691E-03
             924            1565     6.00040E-03     5.93691E-03
             926            1566     5.54573E-03     5.61646E-03
             908            1566     5.54573E-03     5.61646E-03
             925            1566     5.54573E-03     5.61646E-03
             907            1566     5.54573E-03     5.61646E-03
             908            1567     4.46901E-03     4.66910E-03
             926            1567     4.46901E-03     4.66910E-03
             909            1567     4.46901E-03     4.66910E-03
             927            1567     4.46901E-03     4.66910E-03
             909            1568     4.77245E-03     4.72337E-03
             927            1568     4.77245E-03     4.72337E-03
             928            1568     4.77245E-03     4.72337E-03
             910            1568     4.77245E-03     4.72337E-03
             912            1569     4.37775E-03     3.98997E-03
             911            1569     4.37775E-03     3.98997E-03
             930            1569     4.37775E-03     3.98997E-03
             929            1569     4.37775E-03     3.98997E-03
             912            1570     4.34775E-03     4.14182E-03
             930            1570     4.34775E-03     4.14182E-03
             913            1570     4.34775E-03     4.14182E-03
             931            1570     4.34775E-03     4.14182E-03
             932            1571     4.31178E-03     4.31208E-03
             931            1571     4.31178E-03     4.31208E-03
             914            1571     4.31178E-03     4.31208E-03
             913            1571     4.31178E-03     4.31208E-03
             932            1572     4.33844E-03     4.42478E-03
             915            1572     4.33844E-03     4.42478E-03
             933            1572     4.33844E-03     4.42478E-03
             914            1572     4.33844E-03     4.42478E-03
             933            1573     4.41936E-03     4.52403E-03
             916            1573     4.41936E-03     4.52403E-03
             934            1573     4.41936E-03     4.52403E-03
             915            1573     4.41936E-03     4.52403E-03
             917            1574     4.52240E-03     4.64318E-03
             934            1574     4.52240E-03     4.64318E-03
             916            1574     4.52240E-03     4.64318E-03
             935            1574     4.52240E-03     4.64318E-03
             935            1575     4.64462E-03     4.77778E-03
             918            1575     4.64462E-03     4.77778E-03
             917            1575     4.64462E-03     4.77778E-03
             936            1575     4.64462E-03     4.77778E-03
             936            1576     4.78746E-03     4.93265E-03
             919            1576     4.78746E-03     4.93265E-03
             918            1576     4.78746E-03     4.93265E-03
             937            1576     4.78746E-03     4.93265E-03
             919            1577     4.95007E-03     5.10637E-03
             938            1577     4.95007E-03     5.10637E-03
             920            1577     4.95007E-03     5.10637E-03
             937            1577     4.95007E-03     5.10637E-03
             920            1578     5.13638E-03     5.30275E-03
             921            1578     5.13638E-03     5.30275E-03
             939            1578     5.13638E-03     5.30275E-03
             938            1578     5.13638E-03     5.30275E-03
             939            1579     5.34343E-03     5.52050E-03
             922            1579     5.34343E-03     5.52050E-03
             940            1579     5.34343E-03     5.52050E-03
             921            1579     5.34343E-03     5.52050E-03
             922            1580     5.56697E-03     5.75404E-03
             941            1580     5.56697E-03     5.75404E-03
             940            1580     5.56697E-03     5.75404E-03
             923            1580     5.56697E-03     5.75404E-03
             923            1581     5.77766E-03     5.98484E-03
             924            1581     5.77766E-03     5.98484E-03
             942            1581     5.77766E-03     5.98484E-03
             941            1581     5.77766E-03     5.98484E-03
             943            1582     5.90625E-03     6.14408E-03
             924            1582     5.90625E-03     6.14408E-03
             925            1582     5.90625E-03     6.14408E-03
             942            1582     5.90625E-03     6.14408E-03
             926            1583     5.89241E-03     6.16757E-03
             925            1583     5.89241E-03     6.16757E-03
             944            1583     5.89241E-03     6.16757E-03
             943            1583     5.89241E-03     6.16757E-03
             944            1584     5.83881E-03     6.05788E-03
             945            1584     5.83881E-03     6.05788E-03
             926            1584     5.83881E-03     6.05788E-03
             927            1584     5.83881E-03     6.05788E-03
             928            1585     6.70606E-03     6.88055E-03
             945            1585     6.70606E-03     6.88055E-03
             946            1585     6.70606E-03     6.88055E-03
             927            1585     6.70606E-03     6.88055E-03
             948            1586     4.12676E-03     3.91550E-03
             947            1586     4.12676E-03     3.91550E-03
             929            1586     4.12676E-03     3.91550E-03
             930            1586     4.12676E-03     3.91550E-03
             949            1587     4.02962E-03     4.10984E-03
             931            1587     4.02962E-03     4.10984E-03
             930            1587     4.02962E-03     4.10984E-03
             948            1587     4.02962E-03     4.10984E-03
             949            1588     4.04529E-03     4.20930E-03
             932            1588     4.04529E-03     4.20930E-03
             950            1588     4.04529E-03     4.20930E-03
             931            1588     4.04529E-03     4.20930E-03
             950            1589     4.11375E-03     4.31971E-03
             933            1589     4.11375E-03     4.31971E-03
             932            1589     4.11375E-03     4.31971E-03
             951            1589     4.11375E-03     4.31971E-03
             934            1590     4.19064E-03     4.45159E-03
             952            1590     4.19064E-03     4.45159E-03
             933            1590     4.19064E-03     4.45159E-03
             951            1590     4.19064E-03     4.45159E-03
             935            1591     4.29237E-03     4.58851E-03
             952            1591     4.29237E-03     4.58851E-03
             934            1591     4.29237E-03     4.58851E-03
             953            1591     4.29237E-03     4.58851E-03
             936            1592     4.41308E-03     4.74303E-03
             954            1592     4.41308E-03     4.74303E-03
             935            1592     4.41308E-03     4.74303E-03
             953            1592     4.41308E-03     4.74303E-03
             937            1593     4.55052E-03     4.90867E-03
             954            1593     4.55052E-03     4.90867E-03
             955            1593     4.55052E-03     4.90867E-03
             936            1593     4.55052E-03     4.90867E-03
             956            1594     4.70523E-03     5.08992E-03
             955            1594     4.70523E-03     5.08992E-03
             938            1594     4.70523E-03     5.08992E-03
             937            1594     4.70523E-03     5.08992E-03
             938            1595     4.87356E-03     5.28050E-03
             957            1595     4.87356E-03     5.28050E-03
             939            1595     4.87356E-03     5.28050E-03
             956            1595     4.87356E-03     5.28050E-03
             939            1596     5.05649E-03     5.48650E-03
             957            1596     5.05649E-03     5.48650E-03
             958            1596     5.05649E-03     5.48650E-03
             940            1596     5.05649E-03     5.48650E-03
             941            1597     5.24081E-03     5.69513E-03
             940            1597     5.24081E-03     5.69513E-03
             959            1597     5.24081E-03     5.69513E-03
             958            1597     5.24081E-03     5.69513E-03
             941            1598     5.44071E-03     5.92181E-03
             959            1598     5.44071E-03     5.92181E-03
             960            1598     5.44071E-03     5.92181E-03
             942            1598     5.44071E-03     5.92181E-03
             942            1599     5.61498E-03     6.14667E-03
             960            1599     5.61498E-03     6.14667E-03
             943            1599     5.61498E-03     6.14667E-03
             961            1599     5.61498E-03     6.14667E-03
             943            1600     5.94682E-03     6.46203E-03
             944            1600     5.94682E-03     6.46203E-03
             962            1600     5.94682E-03     6.46203E-03
             961            1600     5.94682E-03     6.46203E-03
             945            1601     6.95554E-03     7.29602E-03
             963            1601     6.95554E-03     7.29602E-03
             962            1601     6.95554E-03     7.29602E-03
             944            1601     6.95554E-03     7.29602E-03
             946            1602     8.98093E-03     8.96457E-03
             963            1602     8.98093E-03     8.96457E-03
             964            1602     8.98093E-03     8.96457E-03
             945            1602     8.98093E-03     8.96457E-03
             948            1603     3.63912E-03     3.99124E-03
             966            1603     3.63912E-03     3.99124E-03
             965            1603     3.63912E-03     3.99124E-03
             947            1603     3.63912E-03     3.99124E-03
             948            1604     3.70784E-03     4.02579E-03
             949            1604     3.70784E-03     4.02579E-03
             967            1604     3.70784E-03     4.02579E-03
             966            1604     3.70784E-03     4.02579E-03
             950            1605     3.79991E-03     4.10429E-03
             968            1605     3.79991E-03     4.10429E-03
             967            1605     3.79991E-03     4.10429E-03
             949            1605     3.79991E-03     4.10429E-03
             950            1606     3.87715E-03     4.23424E-03
             968            1606     3.87715E-03     4.23424E-03
             951            1606     3.87715E-03     4.23424E-03
             969            1606     3.87715E-03     4.23424E-03
             970            1607     3.95941E-03     4.38154E-03
             952            1607     3.95941E-03     4.38154E-03
             969            1607     3.95941E-03     4.38154E-03
             951            1607     3.95941E-03     4.38154E-03
             953            1608     4.05800E-03     4.54116E-03
             971            1608     4.05800E-03     4.54116E-03
             970            1608     4.05800E-03     4.54116E-03
             952            1608     4.05800E-03     4.54116E-03
             954            1609     4.17303E-03     4.70724E-03
             972            1609     4.17303E-03     4.70724E-03
             971            1609     4.17303E-03     4.70724E-03
             953            1609     4.17303E-03     4.70724E-03
             955            1610     4.30244E-03     4.88404E-03
             972            1610     4.30244E-03     4.88404E-03
             954            1610     4.30244E-03     4.88404E-03
             973            1610     4.30244E-03     4.88404E-03
             973            1611     4.44376E-03     5.06394E-03
             956            1611     4.44376E-03     5.06394E-03
             974            1611     4.44376E-03     5.06394E-03
             955            1611     4.44376E-03     5.06394E-03
             975            1612     4.59081E-03     5.25009E-03
             974            1612     4.59081E-03     5.25009E-03
             956            1612     4.59081E-03     5.25009E-03
             957            1612     4.59081E-03     5.25009E-03
             957            1613     4.73643E-03     5.42982E-03
             975            1613     4.73643E-03     5.42982E-03
             976            1613     4.73643E-03     5.42982E-03
             958            1613     4.73643E-03     5.42982E-03
             976            1614     4.88402E-03     5.61749E-03
             959            1614     4.88402E-03     5.61749E-03
             958            1614     4.88402E-03     5.61749E-03
             977            1614     4.88402E-03     5.61749E-03
             959            1615     5.02172E-03     5.80420E-03
             960            1615     5.02172E-03     5.80420E-03
             977            1615     5.02172E-03     5.80420E-03
             978            1615     5.02172E-03     5.80420E-03
             960            1616     5.25590E-03     6.09088E-03
             979            1616     5.25590E-03     6.09088E-03
             978            1616     5.25590E-03     6.09088E-03
             961            1616     5.25590E-03     6.09088E-03
             979            1617     5.68381E-03     6.59856E-03
             980            1617     5.68381E-03     6.59856E-03
             962            1617     5.68381E-03     6.59856E-03
             961            1617     5.68381E-03     6.59856E-03
             963            1618     6.98237E-03     7.94792E-03
             981            1618     6.98237E-03     7.94792E-03
             962            1618     6.98237E-03     7.94792E-03
             980            1618     6.98237E-03     7.94792E-03
             964            1619     10.3764E-03     11.2255E-03
             963            1619     10.3764E-03     11.2255E-03
             981            1619     10.3764E-03     11.2255E-03
             982            1619     10.3764E-03     11.2255E-03
             966            1620     4.98765E-03     5.67525E-03
             984            1620     4.98765E-03     5.67525E-03
             965            1620     4.98765E-03     5.67525E-03
             983            1620     4.98765E-03     5.67525E-03
             966            1621     5.42954E-03     5.60203E-03
             985            1621     5.42954E-03     5.60203E-03
             967            1621     5.42954E-03     5.60203E-03
             984            1621     5.42954E-03     5.60203E-03
             967            1622     5.69846E-03     5.76786E-03
             985            1622     5.69846E-03     5.76786E-03
             968            1622     5.69846E-03     5.76786E-03
             986            1622     5.69846E-03     5.76786E-03
             969            1623     5.99127E-03     6.07426E-03
             968            1623     5.99127E-03     6.07426E-03
             987            1623     5.99127E-03     6.07426E-03
             986            1623     5.99127E-03     6.07426E-03
             988            1624     6.31675E-03     6.41112E-03
             970            1624     6.31675E-03     6.41112E-03
             969            1624     6.31675E-03     6.41112E-03
             987            1624     6.31675E-03     6.41112E-03
             989            1625     6.67834E-03     6.79475E-03
             988            1625     6.67834E-03     6.79475E-03
             970            1625     6.67834E-03     6.79475E-03
             971            1625     6.67834E-03     6.79475E-03
             972            1626     7.06174E-03     7.19258E-03
             989            1626     7.06174E-03     7.19258E-03
             990            1626     7.06174E-03     7.19258E-03
             971            1626     7.06174E-03     7.19258E-03
             972            1627     7.46063E-03     7.60102E-03
             973            1627     7.46063E-03     7.60102E-03
             990            1627     7.46063E-03     7.60102E-03
             991            1627     7.46063E-03     7.60102E-03
             974            1628     7.85810E-03     8.00178E-03
             991            1628     7.85810E-03     8.00178E-03
             992            1628     7.85810E-03     8.00178E-03
             973            1628     7.85810E-03     8.00178E-03
             975            1629     8.24288E-03     8.38481E-03
             974            1629     8.24288E-03     8.38481E-03
             992            1629     8.24288E-03     8.38481E-03
             993            1629     8.24288E-03     8.38481E-03
             994            1630     8.59291E-03     8.72574E-03
             975            1630     8.59291E-03     8.72574E-03
             976            1630     8.59291E-03     8.72574E-03
             993            1630     8.59291E-03     8.72574E-03
             995            1631     8.89826E-03     9.01783E-03
             977            1631     8.89826E-03     9.01783E-03
             994            1631     8.89826E-03     9.01783E-03
             976            1631     8.89826E-03     9.01783E-03
             995            1632     9.13280E-03     9.23123E-03
             978            1632     9.13280E-03     9.23123E-03
             996            1632     9.13280E-03     9.23123E-03
             977            1632     9.13280E-03     9.23123E-03
             997            1633     9.32609E-03     9.40298E-03
             979            1633     9.32609E-03     9.40298E-03
             996            1633     9.32609E-03     9.40298E-03
             978            1633     9.32609E-03     9.40298E-03
             997            1634     9.52240E-03     9.57072E-03
             998            1634     9.52240E-03     9.57072E-03
             980            1634     9.52240E-03     9.57072E-03
             979            1634     9.52240E-03     9.57072E-03
             980            1635     9.82957E-03     9.92221E-03
             981            1635     9.82957E-03     9.92221E-03
             999            1635     9.82957E-03     9.92221E-03
             998            1635     9.82957E-03     9.92221E-03
             982            1636     10.9216E-03     11.3358E-03
            1000            1636     10.9216E-03     11.3358E-03
             999            1636     10.9216E-03     11.3358E-03
             981            1636     10.9216E-03     11.3358E-03
             983            1637     6.43635E-03     7.15315E-03
             984            1637     6.43635E-03     7.15315E-03
            1002            1637     6.43635E-03     7.15315E-03
            1001            1637     6.43635E-03     7.15315E-03
            1002            1638     6.85997E-03     7.08977E-03
             985            1638     6.85997E-03     7.08977E-03
            1003            1638     6.85997E-03     7.08977E-03
             984            1638     6.85997E-03     7.08977E-03
            1003            1639     7.39751E-03     7.31848E-03
             986            1639     7.39751E-03     7.31848E-03
            1004            1639     7.39751E-03     7.31848E-03
             985            1639     7.39751E-03     7.31848E-03
             987            1640     7.97170E-03     7.77735E-03
             986            1640     7.97170E-03     7.77735E-03
            1005            1640     7.97170E-03     7.77735E-03
            1004            1640     7.97170E-03     7.77735E-03
             988            1641     8.60020E-03     8.34558E-03
             987            1641     8.60020E-03     8.34558E-03
            1005            1641     8.60020E-03     8.34558E-03
            1006            1641     8.60020E-03     8.34558E-03
            1007            1642     9.28419E-03     8.98877E-03
             989            1642     9.28419E-03     8.98877E-03
            1006            1642     9.28419E-03     8.98877E-03
             988            1642     9.28419E-03     8.98877E-03
             990            1643     10.0007E-03     9.67526E-03
            1007            1643     10.0007E-03     9.67526E-03
            1008            1643     10.0007E-03     9.67526E-03
             989            1643     10.0007E-03     9.67526E-03
             991            1644     10.7376E-03     10.3798E-03
            1009            1644     10.7376E-03     10.3798E-03
            1008            1644     10.7376E-03     10.3798E-03
             990            1644     10.7376E-03     10.3798E-03
             991            1645     11.4710E-03     11.0814E-03
             992            1645     11.4710E-03     11.0814E-03
            1010            1645     11.4710E-03     11.0814E-03
            1009            1645     11.4710E-03     11.0814E-03
             992            1646     12.1813E-03     11.7521E-03
            1011            1646     12.1813E-03     11.7521E-03
             993            1646     12.1813E-03     11.7521E-03
            1010            1646     12.1813E-03     11.7521E-03
            1011            1647     12.8403E-03     12.3675E-03
             994            1647     12.8403E-03     12.3675E-03
            1012            1647     12.8403E-03     12.3675E-03
             993            1647     12.8403E-03     12.3675E-03
             994            1648     13.4102E-03     12.8847E-03
            1012            1648     13.4102E-03     12.8847E-03
             995            1648     13.4102E-03     12.8847E-03
            1013            1648     13.4102E-03     12.8847E-03
            1013            1649     13.8509E-03     13.2632E-03
             996            1649     13.8509E-03     13.2632E-03
            1014            1649     13.8509E-03     13.2632E-03
             995            1649     13.8509E-03     13.2632E-03
             996            1650     14.0743E-03     13.4250E-03
            1015            1650     14.0743E-03     13.4250E-03
            1014            1650     14.0743E-03     13.4250E-03
             997            1650     14.0743E-03     13.4250E-03
            1015            1651     14.0020E-03     13.2879E-03
             997            1651     14.0020E-03     13.2879E-03
            1016            1651     14.0020E-03     13.2879E-03
             998            1651     14.0020E-03     13.2879E-03
             998            1652     13.3388E-03     12.6260E-03
            1017            1652     13.3388E-03     12.6260E-03
            1016            1652     13.3388E-03     12.6260E-03
             999            1652     13.3388E-03     12.6260E-03
             999            1653     12.0857E-03     11.4536E-03
            1018            1653     12.0857E-03     11.4536E-03
            1017            1653     12.0857E-03     11.4536E-03
            1000            1653     12.0857E-03     11.4536E-03
            1002            1654     6.05053E-03     6.34734E-03
            1019            1654     6.05053E-03     6.34734E-03
            1001            1654     6.05053E-03     6.34734E-03
            1020            1654     6.05053E-03     6.34734E-03
            1020            1655     6.25772E-03     6.65493E-03
            1003            1655     6.25772E-03     6.65493E-03
            1021            1655     6.25772E-03     6.65493E-03
            1002            1655     6.25772E-03     6.65493E-03
            1021            1656     6.82186E-03     6.96214E-03
            1022            1656     6.82186E-03     6.96214E-03
            1003            1656     6.82186E-03     6.96214E-03
            1004            1656     6.82186E-03     6.96214E-03
            1022            1657     7.50762E-03     7.46742E-03
            1005            1657     7.50762E-03     7.46742E-03
            1023            1657     7.50762E-03     7.46742E-03
            1004            1657     7.50762E-03     7.46742E-03
            1006            1658     8.24652E-03     8.12159E-03
            1023            1658     8.24652E-03     8.12159E-03
            1024            1658     8.24652E-03     8.12159E-03
            1005            1658     8.24652E-03     8.12159E-03
            1006            1659     9.04131E-03     8.86393E-03
            1025            1659     9.04131E-03     8.86393E-03
            1007            1659     9.04131E-03     8.86393E-03
            1024            1659     9.04131E-03     8.86393E-03
            1007            1660     9.87478E-03     9.66734E-03
            1025            1660     9.87478E-03     9.66734E-03
            1026            1660     9.87478E-03     9.66734E-03
            1008            1660     9.87478E-03     9.66734E-03
            1026            1661     10.7332E-03     10.5039E-03
            1009            1661     10.7332E-03     10.5039E-03
            1027            1661     10.7332E-03     10.5039E-03
            1008            1661     10.7332E-03     10.5039E-03
            1009            1662     11.6013E-03     11.3527E-03
            1028            1662     11.6013E-03     11.3527E-03
            1027            1662     11.6013E-03     11.3527E-03
            1010            1662     11.6013E-03     11.3527E-03
            1028            1663     12.4554E-03     12.1912E-03
            1029            1663     12.4554E-03     12.1912E-03
            1011            1663     12.4554E-03     12.1912E-03
            1010            1663     12.4554E-03     12.1912E-03
            1030            1664     13.2695E-03     12.9898E-03
            1011            1664     13.2695E-03     12.9898E-03
            1012            1664     13.2695E-03     12.9898E-03
            1029            1664     13.2695E-03     12.9898E-03
            1013            1665     14.0005E-03     13.7127E-03
            1031            1665     14.0005E-03     13.7127E-03
            1012            1665     14.0005E-03     13.7127E-03
            1030            1665     14.0005E-03     13.7127E-03
            1014            1666     14.5866E-03     14.3041E-03
            1032            1666     14.5866E-03     14.3041E-03
            1013            1666     14.5866E-03     14.3041E-03
            1031            1666     14.5866E-03     14.3041E-03
            1014            1667     14.9384E-03     14.6849E-03
            1032            1667     14.9384E-03     14.6849E-03
            1033            1667     14.9384E-03     14.6849E-03
            1015            1667     14.9384E-03     14.6849E-03
            1033            1668     14.9198E-03     14.7542E-03
            1016            1668     14.9198E-03     14.7542E-03
            1034            1668     14.9198E-03     14.7542E-03
            1015            1668     14.9198E-03     14.7542E-03
            1034            1669     14.3110E-03     14.3072E-03
            1035            1669     14.3110E-03     14.3072E-03
            1017            1669     14.3110E-03     14.3072E-03
            1016            1669     14.3110E-03     14.3072E-03
            1035            1670     13.9209E-03     13.9420E-03
            1018            1670     13.9209E-03     13.9420E-03
            1036            1670     13.9209E-03     13.9420E-03
            1017            1670     13.9209E-03     13.9420E-03
            1038            1671     5.55669E-03     5.53328E-03
            1020            1671     5.55669E-03     5.53328E-03
            1019            1671     5.55669E-03     5.53328E-03
            1037            1671     5.55669E-03     5.53328E-03
            1039            1672     5.85851E-03     6.03512E-03
            1038            1672     5.85851E-03     6.03512E-03
            1020            1672     5.85851E-03     6.03512E-03
            1021            1672     5.85851E-03     6.03512E-03
            1040            1673     6.37694E-03     6.58204E-03
            1021            1673     6.37694E-03     6.58204E-03
            1022            1673     6.37694E-03     6.58204E-03
            1039            1673     6.37694E-03     6.58204E-03
            1022            1674     7.10905E-03     7.19669E-03
            1040            1674     7.10905E-03     7.19669E-03
            1041            1674     7.10905E-03     7.19669E-03
            1023            1674     7.10905E-03     7.19669E-03
            1023            1675     7.93898E-03     7.94483E-03
            1024            1675     7.93898E-03     7.94483E-03
            1041            1675     7.93898E-03     7.94483E-03
            1042            1675     7.93898E-03     7.94483E-03
            1043            1676     8.82589E-03     8.78558E-03
            1025            1676     8.82589E-03     8.78558E-03
            1042            1676     8.82589E-03     8.78558E-03
            1024            1676     8.82589E-03     8.78558E-03
            1025            1677     9.75798E-03     9.69048E-03
            1026            1677     9.75798E-03     9.69048E-03
            1044            1677     9.75798E-03     9.69048E-03
            1043            1677     9.75798E-03     9.69048E-03
            1045            1678     10.7191E-03     10.6382E-03
            1026            1678     10.7191E-03     10.6382E-03
            1044            1678     10.7191E-03     10.6382E-03
            1027            1678     10.7191E-03     10.6382E-03
            1028            1679     11.6933E-03     11.6076E-03
            1046            1679     11.6933E-03     11.6076E-03
            1027            1679     11.6933E-03     11.6076E-03
            1045            1679     11.6933E-03     11.6076E-03
            1029            1680     12.6643E-03     12.5789E-03
            1047            1680     12.6643E-03     12.5789E-03
            1028            1680     12.6643E-03     12.5789E-03
            1046            1680     12.6643E-03     12.5789E-03
            1030            1681     13.5975E-03     13.5245E-03
            1029            1681     13.5975E-03     13.5245E-03
            1048            1681     13.5975E-03     13.5245E-03
            1047            1681     13.5975E-03     13.5245E-03
            1031            1682     14.4566E-03     14.4058E-03
            1030            1682     14.4566E-03     14.4058E-03
            1049            1682     14.4566E-03     14.4058E-03
            1048            1682     14.4566E-03     14.4058E-03
            1049            1683     15.1676E-03     15.1643E-03
            1032            1683     15.1676E-03     15.1643E-03
            1050            1683     15.1676E-03     15.1643E-03
            1031            1683     15.1676E-03     15.1643E-03
            1032            1684     15.6499E-03     15.7256E-03
            1051            1684     15.6499E-03     15.7256E-03
            1033            1684     15.6499E-03     15.7256E-03
            1050            1684     15.6499E-03     15.7256E-03
            1051            1685     15.7799E-03     15.9675E-03
            1052            1685     15.7799E-03     15.9675E-03
            1034            1685     15.7799E-03     15.9675E-03
            1033            1685     15.7799E-03     15.9675E-03
            1034            1686     15.6752E-03     15.9374E-03
            1053            1686     15.6752E-03     15.9374E-03
            1052            1686     15.6752E-03     15.9374E-03
            1035            1686     15.6752E-03     15.9374E-03
            1053            1687     16.0293E-03     16.1244E-03
            1035            1687     16.0293E-03     16.1244E-03
            1036            1687     16.0293E-03     16.1244E-03
            1054            1687     16.0293E-03     16.1244E-03
            1038            1688     5.04950E-03     5.00225E-03
            1056            1688     5.04950E-03     5.00225E-03
            1055            1688     5.04950E-03     5.00225E-03
            1037            1688     5.04950E-03     5.00225E-03
            1057            1689     5.41611E-03     5.48466E-03
            1056            1689     5.41611E-03     5.48466E-03
            1039            1689     5.41611E-03     5.48466E-03
            1038            1689     5.41611E-03     5.48466E-03
            1057            1690     6.00347E-03     6.16425E-03
            1058            1690     6.00347E-03     6.16425E-03
            1039            1690     6.00347E-03     6.16425E-03
            1040            1690     6.00347E-03     6.16425E-03
            1041            1691     6.76146E-03     6.92912E-03
            1040            1691     6.76146E-03     6.92912E-03
            1058            1691     6.76146E-03     6.92912E-03
            1059            1691     6.76146E-03     6.92912E-03
            1042            1692     7.64881E-03     7.77312E-03
            1059            1692     7.64881E-03     7.77312E-03
            1060            1692     7.64881E-03     7.77312E-03
            1041            1692     7.64881E-03     7.77312E-03
            1043            1693     8.60638E-03     8.70189E-03
            1060            1693     8.60638E-03     8.70189E-03
            1042            1693     8.60638E-03     8.70189E-03
            1061            1693     8.60638E-03     8.70189E-03
            1044            1694     9.61043E-03     9.68997E-03
            1043            1694     9.61043E-03     9.68997E-03
            1062            1694     9.61043E-03     9.68997E-03
            1061            1694     9.61043E-03     9.68997E-03
            1063            1695     10.6457E-03     10.7210E-03
            1044            1695     10.6457E-03     10.7210E-03
            1045            1695     10.6457E-03     10.7210E-03
            1062            1695     10.6457E-03     10.7210E-03
            1063            1696     11.7003E-03     11.7803E-03
            1045            1696     11.7003E-03     11.7803E-03
            1046            1696     11.7003E-03     11.7803E-03
            1064            1696     11.7003E-03     11.7803E-03
            1046            1697     12.7528E-03     12.8485E-03
            1047            1697     12.7528E-03     12.8485E-03
            1064            1697     12.7528E-03     12.8485E-03
            1065            1697     12.7528E-03     12.8485E-03
            1047            1698     13.7870E-03     13.9055E-03
            1048            1698     13.7870E-03     13.9055E-03
            1065            1698     13.7870E-03     13.9055E-03
            1066            1698     13.7870E-03     13.9055E-03
            1049            1699     14.7517E-03     14.9137E-03
            1048            1699     14.7517E-03     14.9137E-03
            1067            1699     14.7517E-03     14.9137E-03
            1066            1699     14.7517E-03     14.9137E-03
            1049            1700     15.6062E-03     15.8227E-03
            1067            1700     15.6062E-03     15.8227E-03
            1050            1700     15.6062E-03     15.8227E-03
            1068            1700     15.6062E-03     15.8227E-03
            1051            1701     16.2680E-03     16.5592E-03
            1050            1701     16.2680E-03     16.5592E-03
            1068            1701     16.2680E-03     16.5592E-03
            1069            1701     16.2680E-03     16.5592E-03
            1051            1702     16.7214E-03     17.0770E-03
            1052            1702     16.7214E-03     17.0770E-03
            1070            1702     16.7214E-03     17.0770E-03
            1069            1702     16.7214E-03     17.0770E-03
            1052            1703     17.1786E-03     17.4777E-03
            1053            1703     17.1786E-03     17.4777E-03
            1070            1703     17.1786E-03     17.4777E-03
            1071            1703     17.1786E-03     17.4777E-03
            1053            1704     17.9404E-03     18.1158E-03
            1054            1704     17.9404E-03     18.1158E-03
            1072            1704     17.9404E-03     18.1158E-03
            1071            1704     17.9404E-03     18.1158E-03
            1056            1705     4.56238E-03     4.44640E-03
            1073            1705     4.56238E-03     4.44640E-03
            1074            1705     4.56238E-03     4.44640E-03
            1055            1705     4.56238E-03     4.44640E-03
            1056            1706     4.97319E-03     5.03488E-03
            1075            1706     4.97319E-03     5.03488E-03
            1074            1706     4.97319E-03     5.03488E-03
            1057            1706     4.97319E-03     5.03488E-03
            1057            1707     5.61588E-03     5.77661E-03
            1076            1707     5.61588E-03     5.77661E-03
            1058            1707     5.61588E-03     5.77661E-03
            1075            1707     5.61588E-03     5.77661E-03
            1059            1708     6.42787E-03     6.64452E-03
            1076            1708     6.42787E-03     6.64452E-03
            1077            1708     6.42787E-03     6.64452E-03
            1058            1708     6.42787E-03     6.64452E-03
            1078            1709     7.35338E-03     7.58318E-03
            1077            1709     7.35338E-03     7.58318E-03
            1060            1709     7.35338E-03     7.58318E-03
            1059            1709     7.35338E-03     7.58318E-03
            1061            1710     8.35718E-03     8.58158E-03
            1060            1710     8.35718E-03     8.58158E-03
            1078            1710     8.35718E-03     8.58158E-03
            1079            1710     8.35718E-03     8.58158E-03
            1080            1711     9.40778E-03     9.63175E-03
            1079            1711     9.40778E-03     9.63175E-03
            1061            1711     9.40778E-03     9.63175E-03
            1062            1711     9.40778E-03     9.63175E-03
            1063            1712     10.4920E-03     10.7210E-03
            1062            1712     10.4920E-03     10.7210E-03
            1080            1712     10.4920E-03     10.7210E-03
            1081            1712     10.4920E-03     10.7210E-03
            1082            1713     11.5956E-03     11.8381E-03
            1064            1713     11.5956E-03     11.8381E-03
            1081            1713     11.5956E-03     11.8381E-03
            1063            1713     11.5956E-03     11.8381E-03
            1065            1714     12.7121E-03     12.9748E-03
            1064            1714     12.7121E-03     12.9748E-03
            1083            1714     12.7121E-03     12.9748E-03
            1082            1714     12.7121E-03     12.9748E-03
            1065            1715     13.8163E-03     14.1116E-03
            1083            1715     13.8163E-03     14.1116E-03
            1084            1715     13.8163E-03     14.1116E-03
            1066            1715     13.8163E-03     14.1116E-03
            1084            1716     14.9013E-03     15.2307E-03
            1066            1716     14.9013E-03     15.2307E-03
            1067            1716     14.9013E-03     15.2307E-03
            1085            1716     14.9013E-03     15.2307E-03
            1085            1717     15.9116E-03     16.2937E-03
            1067            1717     15.9116E-03     16.2937E-03
            1086            1717     15.9116E-03     16.2937E-03
            1068            1717     15.9116E-03     16.2937E-03
            1069            1718     16.8327E-03     17.2522E-03
            1068            1718     16.8327E-03     17.2522E-03
            1086            1718     16.8327E-03     17.2522E-03
            1087            1718     16.8327E-03     17.2522E-03
            1070            1719     17.6932E-03     18.1016E-03
            1087            1719     17.6932E-03     18.1016E-03
            1088            1719     17.6932E-03     18.1016E-03
            1069            1719     17.6932E-03     18.1016E-03
            1088            1720     18.5732E-03     18.9359E-03
            1071            1720     18.5732E-03     18.9359E-03
            1070            1720     18.5732E-03     18.9359E-03
            1089            1720     18.5732E-03     18.9359E-03
            1072            1721     19.7629E-03     19.9697E-03
            1071            1721     19.7629E-03     19.9697E-03
            1089            1721     19.7629E-03     19.9697E-03
            1090            1721     19.7629E-03     19.9697E-03
            1074            1722     4.04388E-03     3.94543E-03
            1091            1722     4.04388E-03     3.94543E-03
            1073            1722     4.04388E-03     3.94543E-03
            1092            1722     4.04388E-03     3.94543E-03
            1075            1723     4.52036E-03     4.58799E-03
            1074            1723     4.52036E-03     4.58799E-03
            1093            1723     4.52036E-03     4.58799E-03
            1092            1723     4.52036E-03     4.58799E-03
            1075            1724     5.21490E-03     5.42359E-03
            1076            1724     5.21490E-03     5.42359E-03
            1093            1724     5.21490E-03     5.42359E-03
            1094            1724     5.21490E-03     5.42359E-03
            1095            1725     6.07215E-03     6.35710E-03
            1077            1725     6.07215E-03     6.35710E-03
            1094            1725     6.07215E-03     6.35710E-03
            1076            1725     6.07215E-03     6.35710E-03
            1077            1726     7.03461E-03     7.36398E-03
            1078            1726     7.03461E-03     7.36398E-03
            1095            1726     7.03461E-03     7.36398E-03
            1096            1726     7.03461E-03     7.36398E-03
            1079            1727     8.06493E-03     8.41574E-03
            1097            1727     8.06493E-03     8.41574E-03
            1096            1727     8.06493E-03     8.41574E-03
            1078            1727     8.06493E-03     8.41574E-03
            1097            1728     9.14255E-03     9.50589E-03
            1080            1728     9.14255E-03     9.50589E-03
            1098            1728     9.14255E-03     9.50589E-03
            1079            1728     9.14255E-03     9.50589E-03
            1099            1729     10.2511E-03     10.6283E-03
            1081            1729     10.2511E-03     10.6283E-03
            1098            1729     10.2511E-03     10.6283E-03
            1080            1729     10.2511E-03     10.6283E-03
            1099            1730     11.3846E-03     11.7798E-03
            1082            1730     11.3846E-03     11.7798E-03
            1100            1730     11.3846E-03     11.7798E-03
            1081            1730     11.3846E-03     11.7798E-03
            1083            1731     12.5353E-03     12.9535E-03
            1101            1731     12.5353E-03     12.9535E-03
            1100            1731     12.5353E-03     12.9535E-03
            1082            1731     12.5353E-03     12.9535E-03
            1102            1732     13.7064E-03     14.1512E-03
            1084            1732     13.7064E-03     14.1512E-03
            1083            1732     13.7064E-03     14.1512E-03
            1101            1732     13.7064E-03     14.1512E-03
            1084            1733     14.8827E-03     15.3599E-03
            1103            1733     14.8827E-03     15.3599E-03
            1085            1733     14.8827E-03     15.3599E-03
            1102            1733     14.8827E-03     15.3599E-03
            1085            1734     16.0914E-03     16.5821E-03
            1103            1734     16.0914E-03     16.5821E-03
            1086            1734     16.0914E-03     16.5821E-03
            1104            1734     16.0914E-03     16.5821E-03
            1104            1735     17.3067E-03     17.8090E-03
            1105            1735     17.3067E-03     17.8090E-03
            1087            1735     17.3067E-03     17.8090E-03
            1086            1735     17.3067E-03     17.8090E-03
            1087            1736     18.5566E-03     19.0295E-03
            1088            1736     18.5566E-03     19.0295E-03
            1105            1736     18.5566E-03     19.0295E-03
            1106            1736     18.5566E-03     19.0295E-03
            1088            1737     19.9301E-03     20.2903E-03
            1106            1737     19.9301E-03     20.2903E-03
            1089            1737     19.9301E-03     20.2903E-03
            1107            1737     19.9301E-03     20.2903E-03
            1090            1738     21.4701E-03     21.7711E-03
            1107            1738     21.4701E-03     21.7711E-03
            1089            1738     21.4701E-03     21.7711E-03
            1108            1738     21.4701E-03     21.7711E-03
            1092            1739     3.51459E-03     3.44649E-03
            1109            1739     3.51459E-03     3.44649E-03
            1110            1739     3.51459E-03     3.44649E-03
            1091            1739     3.51459E-03     3.44649E-03
            1111            1740     4.03785E-03     4.17453E-03
            1093            1740     4.03785E-03     4.17453E-03
            1092            1740     4.03785E-03     4.17453E-03
            1110            1740     4.03785E-03     4.17453E-03
            1093            1741     4.79378E-03     5.07478E-03
            1094            1741     4.79378E-03     5.07478E-03
            1111            1741     4.79378E-03     5.07478E-03
            1112            1741     4.79378E-03     5.07478E-03
            1113            1742     5.69019E-03     6.07568E-03
            1094            1742     5.69019E-03     6.07568E-03
            1095            1742     5.69019E-03     6.07568E-03
            1112            1742     5.69019E-03     6.07568E-03
            1114            1743     6.68023E-03     7.12410E-03
            1095            1743     6.68023E-03     7.12410E-03
            1113            1743     6.68023E-03     7.12410E-03
            1096            1743     6.68023E-03     7.12410E-03
            1096            1744     7.72993E-03     8.20923E-03
            1097            1744     7.72993E-03     8.20923E-03
            1114            1744     7.72993E-03     8.20923E-03
            1115            1744     7.72993E-03     8.20923E-03
            1116            1745     8.81836E-03     9.32047E-03
            1097            1745     8.81836E-03     9.32047E-03
            1115            1745     8.81836E-03     9.32047E-03
            1098            1745     8.81836E-03     9.32047E-03
            1117            1746     9.93562E-03     10.4568E-03
            1099            1746     9.93562E-03     10.4568E-03
            1098            1746     9.93562E-03     10.4568E-03
            1116            1746     9.93562E-03     10.4568E-03
            1099            1747     11.0785E-03     11.6177E-03
            1100            1747     11.0785E-03     11.6177E-03
            1117            1747     11.0785E-03     11.6177E-03
            1118            1747     11.0785E-03     11.6177E-03
            1101            1748     12.2486E-03     12.8094E-03
            1118            1748     12.2486E-03     12.8094E-03
            1100            1748     12.2486E-03     12.8094E-03
            1119            1748     12.2486E-03     12.8094E-03
            1102            1749     13.4550E-03     14.0356E-03
            1120            1749     13.4550E-03     14.0356E-03
            1101            1749     13.4550E-03     14.0356E-03
            1119            1749     13.4550E-03     14.0356E-03
            1120            1750     14.7221E-03     15.3193E-03
            1103            1750     14.7221E-03     15.3193E-03
            1102            1750     14.7221E-03     15.3193E-03
            1121            1750     14.7221E-03     15.3193E-03
            1103            1751     16.0690E-03     16.6726E-03
            1104            1751     16.0690E-03     16.6726E-03
            1121            1751     16.0690E-03     16.6726E-03
            1122            1751     16.0690E-03     16.6726E-03
            1105            1752     17.6036E-03     18.1582E-03
            1123            1752     17.6036E-03     18.1582E-03
            1122            1752     17.6036E-03     18.1582E-03
            1104            1752     17.6036E-03     18.1582E-03
            1124            1753     19.2986E-03     19.8032E-03
            1105            1753     19.2986E-03     19.8032E-03
            1106            1753     19.2986E-03     19.8032E-03
            1123            1753     19.2986E-03     19.8032E-03
            1125            1754     21.1352E-03     21.5910E-03
            1106            1754     21.1352E-03     21.5910E-03
            1107            1754     21.1352E-03     21.5910E-03
            1124            1754     21.1352E-03     21.5910E-03
            1108            1755     23.2135E-03     23.4893E-03
            1126            1755     23.2135E-03     23.4893E-03
            1107            1755     23.2135E-03     23.4893E-03
            1125            1755     23.2135E-03     23.4893E-03
            1109            1756     2.94526E-03     2.95499E-03
            1110            1756     2.94526E-03     2.95499E-03
            1127            1756     2.94526E-03     2.95499E-03
            1128            1756     2.94526E-03     2.95499E-03
            1129            1757     3.53922E-03     3.77659E-03
            1110            1757     3.53922E-03     3.77659E-03
            1111            1757     3.53922E-03     3.77659E-03
            1128            1757     3.53922E-03     3.77659E-03
            1112            1758     4.34333E-03     4.75594E-03
            1130            1758     4.34333E-03     4.75594E-03
            1129            1758     4.34333E-03     4.75594E-03
            1111            1758     4.34333E-03     4.75594E-03
            1131            1759     5.28273E-03     5.79949E-03
            1112            1759     5.28273E-03     5.79949E-03
            1130            1759     5.28273E-03     5.79949E-03
            1113            1759     5.28273E-03     5.79949E-03
            1132            1760     6.29857E-03     6.87943E-03
            1113            1760     6.29857E-03     6.87943E-03
            1114            1760     6.29857E-03     6.87943E-03
            1131            1760     6.29857E-03     6.87943E-03
            1133            1761     7.36033E-03     7.97978E-03
            1114            1761     7.36033E-03     7.97978E-03
            1132            1761     7.36033E-03     7.97978E-03
            1115            1761     7.36033E-03     7.97978E-03
            1134            1762     8.45172E-03     9.09735E-03
            1115            1762     8.45172E-03     9.09735E-03
            1133            1762     8.45172E-03     9.09735E-03
            1116            1762     8.45172E-03     9.09735E-03
            1116            1763     9.56785E-03     10.2314E-03
            1134            1763     9.56785E-03     10.2314E-03
            1117            1763     9.56785E-03     10.2314E-03
            1135            1763     9.56785E-03     10.2314E-03
            1135            1764     10.7064E-03     11.3864E-03
            1117            1764     10.7064E-03     11.3864E-03
            1118            1764     10.7064E-03     11.3864E-03
            1136            1764     10.7064E-03     11.3864E-03
            1118            1765     11.8799E-03     12.5721E-03
            1137            1765     11.8799E-03     12.5721E-03
            1136            1765     11.8799E-03     12.5721E-03
            1119            1765     11.8799E-03     12.5721E-03
            1138            1766     13.1009E-03     13.8079E-03
            1120            1766     13.1009E-03     13.8079E-03
            1119            1766     13.1009E-03     13.8079E-03
            1137            1766     13.1009E-03     13.8079E-03
            1138            1767     14.4111E-03     15.1208E-03
            1139            1767     14.4111E-03     15.1208E-03
            1120            1767     14.4111E-03     15.1208E-03
            1121            1767     14.4111E-03     15.1208E-03
            1122            1768     15.8683E-03     16.5736E-03
            1139            1768     15.8683E-03     16.5736E-03
            1121            1768     15.8683E-03     16.5736E-03
            1140            1768     15.8683E-03     16.5736E-03
            1141            1769     17.5553E-03     18.2255E-03
            1140            1769     17.5553E-03     18.2255E-03
            1122            1769     17.5553E-03     18.2255E-03
            1123            1769     17.5553E-03     18.2255E-03
            1141            1770     19.7348E-03     20.2627E-03
            1123            1770     19.7348E-03     20.2627E-03
            1142            1770     19.7348E-03     20.2627E-03
            1124            1770     19.7348E-03     20.2627E-03
            1143            1771     22.2725E-03     22.6788E-03
            1142            1771     22.2725E-03     22.6788E-03
            1124            1771     22.2725E-03     22.6788E-03
            1125            1771     22.2725E-03     22.6788E-03
            1143            1772     24.8317E-03     25.3190E-03
            1144            1772     24.8317E-03     25.3190E-03
            1125            1772     24.8317E-03     25.3190E-03
            1126            1772     24.8317E-03     25.3190E-03
            1146            1773     2.34518E-03     2.49057E-03
            1145            1773     2.34518E-03     2.49057E-03
            1128            1773     2.34518E-03     2.49057E-03
            1127            1773     2.34518E-03     2.49057E-03
            1146            1774     2.99833E-03     3.43169E-03
            1147            1774     2.99833E-03     3.43169E-03
            1128            1774     2.99833E-03     3.43169E-03
            1129            1774     2.99833E-03     3.43169E-03
            1129            1775     3.87694E-03     4.47236E-03
            1148            1775     3.87694E-03     4.47236E-03
            1147            1775     3.87694E-03     4.47236E-03
            1130            1775     3.87694E-03     4.47236E-03
            1148            1776     4.86438E-03     5.54980E-03
            1130            1776     4.86438E-03     5.54980E-03
            1131            1776     4.86438E-03     5.54980E-03
            1149            1776     4.86438E-03     5.54980E-03
            1131            1777     5.90543E-03     6.64625E-03
            1150            1777     5.90543E-03     6.64625E-03
            1132            1777     5.90543E-03     6.64625E-03
            1149            1777     5.90543E-03     6.64625E-03
            1150            1778     6.97570E-03     7.75260E-03
            1132            1778     6.97570E-03     7.75260E-03
            1133            1778     6.97570E-03     7.75260E-03
            1151            1778     6.97570E-03     7.75260E-03
            1152            1779     8.06783E-03     8.86613E-03
            1133            1779     8.06783E-03     8.86613E-03
            1151            1779     8.06783E-03     8.86613E-03
            1134            1779     8.06783E-03     8.86613E-03
            1153            1780     9.17615E-03     9.98812E-03
            1134            1780     9.17615E-03     9.98812E-03
            1135            1780     9.17615E-03     9.98812E-03
            1152            1780     9.17615E-03     9.98812E-03
            1154            1781     10.3085E-03     11.1271E-03
            1135            1781     10.3085E-03     11.1271E-03
            1153            1781     10.3085E-03     11.1271E-03
            1136            1781     10.3085E-03     11.1271E-03
            1154            1782     11.4704E-03     12.2933E-03
            1137            1782     11.4704E-03     12.2933E-03
            1155            1782     11.4704E-03     12.2933E-03
            1136            1782     11.4704E-03     12.2933E-03
            1155            1783     12.6943E-03     13.5146E-03
            1138            1783     12.6943E-03     13.5146E-03
            1137            1783     12.6943E-03     13.5146E-03
            1156            1783     12.6943E-03     13.5146E-03
            1138            1784     14.0059E-03     14.8262E-03
            1156            1784     14.0059E-03     14.8262E-03
            1139            1784     14.0059E-03     14.8262E-03
            1157            1784     14.0059E-03     14.8262E-03
            1158            1785     15.4966E-03     16.3002E-03
            1139            1785     15.4966E-03     16.3002E-03
            1140            1785     15.4966E-03     16.3002E-03
            1157            1785     15.4966E-03     16.3002E-03
            1140            1786     17.2571E-03     18.0476E-03
            1159            1786     17.2571E-03     18.0476E-03
            1158            1786     17.2571E-03     18.0476E-03
            1141            1786     17.2571E-03     18.0476E-03
            1141            1787     19.5076E-03     20.2364E-03
            1159            1787     19.5076E-03     20.2364E-03
            1160            1787     19.5076E-03     20.2364E-03
            1142            1787     19.5076E-03     20.2364E-03
            1161            1788     22.8329E-03     23.2950E-03
            1142            1788     22.8329E-03     23.2950E-03
            1160            1788     22.8329E-03     23.2950E-03
            1143            1788     22.8329E-03     23.2950E-03
            1143            1789     26.6277E-03     26.7332E-03
            1161            1789     26.6277E-03     26.7332E-03
            1162            1789     26.6277E-03     26.7332E-03
            1144            1789     26.6277E-03     26.7332E-03
            1164            1790     1.64958E-03     2.12278E-03
            1145            1790     1.64958E-03     2.12278E-03
            1163            1790     1.64958E-03     2.12278E-03
            1146            1790     1.64958E-03     2.12278E-03
            1164            1791     2.45064E-03     3.16343E-03
            1147            1791     2.45064E-03     3.16343E-03
            1146            1791     2.45064E-03     3.16343E-03
            1165            1791     2.45064E-03     3.16343E-03
            1147            1792     3.42777E-03     4.24484E-03
            1148            1792     3.42777E-03     4.24484E-03
            1166            1792     3.42777E-03     4.24484E-03
            1165            1792     3.42777E-03     4.24484E-03
            1167            1793     4.46376E-03     5.34530E-03
            1166            1793     4.46376E-03     5.34530E-03
            1149            1793     4.46376E-03     5.34530E-03
            1148            1793     4.46376E-03     5.34530E-03
            1149            1794     5.52427E-03     6.44952E-03
            1168            1794     5.52427E-03     6.44952E-03
            1167            1794     5.52427E-03     6.44952E-03
            1150            1794     5.52427E-03     6.44952E-03
            1150            1795     6.60264E-03     7.55410E-03
            1168            1795     6.60264E-03     7.55410E-03
            1151            1795     6.60264E-03     7.55410E-03
            1169            1795     6.60264E-03     7.55410E-03
            1151            1796     7.69182E-03     8.65767E-03
            1152            1796     7.69182E-03     8.65767E-03
            1169            1796     7.69182E-03     8.65767E-03
            1170            1796     7.69182E-03     8.65767E-03
            1153            1797     8.79630E-03     9.76606E-03
            1171            1797     8.79630E-03     9.76606E-03
            1170            1797     8.79630E-03     9.76606E-03
            1152            1797     8.79630E-03     9.76606E-03
            1153            1798     9.91857E-03     10.8832E-03
            1171            1798     9.91857E-03     10.8832E-03
            1172            1798     9.91857E-03     10.8832E-03
            1154            1798     9.91857E-03     10.8832E-03
            1173            1799     11.0773E-03     12.0297E-03
            1155            1799     11.0773E-03     12.0297E-03
            1154            1799     11.0773E-03     12.0297E-03
            1172            1799     11.0773E-03     12.0297E-03
            1155            1800     12.2871E-03     13.2209E-03
            1174            1800     12.2871E-03     13.2209E-03
            1156            1800     12.2871E-03     13.2209E-03
            1173            1800     12.2871E-03     13.2209E-03
            1156            1801     13.6022E-03     14.5131E-03
            1157            1801     13.6022E-03     14.5131E-03
            1174            1801     13.6022E-03     14.5131E-03
            1175            1801     13.6022E-03     14.5131E-03
            1176            1802     15.0606E-03     15.9529E-03
            1158            1802     15.0606E-03     15.9529E-03
            1175            1802     15.0606E-03     15.9529E-03
            1157            1802     15.0606E-03     15.9529E-03
            1159            1803     16.8179E-03     17.6979E-03
            1176            1803     16.8179E-03     17.6979E-03
            1177            1803     16.8179E-03     17.6979E-03
            1158            1803     16.8179E-03     17.6979E-03
            1178            1804     18.9698E-03     19.8796E-03
            1177            1804     18.9698E-03     19.8796E-03
            1159            1804     18.9698E-03     19.8796E-03
            1160            1804     18.9698E-03     19.8796E-03
            1160            1805     22.1142E-03     23.0919E-03
            1161            1805     22.1142E-03     23.0919E-03
            1178            1805     22.1142E-03     23.0919E-03
            1179            1805     22.1142E-03     23.0919E-03
            1161            1806     27.2319E-03     28.0272E-03
            1179            1806     27.2319E-03     28.0272E-03
            1162            1806     27.2319E-03     28.0272E-03
            1180            1806     27.2319E-03     28.0272E-03
            1164            1807     4.68457E-03     5.47671E-03
            1163            1807     4.68457E-03     5.47671E-03
            1181            1807     4.68457E-03     5.47671E-03
            1182            1807     4.68457E-03     5.47671E-03
            1165            1808     5.69712E-03     6.13146E-03
            1164            1808     5.69712E-03     6.13146E-03
            1182            1808     5.69712E-03     6.13146E-03
            1183            1808     5.69712E-03     6.13146E-03
            1165            1809     6.71067E-03     7.11502E-03
            1183            1809     6.71067E-03     7.11502E-03
            1166            1809     6.71067E-03     7.11502E-03
            1184            1809     6.71067E-03     7.11502E-03
            1185            1810     7.82635E-03     8.26942E-03
            1166            1810     7.82635E-03     8.26942E-03
            1167            1810     7.82635E-03     8.26942E-03
            1184            1810     7.82635E-03     8.26942E-03
            1186            1811     9.02352E-03     9.49145E-03
            1185            1811     9.02352E-03     9.49145E-03
            1167            1811     9.02352E-03     9.49145E-03
            1168            1811     9.02352E-03     9.49145E-03
            1168            1812     10.2752E-03     10.7612E-03
            1186            1812     10.2752E-03     10.7612E-03
            1169            1812     10.2752E-03     10.7612E-03
            1187            1812     10.2752E-03     10.7612E-03
            1188            1813     11.5669E-03     12.0527E-03
            1170            1813     11.5669E-03     12.0527E-03
            1169            1813     11.5669E-03     12.0527E-03
            1187            1813     11.5669E-03     12.0527E-03
            1171            1814     12.8792E-03     13.3541E-03
            1188            1814     12.8792E-03     13.3541E-03
            1189            1814     12.8792E-03     13.3541E-03
            1170            1814     12.8792E-03     13.3541E-03
            1171            1815     14.2078E-03     14.6537E-03
            1172            1815     14.2078E-03     14.6537E-03
            1189            1815     14.2078E-03     14.6537E-03
            1190            1815     14.2078E-03     14.6537E-03
            1172            1816     15.5409E-03     15.9505E-03
            1173            1816     15.5409E-03     15.9505E-03
            1191            1816     15.5409E-03     15.9505E-03
            1190            1816     15.5409E-03     15.9505E-03
            1173            1817     16.8871E-03     17.2361E-03
            1174            1817     16.8871E-03     17.2361E-03
            1192            1817     16.8871E-03     17.2361E-03
            1191            1817     16.8871E-03     17.2361E-03
            1192            1818     18.2394E-03     18.5277E-03
            1193            1818     18.2394E-03     18.5277E-03
            1175            1818     18.2394E-03     18.5277E-03
            1174            1818     18.2394E-03     18.5277E-03
            1193            1819     19.6334E-03     19.8292E-03
            1175            1819     19.6334E-03     19.8292E-03
            1194            1819     19.6334E-03     19.8292E-03
            1176            1819     19.6334E-03     19.8292E-03
            1176            1820     21.0635E-03     21.1936E-03
            1177            1820     21.0635E-03     21.1936E-03
            1195            1820     21.0635E-03     21.1936E-03
            1194            1820     21.0635E-03     21.1936E-03
            1177            1821     22.6497E-03     22.7020E-03
            1178            1821     22.6497E-03     22.7020E-03
            1195            1821     22.6497E-03     22.7020E-03
            1196            1821     22.6497E-03     22.7020E-03
            1197            1822     24.3747E-03     24.4788E-03
            1178            1822     24.3747E-03     24.4788E-03
            1196            1822     24.3747E-03     24.4788E-03
            1179            1822     24.3747E-03     24.4788E-03
            1197            1823     26.9976E-03     27.6258E-03
            1180            1823     26.9976E-03     27.6258E-03
            1179            1823     26.9976E-03     27.6258E-03
            1198            1823     26.9976E-03     27.6258E-03
            1200            1824     7.66807E-03     8.61234E-03
            1181            1824     7.66807E-03     8.61234E-03
            1182            1824     7.66807E-03     8.61234E-03
            1199            1824     7.66807E-03     8.61234E-03
            1182            1825     8.56566E-03     8.91226E-03
            1183            1825     8.56566E-03     8.91226E-03
            1201            1825     8.56566E-03     8.91226E-03
            1200            1825     8.56566E-03     8.91226E-03
            1183            1826     9.72938E-03     9.78301E-03
            1201            1826     9.72938E-03     9.78301E-03
            1184            1826     9.72938E-03     9.78301E-03
            1202            1826     9.72938E-03     9.78301E-03
            1184            1827     11.0347E-03     11.0254E-03
            1202            1827     11.0347E-03     11.0254E-03
            1203            1827     11.0347E-03     11.0254E-03
            1185            1827     11.0347E-03     11.0254E-03
            1204            1828     12.4615E-03     12.4414E-03
            1185            1828     12.4615E-03     12.4414E-03
            1203            1828     12.4615E-03     12.4414E-03
            1186            1828     12.4615E-03     12.4414E-03
            1187            1829     13.9880E-03     13.9627E-03
            1204            1829     13.9880E-03     13.9627E-03
            1186            1829     13.9880E-03     13.9627E-03
            1205            1829     13.9880E-03     13.9627E-03
            1187            1830     15.5716E-03     15.5391E-03
            1188            1830     15.5716E-03     15.5391E-03
            1206            1830     15.5716E-03     15.5391E-03
            1205            1830     15.5716E-03     15.5391E-03
            1207            1831     17.1929E-03     17.1391E-03
            1188            1831     17.1929E-03     17.1391E-03
            1189            1831     17.1929E-03     17.1391E-03
            1206            1831     17.1929E-03     17.1391E-03
            1189            1832     18.8218E-03     18.7390E-03
            1190            1832     18.8218E-03     18.7390E-03
            1208            1832     18.8218E-03     18.7390E-03
            1207            1832     18.8218E-03     18.7390E-03
            1209            1833     20.4417E-03     20.3132E-03
            1190            1833     20.4417E-03     20.3132E-03
            1208            1833     20.4417E-03     20.3132E-03
            1191            1833     20.4417E-03     20.3132E-03
            1192            1834     22.0243E-03     21.8408E-03
            1191            1834     22.0243E-03     21.8408E-03
            1209            1834     22.0243E-03     21.8408E-03
            1210            1834     22.0243E-03     21.8408E-03
            1210            1835     23.5460E-03     23.2924E-03
            1193            1835     23.5460E-03     23.2924E-03
            1192            1835     23.5460E-03     23.2924E-03
            1211            1835     23.5460E-03     23.2924E-03
            1193            1836     24.9704E-03     24.6368E-03
            1211            1836     24.9704E-03     24.6368E-03
            1212            1836     24.9704E-03     24.6368E-03
            1194            1836     24.9704E-03     24.6368E-03
            1213            1837     26.2536E-03     25.8398E-03
            1195            1837     26.2536E-03     25.8398E-03
            1194            1837     26.2536E-03     25.8398E-03
            1212            1837     26.2536E-03     25.8398E-03
            1196            1838     27.3240E-03     26.8396E-03
            1213            1838     27.3240E-03     26.8396E-03
            1214            1838     27.3240E-03     26.8396E-03
            1195            1838     27.3240E-03     26.8396E-03
            1197            1839     28.0679E-03     27.5765E-03
            1196            1839     28.0679E-03     27.5765E-03
            1215            1839     28.0679E-03     27.5765E-03
            1214            1839     28.0679E-03     27.5765E-03
            1198            1840     28.3354E-03     27.7586E-03
            1216            1840     28.3354E-03     27.7586E-03
            1197            1840     28.3354E-03     27.7586E-03
            1215            1840     28.3354E-03     27.7586E-03
            1218            1841     6.81668E-03     7.40892E-03
            1199            1841     6.81668E-03     7.40892E-03
            1217            1841     6.81668E-03     7.40892E-03
            1200            1841     6.81668E-03     7.40892E-03
            1200            1842     7.54051E-03     8.22043E-03
            1201            1842     7.54051E-03     8.22043E-03
            1218            1842     7.54051E-03     8.22043E-03
            1219            1842     7.54051E-03     8.22043E-03
            1219            1843     8.86648E-03     9.22516E-03
            1202            1843     8.86648E-03     9.22516E-03
            1220            1843     8.86648E-03     9.22516E-03
            1201            1843     8.86648E-03     9.22516E-03
            1221            1844     10.3984E-03     10.5858E-03
            1202            1844     10.3984E-03     10.5858E-03
            1203            1844     10.3984E-03     10.5858E-03
            1220            1844     10.3984E-03     10.5858E-03
            1204            1845     12.0298E-03     12.1539E-03
            1221            1845     12.0298E-03     12.1539E-03
            1203            1845     12.0298E-03     12.1539E-03
            1222            1845     12.0298E-03     12.1539E-03
            1205            1846     13.7394E-03     13.8338E-03
            1223            1846     13.7394E-03     13.8338E-03
            1204            1846     13.7394E-03     13.8338E-03
            1222            1846     13.7394E-03     13.8338E-03
            1224            1847     15.5007E-03     15.5802E-03
            1205            1847     15.5007E-03     15.5802E-03
            1206            1847     15.5007E-03     15.5802E-03
            1223            1847     15.5007E-03     15.5802E-03
            1206            1848     17.2933E-03     17.3619E-03
            1224            1848     17.2933E-03     17.3619E-03
            1207            1848     17.2933E-03     17.3619E-03
            1225            1848     17.2933E-03     17.3619E-03
            1207            1849     19.1030E-03     19.1573E-03
            1208            1849     19.1030E-03     19.1573E-03
            1226            1849     19.1030E-03     19.1573E-03
            1225            1849     19.1030E-03     19.1573E-03
            1208            1850     20.9066E-03     20.9492E-03
            1209            1850     20.9066E-03     20.9492E-03
            1226            1850     20.9066E-03     20.9492E-03
            1227            1850     20.9066E-03     20.9492E-03
            1210            1851     22.6875E-03     22.7143E-03
            1228            1851     22.6875E-03     22.7143E-03
            1209            1851     22.6875E-03     22.7143E-03
            1227            1851     22.6875E-03     22.7143E-03
            1229            1852     24.4095E-03     24.4314E-03
            1228            1852     24.4095E-03     24.4314E-03
            1211            1852     24.4095E-03     24.4314E-03
            1210            1852     24.4095E-03     24.4314E-03
            1229            1853     26.0356E-03     26.0619E-03
            1211            1853     26.0356E-03     26.0619E-03
            1230            1853     26.0356E-03     26.0619E-03
            1212            1853     26.0356E-03     26.0619E-03
            1212            1854     27.5052E-03     27.5641E-03
            1230            1854     27.5052E-03     27.5641E-03
            1231            1854     27.5052E-03     27.5641E-03
            1213            1854     27.5052E-03     27.5641E-03
            1232            1855     28.7326E-03     28.8713E-03
            1213            1855     28.7326E-03     28.8713E-03
            1231            1855     28.7326E-03     28.8713E-03
            1214            1855     28.7326E-03     28.8713E-03
            1215            1856     29.6405E-03     29.8542E-03
            1232            1856     29.6405E-03     29.8542E-03
            1233            1856     29.6405E-03     29.8542E-03
            1214            1856     29.6405E-03     29.8542E-03
            1234            1857     30.3714E-03     30.5179E-03
            1216            1857     30.3714E-03     30.5179E-03
            1233            1857     30.3714E-03     30.5179E-03
            1215            1857     30.3714E-03     30.5179E-03
            1235            1858     5.90425E-03     6.17553E-03
            1217            1858     5.90425E-03     6.17553E-03
            1236            1858     5.90425E-03     6.17553E-03
            1218            1858     5.90425E-03     6.17553E-03
            1236            1859     6.81153E-03     7.36199E-03
            1219            1859     6.81153E-03     7.36199E-03
            1218            1859     6.81153E-03     7.36199E-03
            1237            1859     6.81153E-03     7.36199E-03
            1238            1860     8.19180E-03     8.72224E-03
            1219            1860     8.19180E-03     8.72224E-03
            1237            1860     8.19180E-03     8.72224E-03
            1220            1860     8.19180E-03     8.72224E-03
            1238            1861     9.88014E-03     10.2506E-03
            1239            1861     9.88014E-03     10.2506E-03
            1221            1861     9.88014E-03     10.2506E-03
            1220            1861     9.88014E-03     10.2506E-03
            1221            1862     11.6806E-03     11.9659E-03
            1240            1862     11.6806E-03     11.9659E-03
            1222            1862     11.6806E-03     11.9659E-03
            1239            1862     11.6806E-03     11.9659E-03
            1222            1863     13.5436E-03     13.7842E-03
            1240            1863     13.5436E-03     13.7842E-03
            1223            1863     13.5436E-03     13.7842E-03
            1241            1863     13.5436E-03     13.7842E-03
            1223            1864     15.4494E-03     15.6704E-03
            1224            1864     15.4494E-03     15.6704E-03
            1242            1864     15.4494E-03     15.6704E-03
            1241            1864     15.4494E-03     15.6704E-03
            1224            1865     17.3841E-03     17.5979E-03
            1242            1865     17.3841E-03     17.5979E-03
            1225            1865     17.3841E-03     17.5979E-03
            1243            1865     17.3841E-03     17.5979E-03
            1244            1866     19.3333E-03     19.5509E-03
            1225            1866     19.3333E-03     19.5509E-03
            1226            1866     19.3333E-03     19.5509E-03
            1243            1866     19.3333E-03     19.5509E-03
            1226            1867     21.2878E-03     21.5132E-03
            1244            1867     21.2878E-03     21.5132E-03
            1227            1867     21.2878E-03     21.5132E-03
            1245            1867     21.2878E-03     21.5132E-03
            1228            1868     23.2208E-03     23.4696E-03
            1227            1868     23.2208E-03     23.4696E-03
            1245            1868     23.2208E-03     23.4696E-03
            1246            1868     23.2208E-03     23.4696E-03
            1246            1869     25.1097E-03     25.3904E-03
            1247            1869     25.1097E-03     25.3904E-03
            1229            1869     25.1097E-03     25.3904E-03
            1228            1869     25.1097E-03     25.3904E-03
            1248            1870     26.9063E-03     27.2419E-03
            1247            1870     26.9063E-03     27.2419E-03
            1229            1870     26.9063E-03     27.2419E-03
            1230            1870     26.9063E-03     27.2419E-03
            1231            1871     28.5437E-03     28.9632E-03
            1230            1871     28.5437E-03     28.9632E-03
            1249            1871     28.5437E-03     28.9632E-03
            1248            1871     28.5437E-03     28.9632E-03
            1249            1872     29.9752E-03     30.4639E-03
            1231            1872     29.9752E-03     30.4639E-03
            1250            1872     29.9752E-03     30.4639E-03
            1232            1872     29.9752E-03     30.4639E-03
            1251            1873     31.1421E-03     31.6753E-03
            1232            1873     31.1421E-03     31.6753E-03
            1233            1873     31.1421E-03     31.6753E-03
            1250            1873     31.1421E-03     31.6753E-03
            1233            1874     32.2944E-03     32.6892E-03
            1252            1874     32.2944E-03     32.6892E-03
            1234            1874     32.2944E-03     32.6892E-03
            1251            1874     32.2944E-03     32.6892E-03
            1236            1875     5.02178E-03     5.32239E-03
            1254            1875     5.02178E-03     5.32239E-03
            1235            1875     5.02178E-03     5.32239E-03
            1253            1875     5.02178E-03     5.32239E-03
            1237            1876     6.11354E-03     6.59868E-03
            1254            1876     6.11354E-03     6.59868E-03
            1255            1876     6.11354E-03     6.59868E-03
            1236            1876     6.11354E-03     6.59868E-03
            1237            1877     7.66245E-03     8.22297E-03
            1255            1877     7.66245E-03     8.22297E-03
            1238            1877     7.66245E-03     8.22297E-03
            1256            1877     7.66245E-03     8.22297E-03
            1238            1878     9.45395E-03     9.96510E-03
            1239            1878     9.45395E-03     9.96510E-03
            1257            1878     9.45395E-03     9.96510E-03
            1256            1878     9.45395E-03     9.96510E-03
            1239            1879     11.3774E-03     11.8081E-03
            1258            1879     11.3774E-03     11.8081E-03
            1257            1879     11.3774E-03     11.8081E-03
            1240            1879     11.3774E-03     11.8081E-03
            1258            1880     13.3533E-03     13.7427E-03
            1241            1880     13.3533E-03     13.7427E-03
            1259            1880     13.3533E-03     13.7427E-03
            1240            1880     13.3533E-03     13.7427E-03
            1242            1881     15.3647E-03     15.7327E-03
            1259            1881     15.3647E-03     15.7327E-03
            1241            1881     15.3647E-03     15.7327E-03
            1260            1881     15.3647E-03     15.7327E-03
            1261            1882     17.3994E-03     17.7667E-03
            1260            1882     17.3994E-03     17.7667E-03
            1243            1882     17.3994E-03     17.7667E-03
            1242            1882     17.3994E-03     17.7667E-03
            1262            1883     19.4528E-03     19.8316E-03
            1261            1883     19.4528E-03     19.8316E-03
            1244            1883     19.4528E-03     19.8316E-03
            1243            1883     19.4528E-03     19.8316E-03
            1263            1884     21.5111E-03     21.9176E-03
            1244            1884     21.5111E-03     21.9176E-03
            1245            1884     21.5111E-03     21.9176E-03
            1262            1884     21.5111E-03     21.9176E-03
            1264            1885     23.5680E-03     24.0107E-03
            1245            1885     23.5680E-03     24.0107E-03
            1263            1885     23.5680E-03     24.0107E-03
            1246            1885     23.5680E-03     24.0107E-03
            1265            1886     25.5905E-03     26.0898E-03
            1246            1886     25.5905E-03     26.0898E-03
            1264            1886     25.5905E-03     26.0898E-03
            1247            1886     25.5905E-03     26.0898E-03
            1266            1887     27.5451E-03     28.1112E-03
            1265            1887     27.5451E-03     28.1112E-03
            1247            1887     27.5451E-03     28.1112E-03
            1248            1887     27.5451E-03     28.1112E-03
            1248            1888     29.3846E-03     30.0118E-03
            1266            1888     29.3846E-03     30.0118E-03
            1249            1888     29.3846E-03     30.0118E-03
            1267            1888     29.3846E-03     30.0118E-03
            1250            1889     31.0348E-03     31.7145E-03
            1249            1889     31.0348E-03     31.7145E-03
            1267            1889     31.0348E-03     31.7145E-03
            1268            1889     31.0348E-03     31.7145E-03
            1250            1890     32.5572E-03     33.1641E-03
            1268            1890     32.5572E-03     33.1641E-03
            1251            1890     32.5572E-03     33.1641E-03
            1269            1890     32.5572E-03     33.1641E-03
            1270            1891     34.0284E-03     34.4239E-03
            1251            1891     34.0284E-03     34.4239E-03
            1252            1891     34.0284E-03     34.4239E-03
            1269            1891     34.0284E-03     34.4239E-03
            1271            1892     4.20850E-03     4.48389E-03
            1272            1892     4.20850E-03     4.48389E-03
            1254            1892     4.20850E-03     4.48389E-03
            1253            1892     4.20850E-03     4.48389E-03
            1273            1893     5.47337E-03     6.02011E-03
            1254            1893     5.47337E-03     6.02011E-03
            1272            1893     5.47337E-03     6.02011E-03
            1255            1893     5.47337E-03     6.02011E-03
            1274            1894     7.18282E-03     7.78404E-03
            1255            1894     7.18282E-03     7.78404E-03
            1273            1894     7.18282E-03     7.78404E-03
            1256            1894     7.18282E-03     7.78404E-03
            1274            1895     9.08989E-03     9.68419E-03
            1257            1895     9.08989E-03     9.68419E-03
            1256            1895     9.08989E-03     9.68419E-03
            1275            1895     9.08989E-03     9.68419E-03
            1275            1896     11.0880E-03     11.6448E-03
            1276            1896     11.0880E-03     11.6448E-03
            1258            1896     11.0880E-03     11.6448E-03
            1257            1896     11.0880E-03     11.6448E-03
            1258            1897     13.1381E-03     13.6584E-03
            1276            1897     13.1381E-03     13.6584E-03
            1277            1897     13.1381E-03     13.6584E-03
            1259            1897     13.1381E-03     13.6584E-03
            1259            1898     15.2133E-03     15.7205E-03
            1260            1898     15.2133E-03     15.7205E-03
            1277            1898     15.2133E-03     15.7205E-03
            1278            1898     15.2133E-03     15.7205E-03
            1278            1899     17.3102E-03     17.8203E-03
            1279            1899     17.3102E-03     17.8203E-03
            1260            1899     17.3102E-03     17.8203E-03
            1261            1899     17.3102E-03     17.8203E-03
            1280            1900     19.4233E-03     19.9530E-03
            1279            1900     19.4233E-03     19.9530E-03
            1261            1900     19.4233E-03     19.9530E-03
            1262            1900     19.4233E-03     19.9530E-03
            1262            1901     21.5546E-03     22.1161E-03
            1280            1901     21.5546E-03     22.1161E-03
            1281            1901     21.5546E-03     22.1161E-03
            1263            1901     21.5546E-03     22.1161E-03
            1282            1902     23.6913E-03     24.3003E-03
            1281            1902     23.6913E-03     24.3003E-03
            1264            1902     23.6913E-03     24.3003E-03
            1263            1902     23.6913E-03     24.3003E-03
            1283            1903     25.8354E-03     26.4944E-03
            1264            1903     25.8354E-03     26.4944E-03
            1282            1903     25.8354E-03     26.4944E-03
            1265            1903     25.8354E-03     26.4944E-03
            1283            1904     27.9494E-03     28.6675E-03
            1284            1904     27.9494E-03     28.6675E-03
            1266            1904     27.9494E-03     28.6675E-03
            1265            1904     27.9494E-03     28.6675E-03
            1285            1905     30.0007E-03     30.7588E-03
            1284            1905     30.0007E-03     30.7588E-03
            1267            1905     30.0007E-03     30.7588E-03
            1266            1905     30.0007E-03     30.7588E-03
            1268            1906     31.9641E-03     32.6969E-03
            1285            1906     31.9641E-03     32.6969E-03
            1286            1906     31.9641E-03     32.6969E-03
            1267            1906     31.9641E-03     32.6969E-03
            1269            1907     33.7966E-03     34.4436E-03
            1287            1907     33.7966E-03     34.4436E-03
            1268            1907     33.7966E-03     34.4436E-03
            1286            1907     33.7966E-03     34.4436E-03
            1287            1908     35.6005E-03     36.0447E-03
            1269            1908     35.6005E-03     36.0447E-03
            1288            1908     35.6005E-03     36.0447E-03
            1270            1908     35.6005E-03     36.0447E-03
            1272            1909     3.40228E-03     3.79420E-03
            1271            1909     3.40228E-03     3.79420E-03
            1289            1909     3.40228E-03     3.79420E-03
            1290            1909     3.40228E-03     3.79420E-03
            1272            1910     4.89888E-03     5.50707E-03
            1273            1910     4.89888E-03     5.50707E-03
            1290            1910     4.89888E-03     5.50707E-03
            1291            1910     4.89888E-03     5.50707E-03
            1274            1911     6.75494E-03     7.42921E-03
            1292            1911     6.75494E-03     7.42921E-03
            1291            1911     6.75494E-03     7.42921E-03
            1273            1911     6.75494E-03     7.42921E-03
            1274            1912     8.74643E-03     9.41742E-03
            1292            1912     8.74643E-03     9.41742E-03
            1275            1912     8.74643E-03     9.41742E-03
            1293            1912     8.74643E-03     9.41742E-03
            1294            1913     10.7991E-03     11.4511E-03
            1275            1913     10.7991E-03     11.4511E-03
            1293            1913     10.7991E-03     11.4511E-03
            1276            1913     10.7991E-03     11.4511E-03
            1277            1914     12.8822E-03     13.5162E-03
            1295            1914     12.8822E-03     13.5162E-03
            1276            1914     12.8822E-03     13.5162E-03
            1294            1914     12.8822E-03     13.5162E-03
            1295            1915     14.9856E-03     15.6143E-03
            1277            1915     14.9856E-03     15.6143E-03
            1296            1915     14.9856E-03     15.6143E-03
            1278            1915     14.9856E-03     15.6143E-03
            1296            1916     17.1054E-03     17.7425E-03
            1278            1916     17.1054E-03     17.7425E-03
            1297            1916     17.1054E-03     17.7425E-03
            1279            1916     17.1054E-03     17.7425E-03
            1279            1917     19.2445E-03     19.9037E-03
            1280            1917     19.2445E-03     19.9037E-03
            1297            1917     19.2445E-03     19.9037E-03
            1298            1917     19.2445E-03     19.9037E-03
            1298            1918     21.4048E-03     22.0971E-03
            1280            1918     21.4048E-03     22.0971E-03
            1281            1918     21.4048E-03     22.0971E-03
            1299            1918     21.4048E-03     22.0971E-03
            1282            1919     23.5978E-03     24.3316E-03
            1299            1919     23.5978E-03     24.3316E-03
            1300            1919     23.5978E-03     24.3316E-03
            1281            1919     23.5978E-03     24.3316E-03
            1300            1920     25.8182E-03     26.6003E-03
            1282            1920     25.8182E-03     26.6003E-03
            1283            1920     25.8182E-03     26.6003E-03
            1301            1920     25.8182E-03     26.6003E-03
            1284            1921     28.0981E-03     28.9056E-03
            1283            1921     28.0981E-03     28.9056E-03
            1302            1921     28.0981E-03     28.9056E-03
            1301            1921     28.0981E-03     28.9056E-03
            1284            1922     30.3939E-03     31.2195E-03
            1303            1922     30.3939E-03     31.2195E-03
            1285            1922     30.3939E-03     31.2195E-03
            1302            1922     30.3939E-03     31.2195E-03
            1304            1923     32.6781E-03     33.4644E-03
            1285            1923     32.6781E-03     33.4644E-03
            1303            1923     32.6781E-03     33.4644E-03
            1286            1923     32.6781E-03     33.4644E-03
            1286            1924     34.9239E-03     35.5675E-03
            1304            1924     34.9239E-03     35.5675E-03
            1287            1924     34.9239E-03     35.5675E-03
            1305            1924     34.9239E-03     35.5675E-03
            1288            1925     37.0407E-03     37.5631E-03
            1287            1925     37.0407E-03     37.5631E-03
            1305            1925     37.0407E-03     37.5631E-03
            1306            1925     37.0407E-03     37.5631E-03
            1307            1926     2.67155E-03     3.21071E-03
            1308            1926     2.67155E-03     3.21071E-03
            1290            1926     2.67155E-03     3.21071E-03
            1289            1926     2.67155E-03     3.21071E-03
            1308            1927     4.40798E-03     5.12166E-03
            1309            1927     4.40798E-03     5.12166E-03
            1290            1927     4.40798E-03     5.12166E-03
            1291            1927     4.40798E-03     5.12166E-03
            1309            1928     6.38295E-03     7.13606E-03
            1291            1928     6.38295E-03     7.13606E-03
            1292            1928     6.38295E-03     7.13606E-03
            1310            1928     6.38295E-03     7.13606E-03
            1292            1929     8.42990E-03     9.17453E-03
            1310            1929     8.42990E-03     9.17453E-03
            1311            1929     8.42990E-03     9.17453E-03
            1293            1929     8.42990E-03     9.17453E-03
            1312            1930     10.5039E-03     11.2361E-03
            1294            1930     10.5039E-03     11.2361E-03
            1293            1930     10.5039E-03     11.2361E-03
            1311            1930     10.5039E-03     11.2361E-03
            1295            1931     12.5891E-03     13.3219E-03
            1313            1931     12.5891E-03     13.3219E-03
            1312            1931     12.5891E-03     13.3219E-03
            1294            1931     12.5891E-03     13.3219E-03
            1296            1932     14.6872E-03     15.4228E-03
            1314            1932     14.6872E-03     15.4228E-03
            1295            1932     14.6872E-03     15.4228E-03
            1313            1932     14.6872E-03     15.4228E-03
            1297            1933     16.7981E-03     17.5467E-03
            1314            1933     16.7981E-03     17.5467E-03
            1315            1933     16.7981E-03     17.5467E-03
            1296            1933     16.7981E-03     17.5467E-03
            1316            1934     18.9282E-03     19.6957E-03
            1315            1934     18.9282E-03     19.6957E-03
            1297            1934     18.9282E-03     19.6957E-03
            1298            1934     18.9282E-03     19.6957E-03
            1317            1935     21.0859E-03     21.8831E-03
            1316            1935     21.0859E-03     21.8831E-03
            1299            1935     21.0859E-03     21.8831E-03
            1298            1935     21.0859E-03     21.8831E-03
            1318            1936     23.2868E-03     24.1157E-03
            1317            1936     23.2868E-03     24.1157E-03
            1300            1936     23.2868E-03     24.1157E-03
            1299            1936     23.2868E-03     24.1157E-03
            1319            1937     25.5623E-03     26.4231E-03
            1300            1937     25.5623E-03     26.4231E-03
            1318            1937     25.5623E-03     26.4231E-03
            1301            1937     25.5623E-03     26.4231E-03
            1302            1938     27.9276E-03     28.8134E-03
            1301            1938     27.9276E-03     28.8134E-03
            1319            1938     27.9276E-03     28.8134E-03
            1320            1938     27.9276E-03     28.8134E-03
            1321            1939     30.4914E-03     31.3347E-03
            1320            1939     30.4914E-03     31.3347E-03
            1302            1939     30.4914E-03     31.3347E-03
            1303            1939     30.4914E-03     31.3347E-03
            1321            1940     33.1676E-03     33.9687E-03
            1303            1940     33.1676E-03     33.9687E-03
            1322            1940     33.1676E-03     33.9687E-03
            1304            1940     33.1676E-03     33.9687E-03
            1304            1941     35.8402E-03     36.5764E-03
            1323            1941     35.8402E-03     36.5764E-03
            1305            1941     35.8402E-03     36.5764E-03
            1322            1941     35.8402E-03     36.5764E-03
            1305            1942     38.4768E-03     38.9522E-03
            1324            1942     38.4768E-03     38.9522E-03
            1323            1942     38.4768E-03     38.9522E-03
            1306            1942     38.4768E-03     38.9522E-03
            1325            1943     2.10844E-03     2.86430E-03
            1308            1943     2.10844E-03     2.86430E-03
            1326            1943     2.10844E-03     2.86430E-03
            1307            1943     2.10844E-03     2.86430E-03
            1309            1944     4.05044E-03     4.90759E-03
            1308            1944     4.05044E-03     4.90759E-03
            1327            1944     4.05044E-03     4.90759E-03
            1326            1944     4.05044E-03     4.90759E-03
            1328            1945     6.10445E-03     6.91884E-03
            1309            1945     6.10445E-03     6.91884E-03
            1310            1945     6.10445E-03     6.91884E-03
            1327            1945     6.10445E-03     6.91884E-03
            1329            1946     8.16337E-03     8.96460E-03
            1311            1946     8.16337E-03     8.96460E-03
            1310            1946     8.16337E-03     8.96460E-03
            1328            1946     8.16337E-03     8.96460E-03
            1330            1947     10.2156E-03     11.0322E-03
            1311            1947     10.2156E-03     11.0322E-03
            1312            1947     10.2156E-03     11.0322E-03
            1329            1947     10.2156E-03     11.0322E-03
            1330            1948     12.2754E-03     13.1004E-03
            1313            1948     12.2754E-03     13.1004E-03
            1331            1948     12.2754E-03     13.1004E-03
            1312            1948     12.2754E-03     13.1004E-03
            1331            1949     14.3399E-03     15.1779E-03
            1332            1949     14.3399E-03     15.1779E-03
            1313            1949     14.3399E-03     15.1779E-03
            1314            1949     14.3399E-03     15.1779E-03
            1332            1950     16.4165E-03     17.2649E-03
            1314            1950     16.4165E-03     17.2649E-03
            1333            1950     16.4165E-03     17.2649E-03
            1315            1950     16.4165E-03     17.2649E-03
            1316            1951     18.5080E-03     19.3720E-03
            1333            1951     18.5080E-03     19.3720E-03
            1315            1951     18.5080E-03     19.3720E-03
            1334            1951     18.5080E-03     19.3720E-03
            1317            1952     20.6327E-03     21.5102E-03
            1335            1952     20.6327E-03     21.5102E-03
            1316            1952     20.6327E-03     21.5102E-03
            1334            1952     20.6327E-03     21.5102E-03
            1317            1953     22.8055E-03     23.7050E-03
            1318            1953     22.8055E-03     23.7050E-03
            1335            1953     22.8055E-03     23.7050E-03
            1336            1953     22.8055E-03     23.7050E-03
            1337            1954     25.0694E-03     25.9818E-03
            1318            1954     25.0694E-03     25.9818E-03
            1319            1954     25.0694E-03     25.9818E-03
            1336            1954     25.0694E-03     25.9818E-03
            1319            1955     27.4861E-03     28.4077E-03
            1338            1955     27.4861E-03     28.4077E-03
            1337            1955     27.4861E-03     28.4077E-03
            1320            1955     27.4861E-03     28.4077E-03
            1338            1956     30.1212E-03     31.0307E-03
            1339            1956     30.1212E-03     31.0307E-03
            1321            1956     30.1212E-03     31.0307E-03
            1320            1956     30.1212E-03     31.0307E-03
            1339            1957     33.2459E-03     34.0142E-03
            1321            1957     33.2459E-03     34.0142E-03
            1340            1957     33.2459E-03     34.0142E-03
            1322            1957     33.2459E-03     34.0142E-03
            1323            1958     36.6125E-03     37.2612E-03
            1322            1958     36.6125E-03     37.2612E-03
            1340            1958     36.6125E-03     37.2612E-03
            1341            1958     36.6125E-03     37.2612E-03
            1323            1959     39.7141E-03     40.4318E-03
            1324            1959     39.7141E-03     40.4318E-03
            1341            1959     39.7141E-03     40.4318E-03
            1342            1959     39.7141E-03     40.4318E-03
            1326            1960     2.01447E-03     3.00176E-03
            1343            1960     2.01447E-03     3.00176E-03
            1344            1960     2.01447E-03     3.00176E-03
            1325            1960     2.01447E-03     3.00176E-03
            1344            1961     3.96384E-03     4.84144E-03
            1326            1961     3.96384E-03     4.84144E-03
            1327            1961     3.96384E-03     4.84144E-03
            1345            1961     3.96384E-03     4.84144E-03
            1345            1962     5.97959E-03     6.81046E-03
            1346            1962     5.97959E-03     6.81046E-03
            1328            1962     5.97959E-03     6.81046E-03
            1327            1962     5.97959E-03     6.81046E-03
            1328            1963     7.96965E-03     8.84164E-03
            1347            1963     7.96965E-03     8.84164E-03
            1346            1963     7.96965E-03     8.84164E-03
            1329            1963     7.96965E-03     8.84164E-03
            1329            1964     9.96799E-03     10.8710E-03
            1330            1964     9.96799E-03     10.8710E-03
            1347            1964     9.96799E-03     10.8710E-03
            1348            1964     9.96799E-03     10.8710E-03
            1349            1965     11.9700E-03     12.8992E-03
            1331            1965     11.9700E-03     12.8992E-03
            1330            1965     11.9700E-03     12.8992E-03
            1348            1965     11.9700E-03     12.8992E-03
            1331            1966     13.9807E-03     14.9239E-03
            1350            1966     13.9807E-03     14.9239E-03
            1349            1966     13.9807E-03     14.9239E-03
            1332            1966     13.9807E-03     14.9239E-03
            1351            1967     15.9987E-03     16.9504E-03
            1333            1967     15.9987E-03     16.9504E-03
            1332            1967     15.9987E-03     16.9504E-03
            1350            1967     15.9987E-03     16.9504E-03
            1352            1968     18.0360E-03     18.9878E-03
            1333            1968     18.0360E-03     18.9878E-03
            1334            1968     18.0360E-03     18.9878E-03
            1351            1968     18.0360E-03     18.9878E-03
            1353            1969     20.0976E-03     21.0491E-03
            1352            1969     20.0976E-03     21.0491E-03
            1334            1969     20.0976E-03     21.0491E-03
            1335            1969     20.0976E-03     21.0491E-03
            1335            1970     22.2180E-03     23.1605E-03
            1353            1970     22.2180E-03     23.1605E-03
            1336            1970     22.2180E-03     23.1605E-03
            1354            1970     22.2180E-03     23.1605E-03
            1355            1971     24.4195E-03     25.3606E-03
            1354            1971     24.4195E-03     25.3606E-03
            1336            1971     24.4195E-03     25.3606E-03
            1337            1971     24.4195E-03     25.3606E-03
            1355            1972     26.7924E-03     27.7172E-03
            1338            1972     26.7924E-03     27.7172E-03
            1356            1972     26.7924E-03     27.7172E-03
            1337            1972     26.7924E-03     27.7172E-03
            1338            1973     29.4238E-03     30.3445E-03
            1339            1973     29.4238E-03     30.3445E-03
            1356            1973     29.4238E-03     30.3445E-03
            1357            1973     29.4238E-03     30.3445E-03
            1357            1974     32.5206E-03     33.3993E-03
            1339            1974     32.5206E-03     33.3993E-03
            1358            1974     32.5206E-03     33.3993E-03
            1340            1974     32.5206E-03     33.3993E-03
            1359            1975     36.6894E-03     37.2897E-03
            1358            1975     36.6894E-03     37.2897E-03
            1340            1975     36.6894E-03     37.2897E-03
            1341            1975     36.6894E-03     37.2897E-03
            1359            1976     41.0823E-03     41.2752E-03
            1341            1976     41.0823E-03     41.2752E-03
            1342            1976     41.0823E-03     41.2752E-03
            1360            1976     41.0823E-03     41.2752E-03
            1362            1977     2.57329E-03     3.38705E-03
            1361            1977     2.57329E-03     3.38705E-03
            1344            1977     2.57329E-03     3.38705E-03
            1343            1977     2.57329E-03     3.38705E-03
            1362            1978     4.24772E-03     4.98024E-03
            1363            1978     4.24772E-03     4.98024E-03
            1344            1978     4.24772E-03     4.98024E-03
            1345            1978     4.24772E-03     4.98024E-03
            1364            1979     6.03693E-03     6.89006E-03
            1345            1979     6.03693E-03     6.89006E-03
            1346            1979     6.03693E-03     6.89006E-03
            1363            1979     6.03693E-03     6.89006E-03
            1364            1980     7.90149E-03     8.84863E-03
            1346            1980     7.90149E-03     8.84863E-03
            1347            1980     7.90149E-03     8.84863E-03
            1365            1980     7.90149E-03     8.84863E-03
            1366            1981     9.79778E-03     10.8099E-03
            1365            1981     9.79778E-03     10.8099E-03
            1348            1981     9.79778E-03     10.8099E-03
            1347            1981     9.79778E-03     10.8099E-03
            1348            1982     11.7185E-03     12.7675E-03
            1367            1982     11.7185E-03     12.7675E-03
            1349            1982     11.7185E-03     12.7675E-03
            1366            1982     11.7185E-03     12.7675E-03
            1368            1983     13.6508E-03     14.7174E-03
            1349            1983     13.6508E-03     14.7174E-03
            1367            1983     13.6508E-03     14.7174E-03
            1350            1983     13.6508E-03     14.7174E-03
            1368            1984     15.5991E-03     16.6649E-03
            1350            1984     15.5991E-03     16.6649E-03
            1369            1984     15.5991E-03     16.6649E-03
            1351            1984     15.5991E-03     16.6649E-03
            1352            1985     17.5614E-03     18.6131E-03
            1369            1985     17.5614E-03     18.6131E-03
            1370            1985     17.5614E-03     18.6131E-03
            1351            1985     17.5614E-03     18.6131E-03
            1371            1986     19.5569E-03     20.5801E-03
            1352            1986     19.5569E-03     20.5801E-03
            1370            1986     19.5569E-03     20.5801E-03
            1353            1986     19.5569E-03     20.5801E-03
            1353            1987     21.5945E-03     22.5795E-03
            1371            1987     21.5945E-03     22.5795E-03
            1354            1987     21.5945E-03     22.5795E-03
            1372            1987     21.5945E-03     22.5795E-03
            1354            1988     23.7284E-03     24.6645E-03
            1372            1988     23.7284E-03     24.6645E-03
            1373            1988     23.7284E-03     24.6645E-03
            1355            1988     23.7284E-03     24.6645E-03
            1355            1989     25.9860E-03     26.8760E-03
            1356            1989     25.9860E-03     26.8760E-03
            1373            1989     25.9860E-03     26.8760E-03
            1374            1989     25.9860E-03     26.8760E-03
            1375            1990     28.5256E-03     29.3749E-03
            1356            1990     28.5256E-03     29.3749E-03
            1374            1990     28.5256E-03     29.3749E-03
            1357            1990     28.5256E-03     29.3749E-03
            1376            1991     31.4211E-03     32.2791E-03
            1358            1991     31.4211E-03     32.2791E-03
            1357            1991     31.4211E-03     32.2791E-03
            1375            1991     31.4211E-03     32.2791E-03
            1358            1992     35.3005E-03     36.2256E-03
            1377            1992     35.3005E-03     36.2256E-03
            1376            1992     35.3005E-03     36.2256E-03
            1359            1992     35.3005E-03     36.2256E-03
            1359            1993     41.0731E-03     41.7573E-03
            1360            1993     41.0731E-03     41.7573E-03
            1377            1993     41.0731E-03     41.7573E-03
            1378            1993     41.0731E-03     41.7573E-03
            1380            1994     6.08842E-03     6.86782E-03
            1362            1994     6.08842E-03     6.86782E-03
            1361            1994     6.08842E-03     6.86782E-03
            1379            1994     6.08842E-03     6.86782E-03
            1363            1995     7.58843E-03     7.96559E-03
            1362            1995     7.58843E-03     7.96559E-03
            1380            1995     7.58843E-03     7.96559E-03
            1381            1995     7.58843E-03     7.96559E-03
            1364            1996     9.17350E-03     9.62362E-03
            1381            1996     9.17350E-03     9.62362E-03
            1363            1996     9.17350E-03     9.62362E-03
            1382            1996     9.17350E-03     9.62362E-03
            1365            1997     10.9536E-03     11.5151E-03
            1383            1997     10.9536E-03     11.5151E-03
            1364            1997     10.9536E-03     11.5151E-03
            1382            1997     10.9536E-03     11.5151E-03
            1366            1998     12.8638E-03     13.4970E-03
            1384            1998     12.8638E-03     13.4970E-03
            1383            1998     12.8638E-03     13.4970E-03
            1365            1998     12.8638E-03     13.4970E-03
            1366            1999     14.8530E-03     15.5276E-03
            1385            1999     14.8530E-03     15.5276E-03
            1384            1999     14.8530E-03     15.5276E-03
            1367            1999     14.8530E-03     15.5276E-03
            1367            2000     16.8965E-03     17.5810E-03
            1386            2000     16.8965E-03     17.5810E-03
            1385            2000     16.8965E-03     17.5810E-03
            1368            2000     16.8965E-03     17.5810E-03
            1387            2001     18.9649E-03     19.6382E-03
            1369            2001     18.9649E-03     19.6382E-03
            1386            2001     18.9649E-03     19.6382E-03
            1368            2001     18.9649E-03     19.6382E-03
            1388            2002     21.0553E-03     21.6886E-03
            1370            2002     21.0553E-03     21.6886E-03
            1369            2002     21.0553E-03     21.6886E-03
            1387            2002     21.0553E-03     21.6886E-03
            1389            2003     23.1482E-03     23.7295E-03
            1388            2003     23.1482E-03     23.7295E-03
            1370            2003     23.1482E-03     23.7295E-03
            1371            2003     23.1482E-03     23.7295E-03
            1372            2004     25.2606E-03     25.7522E-03
            1390            2004     25.2606E-03     25.7522E-03
            1371            2004     25.2606E-03     25.7522E-03
            1389            2004     25.2606E-03     25.7522E-03
            1391            2005     27.3750E-03     27.7768E-03
            1373            2005     27.3750E-03     27.7768E-03
            1372            2005     27.3750E-03     27.7768E-03
            1390            2005     27.3750E-03     27.7768E-03
            1391            2006     29.5454E-03     29.8089E-03
            1392            2006     29.5454E-03     29.8089E-03
            1373            2006     29.5454E-03     29.8089E-03
            1374            2006     29.5454E-03     29.8089E-03
            1392            2007     31.7508E-03     31.9128E-03
            1393            2007     31.7508E-03     31.9128E-03
            1374            2007     31.7508E-03     31.9128E-03
            1375            2007     31.7508E-03     31.9128E-03
            1375            2008     34.1553E-03     34.1976E-03
            1393            2008     34.1553E-03     34.1976E-03
            1376            2008     34.1553E-03     34.1976E-03
            1394            2008     34.1553E-03     34.1976E-03
            1376            2009     36.7284E-03     36.8215E-03
            1377            2009     36.7284E-03     36.8215E-03
            1395            2009     36.7284E-03     36.8215E-03
            1394            2009     36.7284E-03     36.8215E-03
            1395            2010     40.4382E-03     41.2654E-03
            1396            2010     40.4382E-03     41.2654E-03
            1377            2010     40.4382E-03     41.2654E-03
            1378            2010     40.4382E-03     41.2654E-03
            1398            2011     8.55075E-03     9.69381E-03
            1380            2011     8.55075E-03     9.69381E-03
            1379            2011     8.55075E-03     9.69381E-03
            1397            2011     8.55075E-03     9.69381E-03
            1380            2012     9.90224E-03     10.3938E-03
            1399            2012     9.90224E-03     10.3938E-03
            1398            2012     9.90224E-03     10.3938E-03
            1381            2012     9.90224E-03     10.3938E-03
            1382            2013     11.6487E-03     11.8886E-03
            1381            2013     11.6487E-03     11.8886E-03
            1399            2013     11.6487E-03     11.8886E-03
            1400            2013     11.6487E-03     11.8886E-03
            1400            2014     13.6103E-03     13.8376E-03
            1382            2014     13.6103E-03     13.8376E-03
            1401            2014     13.6103E-03     13.8376E-03
            1383            2014     13.6103E-03     13.8376E-03
            1384            2015     15.7304E-03     15.9839E-03
            1383            2015     15.7304E-03     15.9839E-03
            1401            2015     15.7304E-03     15.9839E-03
            1402            2015     15.7304E-03     15.9839E-03
            1402            2016     17.9707E-03     18.2407E-03
            1385            2016     17.9707E-03     18.2407E-03
            1403            2016     17.9707E-03     18.2407E-03
            1384            2016     17.9707E-03     18.2407E-03
            1403            2017     20.2768E-03     20.5504E-03
            1385            2017     20.2768E-03     20.5504E-03
            1386            2017     20.2768E-03     20.5504E-03
            1404            2017     20.2768E-03     20.5504E-03
            1386            2018     22.6271E-03     22.8808E-03
            1404            2018     22.6271E-03     22.8808E-03
            1387            2018     22.6271E-03     22.8808E-03
            1405            2018     22.6271E-03     22.8808E-03
            1405            2019     24.9887E-03     25.2086E-03
            1406            2019     24.9887E-03     25.2086E-03
            1387            2019     24.9887E-03     25.2086E-03
            1388            2019     24.9887E-03     25.2086E-03
            1406            2020     27.3496E-03     27.5127E-03
            1407            2020     27.3496E-03     27.5127E-03
            1389            2020     27.3496E-03     27.5127E-03
            1388            2020     27.3496E-03     27.5127E-03
            1407            2021     29.6823E-03     29.7753E-03
            1389            2021     29.6823E-03     29.7753E-03
            1390            2021     29.6823E-03     29.7753E-03
            1408            2021     29.6823E-03     29.7753E-03
            1390            2022     31.9771E-03     31.9802E-03
            1408            2022     31.9771E-03     31.9802E-03
            1391            2022     31.9771E-03     31.9802E-03
            1409            2022     31.9771E-03     31.9802E-03
            1392            2023     34.2016E-03     34.1048E-03
            1409            2023     34.2016E-03     34.1048E-03
            1410            2023     34.2016E-03     34.1048E-03
            1391            2023     34.2016E-03     34.1048E-03
            1411            2024     36.3526E-03     36.1560E-03
            1410            2024     36.3526E-03     36.1560E-03
            1393            2024     36.3526E-03     36.1560E-03
            1392            2024     36.3526E-03     36.1560E-03
            1394            2025     38.3689E-03     38.0945E-03
            1412            2025     38.3689E-03     38.0945E-03
            1393            2025     38.3689E-03     38.0945E-03
            1411            2025     38.3689E-03     38.0945E-03
            1394            2026     40.3038E-03     40.0255E-03
            1395            2026     40.3038E-03     40.0255E-03
            1412            2026     40.3038E-03     40.0255E-03
            1413            2026     40.3038E-03     40.0255E-03
            1395            2027     42.1223E-03     41.6686E-03
            1413            2027     42.1223E-03     41.6686E-03
            1396            2027     42.1223E-03     41.6686E-03
            1414            2027     42.1223E-03     41.6686E-03
            1397            2028     7.33009E-03     8.19757E-03
            1416            2028     7.33009E-03     8.19757E-03
            1398            2028     7.33009E-03     8.19757E-03
            1415            2028     7.33009E-03     8.19757E-03
            1417            2029     8.58425E-03     9.53540E-03
            1416            2029     8.58425E-03     9.53540E-03
            1398            2029     8.58425E-03     9.53540E-03
            1399            2029     8.58425E-03     9.53540E-03
            1400            2030     10.6247E-03     11.2163E-03
            1417            2030     10.6247E-03     11.2163E-03
            1399            2030     10.6247E-03     11.2163E-03
            1418            2030     10.6247E-03     11.2163E-03
            1418            2031     12.9032E-03     13.3402E-03
            1419            2031     12.9032E-03     13.3402E-03
            1400            2031     12.9032E-03     13.3402E-03
            1401            2031     12.9032E-03     13.3402E-03
            1419            2032     15.2947E-03     15.6840E-03
            1401            2032     15.2947E-03     15.6840E-03
            1402            2032     15.2947E-03     15.6840E-03
            1420            2032     15.2947E-03     15.6840E-03
            1420            2033     17.7664E-03     18.1390E-03
            1402            2033     17.7664E-03     18.1390E-03
            1421            2033     17.7664E-03     18.1390E-03
            1403            2033     17.7664E-03     18.1390E-03
            1404            2034     20.2907E-03     20.6548E-03
            1422            2034     20.2907E-03     20.6548E-03
            1403            2034     20.2907E-03     20.6548E-03
            1421            2034     20.2907E-03     20.6548E-03
            1404            2035     22.8461E-03     23.2022E-03
            1422            2035     22.8461E-03     23.2022E-03
            1405            2035     22.8461E-03     23.2022E-03
            1423            2035     22.8461E-03     23.2022E-03
            1423            2036     25.4217E-03     25.7626E-03
            1406            2036     25.4217E-03     25.7626E-03
            1424            2036     25.4217E-03     25.7626E-03
            1405            2036     25.4217E-03     25.7626E-03
            1425            2037     27.9956E-03     28.3235E-03
            1424            2037     27.9956E-03     28.3235E-03
            1406            2037     27.9956E-03     28.3235E-03
            1407            2037     27.9956E-03     28.3235E-03
            1426            2038     30.5608E-03     30.8685E-03
            1425            2038     30.5608E-03     30.8685E-03
            1407            2038     30.5608E-03     30.8685E-03
            1408            2038     30.5608E-03     30.8685E-03
            1408            2039     33.0866E-03     33.3876E-03
            1409            2039     33.0866E-03     33.3876E-03
            1427            2039     33.0866E-03     33.3876E-03
            1426            2039     33.0866E-03     33.3876E-03
            1409            2040     35.5587E-03     35.8585E-03
            1428            2040     35.5587E-03     35.8585E-03
            1410            2040     35.5587E-03     35.8585E-03
            1427            2040     35.5587E-03     35.8585E-03
            1428            2041     37.9383E-03     38.2695E-03
            1429            2041     37.9383E-03     38.2695E-03
            1410            2041     37.9383E-03     38.2695E-03
            1411            2041     37.9383E-03     38.2695E-03
            1429            2042     40.1888E-03     40.5879E-03
            1411            2042     40.1888E-03     40.5879E-03
            1412            2042     40.1888E-03     40.5879E-03
            1430            2042     40.1888E-03     40.5879E-03
            1412            2043     42.3756E-03     42.7714E-03
            1430            2043     42.3756E-03     42.7714E-03
            1413            2043     42.3756E-03     42.7714E-03
            1431            2043     42.3756E-03     42.7714E-03
            1413            2044     44.2755E-03     44.4975E-03
            1414            2044     44.2755E-03     44.4975E-03
            1431            2044     44.2755E-03     44.4975E-03
            1432            2044     44.2755E-03     44.4975E-03
            1416            2045     6.10443E-03     6.67321E-03
            1415            2045     6.10443E-03     6.67321E-03
            1433            2045     6.10443E-03     6.67321E-03
            1434            2045     6.10443E-03     6.67321E-03
            1416            2046     7.65530E-03     8.55592E-03
            1434            2046     7.65530E-03     8.55592E-03
            1417            2046     7.65530E-03     8.55592E-03
            1435            2046     7.65530E-03     8.55592E-03
            1435            2047     9.84772E-03     10.6767E-03
            1417            2047     9.84772E-03     10.6767E-03
            1418            2047     9.84772E-03     10.6767E-03
            1436            2047     9.84772E-03     10.6767E-03
            1419            2048     12.3643E-03     13.0029E-03
            1436            2048     12.3643E-03     13.0029E-03
            1437            2048     12.3643E-03     13.0029E-03
            1418            2048     12.3643E-03     13.0029E-03
            1438            2049     14.9734E-03     15.5254E-03
            1437            2049     14.9734E-03     15.5254E-03
            1420            2049     14.9734E-03     15.5254E-03
            1419            2049     14.9734E-03     15.5254E-03
            1420            2050     17.6358E-03     18.1421E-03
            1439            2050     17.6358E-03     18.1421E-03
            1421            2050     17.6358E-03     18.1421E-03
            1438            2050     17.6358E-03     18.1421E-03
            1421            2051     20.3330E-03     20.8226E-03
            1439            2051     20.3330E-03     20.8226E-03
            1422            2051     20.3330E-03     20.8226E-03
            1440            2051     20.3330E-03     20.8226E-03
            1422            2052     23.0565E-03     23.5407E-03
            1440            2052     23.0565E-03     23.5407E-03
            1441            2052     23.0565E-03     23.5407E-03
            1423            2052     23.0565E-03     23.5407E-03
            1423            2053     25.7947E-03     26.2866E-03
            1424            2053     25.7947E-03     26.2866E-03
            1441            2053     25.7947E-03     26.2866E-03
            1442            2053     25.7947E-03     26.2866E-03
            1424            2054     28.5449E-03     29.0479E-03
            1443            2054     28.5449E-03     29.0479E-03
            1425            2054     28.5449E-03     29.0479E-03
            1442            2054     28.5449E-03     29.0479E-03
            1426            2055     31.2862E-03     31.8189E-03
            1443            2055     31.2862E-03     31.8189E-03
            1425            2055     31.2862E-03     31.8189E-03
            1444            2055     31.2862E-03     31.8189E-03
            1445            2056     34.0074E-03     34.5767E-03
            1444            2056     34.0074E-03     34.5767E-03
            1426            2056     34.0074E-03     34.5767E-03
            1427            2056     34.0074E-03     34.5767E-03
            1446            2057     36.6789E-03     37.3068E-03
            1427            2057     36.6789E-03     37.3068E-03
            1428            2057     36.6789E-03     37.3068E-03
            1445            2057     36.6789E-03     37.3068E-03
            1447            2058     39.2463E-03     39.9576E-03
            1428            2058     39.2463E-03     39.9576E-03
            1429            2058     39.2463E-03     39.9576E-03
            1446            2058     39.2463E-03     39.9576E-03
            1429            2059     41.7302E-03     42.4716E-03
            1447            2059     41.7302E-03     42.4716E-03
            1448            2059     41.7302E-03     42.4716E-03
            1430            2059     41.7302E-03     42.4716E-03
            1430            2060     43.9581E-03     44.7137E-03
            1449            2060     43.9581E-03     44.7137E-03
            1448            2060     43.9581E-03     44.7137E-03
            1431            2060     43.9581E-03     44.7137E-03
            1432            2061     45.9436E-03     46.5779E-03
            1449            2061     45.9436E-03     46.5779E-03
            1450            2061     45.9436E-03     46.5779E-03
            1431            2061     45.9436E-03     46.5779E-03
            1451            2062     4.96660E-03     5.63361E-03
            1434            2062     4.96660E-03     5.63361E-03
            1452            2062     4.96660E-03     5.63361E-03
            1433            2062     4.96660E-03     5.63361E-03
            1452            2063     6.84744E-03     7.71701E-03
            1434            2063     6.84744E-03     7.71701E-03
            1435            2063     6.84744E-03     7.71701E-03
            1453            2063     6.84744E-03     7.71701E-03
            1453            2064     9.28986E-03     10.1893E-03
            1454            2064     9.28986E-03     10.1893E-03
            1435            2064     9.28986E-03     10.1893E-03
            1436            2064     9.28986E-03     10.1893E-03
            1437            2065     11.9545E-03     12.7566E-03
            1454            2065     11.9545E-03     12.7566E-03
            1436            2065     11.9545E-03     12.7566E-03
            1455            2065     11.9545E-03     12.7566E-03
            1437            2066     14.7210E-03     15.4167E-03
            1455            2066     14.7210E-03     15.4167E-03
            1456            2066     14.7210E-03     15.4167E-03
            1438            2066     14.7210E-03     15.4167E-03
            1438            2067     17.5170E-03     18.1625E-03
            1439            2067     17.5170E-03     18.1625E-03
            1456            2067     17.5170E-03     18.1625E-03
            1457            2067     17.5170E-03     18.1625E-03
            1439            2068     20.3381E-03     20.9577E-03
            1440            2068     20.3381E-03     20.9577E-03
            1458            2068     20.3381E-03     20.9577E-03
            1457            2068     20.3381E-03     20.9577E-03
            1459            2069     23.1768E-03     23.7973E-03
            1441            2069     23.1768E-03     23.7973E-03
            1458            2069     23.1768E-03     23.7973E-03
            1440            2069     23.1768E-03     23.7973E-03
            1460            2070     26.0346E-03     26.6711E-03
            1441            2070     26.0346E-03     26.6711E-03
            1459            2070     26.0346E-03     26.6711E-03
            1442            2070     26.0346E-03     26.6711E-03
            1442            2071     28.9032E-03     29.5761E-03
            1443            2071     28.9032E-03     29.5761E-03
            1461            2071     28.9032E-03     29.5761E-03
            1460            2071     28.9032E-03     29.5761E-03
            1461            2072     31.7833E-03     32.5022E-03
            1444            2072     31.7833E-03     32.5022E-03
            1462            2072     31.7833E-03     32.5022E-03
            1443            2072     31.7833E-03     32.5022E-03
            1444            2073     34.6534E-03     35.4390E-03
            1445            2073     34.6534E-03     35.4390E-03
            1463            2073     34.6534E-03     35.4390E-03
            1462            2073     34.6534E-03     35.4390E-03
            1464            2074     37.4841E-03     38.3454E-03
            1445            2074     37.4841E-03     38.3454E-03
            1446            2074     37.4841E-03     38.3454E-03
            1463            2074     37.4841E-03     38.3454E-03
            1447            2075     40.2561E-03     41.1666E-03
            1446            2075     40.2561E-03     41.1666E-03
            1464            2075     40.2561E-03     41.1666E-03
            1465            2075     40.2561E-03     41.1666E-03
            1448            2076     42.8524E-03     43.8048E-03
            1465            2076     42.8524E-03     43.8048E-03
            1447            2076     42.8524E-03     43.8048E-03
            1466            2076     42.8524E-03     43.8048E-03
            1467            2077     45.2560E-03     46.1160E-03
            1448            2077     45.2560E-03     46.1160E-03
            1449            2077     45.2560E-03     46.1160E-03
            1466            2077     45.2560E-03     46.1160E-03
            1468            2078     47.4535E-03     48.0193E-03
            1450            2078     47.4535E-03     48.0193E-03
            1449            2078     47.4535E-03     48.0193E-03
            1467            2078     47.4535E-03     48.0193E-03
            1451            2079     3.97533E-03     4.68986E-03
            1470            2079     3.97533E-03     4.68986E-03
            1452            2079     3.97533E-03     4.68986E-03
            1469            2079     3.97533E-03     4.68986E-03
            1470            2080     6.18650E-03     7.15989E-03
            1471            2080     6.18650E-03     7.15989E-03
            1452            2080     6.18650E-03     7.15989E-03
            1453            2080     6.18650E-03     7.15989E-03
            1454            2081     8.84803E-03     9.79910E-03
            1453            2081     8.84803E-03     9.79910E-03
            1472            2081     8.84803E-03     9.79910E-03
            1471            2081     8.84803E-03     9.79910E-03
            1472            2082     11.6463E-03     12.5352E-03
            1455            2082     11.6463E-03     12.5352E-03
            1454            2082     11.6463E-03     12.5352E-03
            1473            2082     11.6463E-03     12.5352E-03
            1455            2083     14.4957E-03     15.3118E-03
            1456            2083     14.4957E-03     15.3118E-03
            1474            2083     14.4957E-03     15.3118E-03
            1473            2083     14.4957E-03     15.3118E-03
            1474            2084     17.3736E-03     18.1329E-03
            1456            2084     17.3736E-03     18.1329E-03
            1457            2084     17.3736E-03     18.1329E-03
            1475            2084     17.3736E-03     18.1329E-03
            1458            2085     20.2634E-03     21.0012E-03
            1457            2085     20.2634E-03     21.0012E-03
            1476            2085     20.2634E-03     21.0012E-03
            1475            2085     20.2634E-03     21.0012E-03
            1459            2086     23.1689E-03     23.9089E-03
            1477            2086     23.1689E-03     23.9089E-03
            1476            2086     23.1689E-03     23.9089E-03
            1458            2086     23.1689E-03     23.9089E-03
            1460            2087     26.0906E-03     26.8558E-03
            1477            2087     26.0906E-03     26.8558E-03
            1459            2087     26.0906E-03     26.8558E-03
            1478            2087     26.0906E-03     26.8558E-03
            1479            2088     29.0355E-03     29.8423E-03
            1478            2088     29.0355E-03     29.8423E-03
            1460            2088     29.0355E-03     29.8423E-03
            1461            2088     29.0355E-03     29.8423E-03
            1479            2089     31.9978E-03     32.8651E-03
            1480            2089     31.9978E-03     32.8651E-03
            1461            2089     31.9978E-03     32.8651E-03
            1462            2089     31.9978E-03     32.8651E-03
            1481            2090     34.9828E-03     35.9145E-03
            1462            2090     34.9828E-03     35.9145E-03
            1480            2090     34.9828E-03     35.9145E-03
            1463            2090     34.9828E-03     35.9145E-03
            1481            2091     37.9643E-03     38.9621E-03
            1463            2091     37.9643E-03     38.9621E-03
            1482            2091     37.9643E-03     38.9621E-03
            1464            2091     37.9643E-03     38.9621E-03
            1482            2092     40.8929E-03     41.9350E-03
            1464            2092     40.8929E-03     41.9350E-03
            1483            2092     40.8929E-03     41.9350E-03
            1465            2092     40.8929E-03     41.9350E-03
            1465            2093     43.7140E-03     44.7181E-03
            1483            2093     43.7140E-03     44.7181E-03
            1466            2093     43.7140E-03     44.7181E-03
            1484            2093     43.7140E-03     44.7181E-03
            1467            2094     46.3264E-03     47.2042E-03
            1484            2094     46.3264E-03     47.2042E-03
            1485            2094     46.3264E-03     47.2042E-03
            1466            2094     46.3264E-03     47.2042E-03
            1485            2095     48.7412E-03     49.3732E-03
            1467            2095     48.7412E-03     49.3732E-03
            1468            2095     48.7412E-03     49.3732E-03
            1486            2095     48.7412E-03     49.3732E-03
            1487            2096     3.11788E-03     4.07046E-03
            1488            2096     3.11788E-03     4.07046E-03
            1469            2096     3.11788E-03     4.07046E-03
            1470            2096     3.11788E-03     4.07046E-03
            1488            2097     5.70537E-03     6.76111E-03
            1470            2097     5.70537E-03     6.76111E-03
            1489            2097     5.70537E-03     6.76111E-03
            1471            2097     5.70537E-03     6.76111E-03
            1489            2098     8.52249E-03     9.53863E-03
            1471            2098     8.52249E-03     9.53863E-03
            1490            2098     8.52249E-03     9.53863E-03
            1472            2098     8.52249E-03     9.53863E-03
            1490            2099     11.3928E-03     12.3440E-03
            1473            2099     11.3928E-03     12.3440E-03
            1472            2099     11.3928E-03     12.3440E-03
            1491            2099     11.3928E-03     12.3440E-03
            1473            2100     14.2846E-03     15.1743E-03
            1474            2100     14.2846E-03     15.1743E-03
            1491            2100     14.2846E-03     15.1743E-03
            1492            2100     14.2846E-03     15.1743E-03
            1475            2101     17.1865E-03     18.0321E-03
            1492            2101     17.1865E-03     18.0321E-03
            1493            2101     17.1865E-03     18.0321E-03
            1474            2101     17.1865E-03     18.0321E-03
            1476            2102     20.0956E-03     20.9253E-03
            1494            2102     20.0956E-03     20.9253E-03
            1493            2102     20.0956E-03     20.9253E-03
            1475            2102     20.0956E-03     20.9253E-03
            1494            2103     23.0162E-03     23.8523E-03
            1476            2103     23.0162E-03     23.8523E-03
            1495            2103     23.0162E-03     23.8523E-03
            1477            2103     23.0162E-03     23.8523E-03
            1496            2104     25.9556E-03     26.8189E-03
            1478            2104     25.9556E-03     26.8189E-03
            1495            2104     25.9556E-03     26.8189E-03
            1477            2104     25.9556E-03     26.8189E-03
            1497            2105     28.9204E-03     29.8269E-03
            1496            2105     28.9204E-03     29.8269E-03
            1479            2105     28.9204E-03     29.8269E-03
            1478            2105     28.9204E-03     29.8269E-03
            1498            2106     31.9249E-03     32.8873E-03
            1479            2106     31.9249E-03     32.8873E-03
            1480            2106     31.9249E-03     32.8873E-03
            1497            2106     31.9249E-03     32.8873E-03
            1499            2107     34.9680E-03     35.9941E-03
            1480            2107     34.9680E-03     35.9941E-03
            1498            2107     34.9680E-03     35.9941E-03
            1481            2107     34.9680E-03     35.9941E-03
            1499            2108     38.0792E-03     39.1454E-03
            1481            2108     38.0792E-03     39.1454E-03
            1482            2108     38.0792E-03     39.1454E-03
            1500            2108     38.0792E-03     39.1454E-03
            1483            2109     41.2013E-03     42.2948E-03
            1482            2109     41.2013E-03     42.2948E-03
            1501            2109     41.2013E-03     42.2948E-03
            1500            2109     41.2013E-03     42.2948E-03
            1502            2110     44.2770E-03     45.3230E-03
            1501            2110     44.2770E-03     45.3230E-03
            1483            2110     44.2770E-03     45.3230E-03
            1484            2110     44.2770E-03     45.3230E-03
            1485            2111     47.2205E-03     48.0951E-03
            1503            2111     47.2205E-03     48.0951E-03
            1502            2111     47.2205E-03     48.0951E-03
            1484            2111     47.2205E-03     48.0951E-03
            1485            2112     49.8894E-03     50.5841E-03
            1503            2112     49.8894E-03     50.5841E-03
            1486            2112     49.8894E-03     50.5841E-03
            1504            2112     49.8894E-03     50.5841E-03
            1506            2113     2.65150E-03     3.84513E-03
            1487            2113     2.65150E-03     3.84513E-03
            1505            2113     2.65150E-03     3.84513E-03
            1488            2113     2.65150E-03     3.84513E-03
            1489            2114     5.46126E-03     6.58463E-03
            1506            2114     5.46126E-03     6.58463E-03
            1507            2114     5.46126E-03     6.58463E-03
            1488            2114     5.46126E-03     6.58463E-03
            1507            2115     8.32285E-03     9.39518E-03
            1490            2115     8.32285E-03     9.39518E-03
            1508            2115     8.32285E-03     9.39518E-03
            1489            2115     8.32285E-03     9.39518E-03
            1490            2116     11.2025E-03     12.1915E-03
            1508            2116     11.2025E-03     12.1915E-03
            1509            2116     11.2025E-03     12.1915E-03
            1491            2116     11.2025E-03     12.1915E-03
            1491            2117     14.0852E-03     15.0122E-03
            1509            2117     14.0852E-03     15.0122E-03
            1510            2117     14.0852E-03     15.0122E-03
            1492            2117     14.0852E-03     15.0122E-03
            1492            2118     16.9603E-03     17.8658E-03
            1493            2118     16.9603E-03     17.8658E-03
            1511            2118     16.9603E-03     17.8658E-03
            1510            2118     16.9603E-03     17.8658E-03
            1512            2119     19.8410E-03     20.7380E-03
            1494            2119     19.8410E-03     20.7380E-03
            1511            2119     19.8410E-03     20.7380E-03
            1493            2119     19.8410E-03     20.7380E-03
            1513            2120     22.7308E-03     23.6395E-03
            1495            2120     22.7308E-03     23.6395E-03
            1512            2120     22.7308E-03     23.6395E-03
            1494            2120     22.7308E-03     23.6395E-03
            1513            2121     25.6403E-03     26.5715E-03
            1514            2121     25.6403E-03     26.5715E-03
            1496            2121     25.6403E-03     26.5715E-03
            1495            2121     25.6403E-03     26.5715E-03
            1497            2122     28.5790E-03     29.5493E-03
            1514            2122     28.5790E-03     29.5493E-03
            1515            2122     28.5790E-03     29.5493E-03
            1496            2122     28.5790E-03     29.5493E-03
            1497            2123     31.5649E-03     32.5792E-03
            1516            2123     31.5649E-03     32.5792E-03
            1515            2123     31.5649E-03     32.5792E-03
            1498            2123     31.5649E-03     32.5792E-03
            1499            2124     34.6286E-03     35.6913E-03
            1517            2124     34.6286E-03     35.6913E-03
            1498            2124     34.6286E-03     35.6913E-03
            1516            2124     34.6286E-03     35.6913E-03
            1499            2125     37.7791E-03     38.8865E-03
            1500            2125     37.7791E-03     38.8865E-03
            1517            2125     37.7791E-03     38.8865E-03
            1518            2125     37.7791E-03     38.8865E-03
            1501            2126     41.1224E-03     42.1990E-03
            1500            2126     41.1224E-03     42.1990E-03
            1519            2126     41.1224E-03     42.1990E-03
            1518            2126     41.1224E-03     42.1990E-03
            1519            2127     44.5341E-03     45.5792E-03
            1501            2127     44.5341E-03     45.5792E-03
            1502            2127     44.5341E-03     45.5792E-03
            1520            2127     44.5341E-03     45.5792E-03
            1520            2128     47.8568E-03     48.8196E-03
            1502            2128     47.8568E-03     48.8196E-03
            1503            2128     47.8568E-03     48.8196E-03
            1521            2128     47.8568E-03     48.8196E-03
            1504            2129     50.9992E-03     51.6301E-03
            1521            2129     50.9992E-03     51.6301E-03
            1503            2129     50.9992E-03     51.6301E-03
            1522            2129     50.9992E-03     51.6301E-03
            1505            2130     2.90315E-03     4.06915E-03
            1524            2130     2.90315E-03     4.06915E-03
            1506            2130     2.90315E-03     4.06915E-03
            1523            2130     2.90315E-03     4.06915E-03
            1507            2131     5.50447E-03     6.72293E-03
            1524            2131     5.50447E-03     6.72293E-03
            1506            2131     5.50447E-03     6.72293E-03
            1525            2131     5.50447E-03     6.72293E-03
            1507            2132     8.29530E-03     9.36813E-03
            1508            2132     8.29530E-03     9.36813E-03
            1525            2132     8.29530E-03     9.36813E-03
            1526            2132     8.29530E-03     9.36813E-03
            1509            2133     11.1146E-03     12.0881E-03
            1508            2133     11.1146E-03     12.0881E-03
            1527            2133     11.1146E-03     12.0881E-03
            1526            2133     11.1146E-03     12.0881E-03
            1528            2134     13.9143E-03     14.8694E-03
            1527            2134     13.9143E-03     14.8694E-03
            1509            2134     13.9143E-03     14.8694E-03
            1510            2134     13.9143E-03     14.8694E-03
            1529            2135     16.7184E-03     17.6650E-03
            1528            2135     16.7184E-03     17.6650E-03
            1510            2135     16.7184E-03     17.6650E-03
            1511            2135     16.7184E-03     17.6650E-03
            1511            2136     19.5259E-03     20.4799E-03
            1530            2136     19.5259E-03     20.4799E-03
            1529            2136     19.5259E-03     20.4799E-03
            1512            2136     19.5259E-03     20.4799E-03
            1513            2137     22.3460E-03     23.3092E-03
            1531            2137     22.3460E-03     23.3092E-03
            1530            2137     22.3460E-03     23.3092E-03
            1512            2137     22.3460E-03     23.3092E-03
            1513            2138     25.1818E-03     26.1635E-03
            1532            2138     25.1818E-03     26.1635E-03
            1531            2138     25.1818E-03     26.1635E-03
            1514            2138     25.1818E-03     26.1635E-03
            1515            2139     28.0522E-03     29.0517E-03
            1533            2139     28.0522E-03     29.0517E-03
            1532            2139     28.0522E-03     29.0517E-03
            1514            2139     28.0522E-03     29.0517E-03
            1534            2140     30.9696E-03     32.0001E-03
            1515            2140     30.9696E-03     32.0001E-03
            1533            2140     30.9696E-03     32.0001E-03
            1516            2140     30.9696E-03     32.0001E-03
            1534            2141     33.9753E-03     35.0303E-03
            1535            2141     33.9753E-03     35.0303E-03
            1517            2141     33.9753E-03     35.0303E-03
            1516            2141     33.9753E-03     35.0303E-03
            1536            2142     37.1278E-03     38.2081E-03
            1518            2142     37.1278E-03     38.2081E-03
            1535            2142     37.1278E-03     38.2081E-03
            1517            2142     37.1278E-03     38.2081E-03
            1536            2143     40.4781E-03     41.5701E-03
            1518            2143     40.4781E-03     41.5701E-03
            1519            2143     40.4781E-03     41.5701E-03
            1537            2143     40.4781E-03     41.5701E-03
            1519            2144     44.3032E-03     45.2622E-03
            1520            2144     44.3032E-03     45.2622E-03
            1537            2144     44.3032E-03     45.2622E-03
            1538            2144     44.3032E-03     45.2622E-03
            1538            2145     48.2873E-03     49.1321E-03
            1520            2145     48.2873E-03     49.1321E-03
            1521            2145     48.2873E-03     49.1321E-03
            1539            2145     48.2873E-03     49.1321E-03
            1540            2146     51.8509E-03     52.7454E-03
            1521            2146     51.8509E-03     52.7454E-03
            1539            2146     51.8509E-03     52.7454E-03
            1522            2146     51.8509E-03     52.7454E-03
            1542            2147     3.77788E-03     4.96612E-03
            1523            2147     3.77788E-03     4.96612E-03
            1524            2147     3.77788E-03     4.96612E-03
            1541            2147     3.77788E-03     4.96612E-03
            1542            2148     5.92317E-03     7.06988E-03
            1543            2148     5.92317E-03     7.06988E-03
            1524            2148     5.92317E-03     7.06988E-03
            1525            2148     5.92317E-03     7.06988E-03
            1526            2149     8.52316E-03     9.48000E-03
            1544            2149     8.52316E-03     9.48000E-03
            1525            2149     8.52316E-03     9.48000E-03
            1543            2149     8.52316E-03     9.48000E-03
            1544            2150     11.1550E-03     12.1077E-03
            1527            2150     11.1550E-03     12.1077E-03
            1526            2150     11.1550E-03     12.1077E-03
            1545            2150     11.1550E-03     12.1077E-03
            1545            2151     13.8175E-03     14.7901E-03
            1546            2151     13.8175E-03     14.7901E-03
            1528            2151     13.8175E-03     14.7901E-03
            1527            2151     13.8175E-03     14.7901E-03
            1528            2152     16.4987E-03     17.4959E-03
            1546            2152     16.4987E-03     17.4959E-03
            1547            2152     16.4987E-03     17.4959E-03
            1529            2152     16.4987E-03     17.4959E-03
            1530            2153     19.1979E-03     20.2099E-03
            1547            2153     19.1979E-03     20.2099E-03
            1548            2153     19.1979E-03     20.2099E-03
            1529            2153     19.1979E-03     20.2099E-03
            1549            2154     21.9097E-03     22.9312E-03
            1530            2154     21.9097E-03     22.9312E-03
            1531            2154     21.9097E-03     22.9312E-03
            1548            2154     21.9097E-03     22.9312E-03
            1550            2155     24.6443E-03     25.6649E-03
            1531            2155     24.6443E-03     25.6649E-03
            1532            2155     24.6443E-03     25.6649E-03
            1549            2155     24.6443E-03     25.6649E-03
            1550            2156     27.4021E-03     28.4222E-03
            1533            2156     27.4021E-03     28.4222E-03
            1532            2156     27.4021E-03     28.4222E-03
            1551            2156     27.4021E-03     28.4222E-03
            1533            2157     30.2167E-03     31.2257E-03
            1551            2157     30.2167E-03     31.2257E-03
            1534            2157     30.2167E-03     31.2257E-03
            1552            2157     30.2167E-03     31.2257E-03
            1534            2158     33.1040E-03     34.1132E-03
            1552            2158     33.1040E-03     34.1132E-03
            1535            2158     33.1040E-03     34.1132E-03
            1553            2158     33.1040E-03     34.1132E-03
            1553            2159     36.1508E-03     37.1471E-03
            1536            2159     36.1508E-03     37.1471E-03
            1535            2159     36.1508E-03     37.1471E-03
            1554            2159     36.1508E-03     37.1471E-03
            1537            2160     39.4375E-03     40.4409E-03
            1555            2160     39.4375E-03     40.4409E-03
            1536            2160     39.4375E-03     40.4409E-03
            1554            2160     39.4375E-03     40.4409E-03
            1538            2161     43.1588E-03     44.1419E-03
            1537            2161     43.1588E-03     44.1419E-03
            1555            2161     43.1588E-03     44.1419E-03
            1556            2161     43.1588E-03     44.1419E-03
            1538            2162     47.9374E-03     48.6420E-03
            1557            2162     47.9374E-03     48.6420E-03
            1556            2162     47.9374E-03     48.6420E-03
            1539            2162     47.9374E-03     48.6420E-03
            1540            2163     52.7906E-03     53.0481E-03
            1539            2163     52.7906E-03     53.0481E-03
            1558            2163     52.7906E-03     53.0481E-03
            1557            2163     52.7906E-03     53.0481E-03
            1542            2164     4.97339E-03     5.99717E-03
            1541            2164     4.97339E-03     5.99717E-03
            1559            2164     4.97339E-03     5.99717E-03
            1560            2164     4.97339E-03     5.99717E-03
            1560            2165     6.81811E-03     7.57367E-03
            1542            2165     6.81811E-03     7.57367E-03
            1561            2165     6.81811E-03     7.57367E-03
            1543            2165     6.81811E-03     7.57367E-03
            1562            2166     9.01415E-03     9.83057E-03
            1561            2166     9.01415E-03     9.83057E-03
            1543            2166     9.01415E-03     9.83057E-03
            1544            2166     9.01415E-03     9.83057E-03
            1545            2167     11.3823E-03     12.3103E-03
            1563            2167     11.3823E-03     12.3103E-03
            1544            2167     11.3823E-03     12.3103E-03
            1562            2167     11.3823E-03     12.3103E-03
            1564            2168     13.8408E-03     14.8561E-03
            1546            2168     13.8408E-03     14.8561E-03
            1545            2168     13.8408E-03     14.8561E-03
            1563            2168     13.8408E-03     14.8561E-03
            1565            2169     16.3618E-03     17.4295E-03
            1546            2169     16.3618E-03     17.4295E-03
            1547            2169     16.3618E-03     17.4295E-03
            1564            2169     16.3618E-03     17.4295E-03
            1547            2170     18.9143E-03     20.0087E-03
            1566            2170     18.9143E-03     20.0087E-03
            1548            2170     18.9143E-03     20.0087E-03
            1565            2170     18.9143E-03     20.0087E-03
            1567            2171     21.4954E-03     22.5906E-03
            1566            2171     21.4954E-03     22.5906E-03
            1549            2171     21.4954E-03     22.5906E-03
            1548            2171     21.4954E-03     22.5906E-03
            1550            2172     24.0942E-03     25.1724E-03
            1568            2172     24.0942E-03     25.1724E-03
            1567            2172     24.0942E-03     25.1724E-03
            1549            2172     24.0942E-03     25.1724E-03
            1569            2173     26.7269E-03     27.7672E-03
            1550            2173     26.7269E-03     27.7672E-03
            1568            2173     26.7269E-03     27.7672E-03
            1551            2173     26.7269E-03     27.7672E-03
            1552            2174     29.3952E-03     30.3842E-03
            1569            2174     29.3952E-03     30.3842E-03
            1551            2174     29.3952E-03     30.3842E-03
            1570            2174     29.3952E-03     30.3842E-03
            1570            2175     32.1509E-03     33.0723E-03
            1552            2175     32.1509E-03     33.0723E-03
            1571            2175     32.1509E-03     33.0723E-03
            1553            2175     32.1509E-03     33.0723E-03
            1553            2176     35.0124E-03     35.8668E-03
            1572            2176     35.0124E-03     35.8668E-03
            1571            2176     35.0124E-03     35.8668E-03
            1554            2176     35.0124E-03     35.8668E-03
            1573            2177     38.1372E-03     38.9295E-03
            1555            2177     38.1372E-03     38.9295E-03
            1554            2177     38.1372E-03     38.9295E-03
            1572            2177     38.1372E-03     38.9295E-03
            1555            2178     41.5817E-03     42.3671E-03
            1573            2178     41.5817E-03     42.3671E-03
            1574            2178     41.5817E-03     42.3671E-03
            1556            2178     41.5817E-03     42.3671E-03
            1556            2179     45.9881E-03     46.8440E-03
            1575            2179     45.9881E-03     46.8440E-03
            1557            2179     45.9881E-03     46.8440E-03
            1574            2179     45.9881E-03     46.8440E-03
            1575            2180     52.2202E-03     52.7926E-03
            1558            2180     52.2202E-03     52.7926E-03
            1576            2180     52.2202E-03     52.7926E-03
            1557            2180     52.2202E-03     52.7926E-03
            1560            2181     7.50701E-03     8.39431E-03
            1577            2181     7.50701E-03     8.39431E-03
            1559            2181     7.50701E-03     8.39431E-03
            1578            2181     7.50701E-03     8.39431E-03
            1579            2182     9.34153E-03     9.71448E-03
            1560            2182     9.34153E-03     9.71448E-03
            1561            2182     9.34153E-03     9.71448E-03
            1578            2182     9.34153E-03     9.71448E-03
            1561            2183     11.3415E-03     11.8396E-03
            1562            2183     11.3415E-03     11.8396E-03
            1579            2183     11.3415E-03     11.8396E-03
            1580            2183     11.3415E-03     11.8396E-03
            1562            2184     13.6321E-03     14.2971E-03
            1563            2184     13.6321E-03     14.2971E-03
            1580            2184     13.6321E-03     14.2971E-03
            1581            2184     13.6321E-03     14.2971E-03
            1581            2185     16.1020E-03     16.8705E-03
            1563            2185     16.1020E-03     16.8705E-03
            1582            2185     16.1020E-03     16.8705E-03
            1564            2185     16.1020E-03     16.8705E-03
            1582            2186     18.6800E-03     19.5075E-03
            1564            2186     18.6800E-03     19.5075E-03
            1583            2186     18.6800E-03     19.5075E-03
            1565            2186     18.6800E-03     19.5075E-03
            1583            2187     21.3231E-03     22.1676E-03
            1565            2187     21.3231E-03     22.1676E-03
            1584            2187     21.3231E-03     22.1676E-03
            1566            2187     21.3231E-03     22.1676E-03
            1584            2188     23.9969E-03     24.8320E-03
            1585            2188     23.9969E-03     24.8320E-03
            1567            2188     23.9969E-03     24.8320E-03
            1566            2188     23.9969E-03     24.8320E-03
            1586            2189     26.6955E-03     27.4856E-03
            1585            2189     26.6955E-03     27.4856E-03
            1567            2189     26.6955E-03     27.4856E-03
            1568            2189     26.6955E-03     27.4856E-03
            1587            2190     29.3925E-03     30.1227E-03
            1586            2190     29.3925E-03     30.1227E-03
            1568            2190     29.3925E-03     30.1227E-03
            1569            2190     29.3925E-03     30.1227E-03
            1587            2191     32.1142E-03     32.7370E-03
            1570            2191     32.1142E-03     32.7370E-03
            1588            2191     32.1142E-03     32.7370E-03
            1569            2191     32.1142E-03     32.7370E-03
            1588            2192     34.8267E-03     35.3398E-03
            1570            2192     34.8267E-03     35.3398E-03
            1589            2192     34.8267E-03     35.3398E-03
            1571            2192     34.8267E-03     35.3398E-03
            1571            2193     37.6101E-03     37.9483E-03
            1572            2193     37.6101E-03     37.9483E-03
            1590            2193     37.6101E-03     37.9483E-03
            1589            2193     37.6101E-03     37.9483E-03
            1590            2194     40.4133E-03     40.6210E-03
            1573            2194     40.4133E-03     40.6210E-03
            1591            2194     40.4133E-03     40.6210E-03
            1572            2194     40.4133E-03     40.6210E-03
            1573            2195     43.4550E-03     43.4999E-03
            1574            2195     43.4550E-03     43.4999E-03
            1591            2195     43.4550E-03     43.4999E-03
            1592            2195     43.4550E-03     43.4999E-03
            1592            2196     46.6721E-03     46.7666E-03
            1574            2196     46.6721E-03     46.7666E-03
            1593            2196     46.6721E-03     46.7666E-03
            1575            2196     46.6721E-03     46.7666E-03
            1593            2197     51.2268E-03     52.2314E-03
            1576            2197     51.2268E-03     52.2314E-03
            1594            2197     51.2268E-03     52.2314E-03
            1575            2197     51.2268E-03     52.2314E-03
            1595            2198     8.58814E-03     9.84042E-03
            1596            2198     8.58814E-03     9.84042E-03
            1577            2198     8.58814E-03     9.84042E-03
            1578            2198     8.58814E-03     9.84042E-03
            1596            2199     10.4131E-03     11.0314E-03
            1578            2199     10.4131E-03     11.0314E-03
            1597            2199     10.4131E-03     11.0314E-03
            1579            2199     10.4131E-03     11.0314E-03
            1580            2200     12.7266E-03     13.1811E-03
            1579            2200     12.7266E-03     13.1811E-03
            1598            2200     12.7266E-03     13.1811E-03
            1597            2200     12.7266E-03     13.1811E-03
            1599            2201     15.3034E-03     15.7899E-03
            1598            2201     15.3034E-03     15.7899E-03
            1580            2201     15.3034E-03     15.7899E-03
            1581            2201     15.3034E-03     15.7899E-03
            1599            2202     18.0524E-03     18.5884E-03
            1581            2202     18.0524E-03     18.5884E-03
            1600            2202     18.0524E-03     18.5884E-03
            1582            2202     18.0524E-03     18.5884E-03
            1582            2203     20.9168E-03     21.4821E-03
            1583            2203     20.9168E-03     21.4821E-03
            1600            2203     20.9168E-03     21.4821E-03
            1601            2203     20.9168E-03     21.4821E-03
            1602            2204     23.8465E-03     24.4157E-03
            1601            2204     23.8465E-03     24.4157E-03
            1583            2204     23.8465E-03     24.4157E-03
            1584            2204     23.8465E-03     24.4157E-03
            1584            2205     26.8130E-03     27.3658E-03
            1585            2205     26.8130E-03     27.3658E-03
            1602            2205     26.8130E-03     27.3658E-03
            1603            2205     26.8130E-03     27.3658E-03
            1585            2206     29.7918E-03     30.3054E-03
            1586            2206     29.7918E-03     30.3054E-03
            1603            2206     29.7918E-03     30.3054E-03
            1604            2206     29.7918E-03     30.3054E-03
            1586            2207     32.7701E-03     33.2268E-03
            1605            2207     32.7701E-03     33.2268E-03
            1604            2207     32.7701E-03     33.2268E-03
            1587            2207     32.7701E-03     33.2268E-03
            1588            2208     35.7262E-03     36.1033E-03
            1587            2208     35.7262E-03     36.1033E-03
            1606            2208     35.7262E-03     36.1033E-03
            1605            2208     35.7262E-03     36.1033E-03
            1588            2209     38.6632E-03     38.9393E-03
            1589            2209     38.6632E-03     38.9393E-03
            1607            2209     38.6632E-03     38.9393E-03
            1606            2209     38.6632E-03     38.9393E-03
            1608            2210     41.5404E-03     41.7064E-03
            1589            2210     41.5404E-03     41.7064E-03
            1607            2210     41.5404E-03     41.7064E-03
            1590            2210     41.5404E-03     41.7064E-03
            1590            2211     44.4065E-03     44.4439E-03
            1591            2211     44.4065E-03     44.4439E-03
            1609            2211     44.4065E-03     44.4439E-03
            1608            2211     44.4065E-03     44.4439E-03
            1609            2212     47.1763E-03     47.1376E-03
            1610            2212     47.1763E-03     47.1376E-03
            1592            2212     47.1763E-03     47.1376E-03
            1591            2212     47.1763E-03     47.1376E-03
            1592            2213     50.0689E-03     50.0077E-03
            1593            2213     50.0689E-03     50.0077E-03
            1610            2213     50.0689E-03     50.0077E-03
            1611            2213     50.0689E-03     50.0077E-03
            1611            2214     53.1809E-03     52.8678E-03
            1594            2214     53.1809E-03     52.8678E-03
            1612            2214     53.1809E-03     52.8678E-03
            1593            2214     53.1809E-03     52.8678E-03
            1613            2215     7.05059E-03     8.14331E-03
            1595            2215     7.05059E-03     8.14331E-03
            1596            2215     7.05059E-03     8.14331E-03
            1614            2215     7.05059E-03     8.14331E-03
            1614            2216     8.90214E-03     10.0689E-03
            1596            2216     8.90214E-03     10.0689E-03
            1597            2216     8.90214E-03     10.0689E-03
            1615            2216     8.90214E-03     10.0689E-03
            1615            2217     11.6339E-03     12.4309E-03
            1616            2217     11.6339E-03     12.4309E-03
            1598            2217     11.6339E-03     12.4309E-03
            1597            2217     11.6339E-03     12.4309E-03
            1598            2218     14.5783E-03     15.2525E-03
            1617            2218     14.5783E-03     15.2525E-03
            1599            2218     14.5783E-03     15.2525E-03
            1616            2218     14.5783E-03     15.2525E-03
            1600            2219     17.6175E-03     18.2630E-03
            1599            2219     17.6175E-03     18.2630E-03
            1617            2219     17.6175E-03     18.2630E-03
            1618            2219     17.6175E-03     18.2630E-03
            1600            2220     20.7283E-03     21.3627E-03
            1619            2220     20.7283E-03     21.3627E-03
            1601            2220     20.7283E-03     21.3627E-03
            1618            2220     20.7283E-03     21.3627E-03
            1619            2221     23.8788E-03     24.5117E-03
            1601            2221     23.8788E-03     24.5117E-03
            1620            2221     23.8788E-03     24.5117E-03
            1602            2221     23.8788E-03     24.5117E-03
            1603            2222     27.0597E-03     27.6835E-03
            1602            2222     27.0597E-03     27.6835E-03
            1620            2222     27.0597E-03     27.6835E-03
            1621            2222     27.0597E-03     27.6835E-03
            1604            2223     30.2570E-03     30.8703E-03
            1622            2223     30.2570E-03     30.8703E-03
            1603            2223     30.2570E-03     30.8703E-03
            1621            2223     30.2570E-03     30.8703E-03
            1622            2224     33.4632E-03     34.0605E-03
            1604            2224     33.4632E-03     34.0605E-03
            1605            2224     33.4632E-03     34.0605E-03
            1623            2224     33.4632E-03     34.0605E-03
            1624            2225     36.6702E-03     37.2520E-03
            1606            2225     36.6702E-03     37.2520E-03
            1605            2225     36.6702E-03     37.2520E-03
            1623            2225     36.6702E-03     37.2520E-03
            1607            2226     39.8604E-03     40.4357E-03
            1606            2226     39.8604E-03     40.4357E-03
            1625            2226     39.8604E-03     40.4357E-03
            1624            2226     39.8604E-03     40.4357E-03
            1607            2227     43.0369E-03     43.6073E-03
            1608            2227     43.0369E-03     43.6073E-03
            1626            2227     43.0369E-03     43.6073E-03
            1625            2227     43.0369E-03     43.6073E-03
            1626            2228     46.1612E-03     46.7744E-03
            1608            2228     46.1612E-03     46.7744E-03
            1609            2228     46.1612E-03     46.7744E-03
            1627            2228     46.1612E-03     46.7744E-03
            1627            2229     49.2637E-03     49.9144E-03
            1610            2229     49.2637E-03     49.9144E-03
            1628            2229     49.2637E-03     49.9144E-03
            1609            2229     49.2637E-03     49.9144E-03
            1628            2230     52.4877E-03     53.0838E-03
            1610            2230     52.4877E-03     53.0838E-03
            1629            2230     52.4877E-03     53.0838E-03
            1611            2230     52.4877E-03     53.0838E-03
            1611            2231     55.3744E-03     55.6680E-03
            1630            2231     55.3744E-03     55.6680E-03
            1629            2231     55.3744E-03     55.6680E-03
            1612            2231     55.3744E-03     55.6680E-03
            1613            2232     5.55833E-03     6.46184E-03
            1632            2232     5.55833E-03     6.46184E-03
            1614            2232     5.55833E-03     6.46184E-03
            1631            2232     5.55833E-03     6.46184E-03
            1614            2233     7.86388E-03     9.06623E-03
            1633            2233     7.86388E-03     9.06623E-03
            1632            2233     7.86388E-03     9.06623E-03
            1615            2233     7.86388E-03     9.06623E-03
            1615            2234     10.8370E-03     11.8993E-03
            1616            2234     10.8370E-03     11.8993E-03
            1634            2234     10.8370E-03     11.8993E-03
            1633            2234     10.8370E-03     11.8993E-03
            1635            2235     14.0534E-03     14.9196E-03
            1616            2235     14.0534E-03     14.9196E-03
            1617            2235     14.0534E-03     14.9196E-03
            1634            2235     14.0534E-03     14.9196E-03
            1636            2236     17.3232E-03     18.1024E-03
            1618            2236     17.3232E-03     18.1024E-03
            1617            2236     17.3232E-03     18.1024E-03
            1635            2236     17.3232E-03     18.1024E-03
            1637            2237     20.6204E-03     21.3607E-03
            1636            2237     20.6204E-03     21.3607E-03
            1618            2237     20.6204E-03     21.3607E-03
            1619            2237     20.6204E-03     21.3607E-03
            1637            2238     23.9438E-03     24.6676E-03
            1638            2238     23.9438E-03     24.6676E-03
            1619            2238     23.9438E-03     24.6676E-03
            1620            2238     23.9438E-03     24.6676E-03
            1639            2239     27.2850E-03     28.0090E-03
            1620            2239     27.2850E-03     28.0090E-03
            1638            2239     27.2850E-03     28.0090E-03
            1621            2239     27.2850E-03     28.0090E-03
            1640            2240     30.6479E-03     31.3807E-03
            1622            2240     30.6479E-03     31.3807E-03
            1621            2240     30.6479E-03     31.3807E-03
            1639            2240     30.6479E-03     31.3807E-03
            1641            2241     34.0243E-03     34.7792E-03
            1622            2241     34.0243E-03     34.7792E-03
            1640            2241     34.0243E-03     34.7792E-03
            1623            2241     34.0243E-03     34.7792E-03
            1624            2242     37.4202E-03     38.2072E-03
            1642            2242     37.4202E-03     38.2072E-03
            1623            2242     37.4202E-03     38.2072E-03
            1641            2242     37.4202E-03     38.2072E-03
            1625            2243     40.8167E-03     41.6567E-03
            1624            2243     40.8167E-03     41.6567E-03
            1642            2243     40.8167E-03     41.6567E-03
            1643            2243     40.8167E-03     41.6567E-03
            1644            2244     44.2148E-03     45.1225E-03
            1643            2244     44.2148E-03     45.1225E-03
            1625            2244     44.2148E-03     45.1225E-03
            1626            2244     44.2148E-03     45.1225E-03
            1627            2245     47.5688E-03     48.5585E-03
            1645            2245     47.5688E-03     48.5585E-03
            1644            2245     47.5688E-03     48.5585E-03
            1626            2245     47.5688E-03     48.5585E-03
            1627            2246     50.9195E-03     51.9353E-03
            1628            2246     50.9195E-03     51.9353E-03
            1645            2246     50.9195E-03     51.9353E-03
            1646            2246     50.9195E-03     51.9353E-03
            1629            2247     54.0647E-03     55.0267E-03
            1647            2247     54.0647E-03     55.0267E-03
            1628            2247     54.0647E-03     55.0267E-03
            1646            2247     54.0647E-03     55.0267E-03
            1648            2248     56.7438E-03     57.6245E-03
            1647            2248     56.7438E-03     57.6245E-03
            1630            2248     56.7438E-03     57.6245E-03
            1629            2248     56.7438E-03     57.6245E-03
            1649            2249     4.28774E-03     5.36603E-03
            1631            2249     4.28774E-03     5.36603E-03
            1650            2249     4.28774E-03     5.36603E-03
            1632            2249     4.28774E-03     5.36603E-03
            1633            2250     7.08682E-03     8.29275E-03
            1632            2250     7.08682E-03     8.29275E-03
            1650            2250     7.08682E-03     8.29275E-03
            1651            2250     7.08682E-03     8.29275E-03
            1634            2251     10.3242E-03     11.4929E-03
            1652            2251     10.3242E-03     11.4929E-03
            1651            2251     10.3242E-03     11.4929E-03
            1633            2251     10.3242E-03     11.4929E-03
            1652            2252     13.7012E-03     14.7153E-03
            1634            2252     13.7012E-03     14.7153E-03
            1635            2252     13.7012E-03     14.7153E-03
            1653            2252     13.7012E-03     14.7153E-03
            1653            2253     17.1146E-03     18.0175E-03
            1635            2253     17.1146E-03     18.0175E-03
            1636            2253     17.1146E-03     18.0175E-03
            1654            2253     17.1146E-03     18.0175E-03
            1636            2254     20.5345E-03     21.3798E-03
            1637            2254     20.5345E-03     21.3798E-03
            1655            2254     20.5345E-03     21.3798E-03
            1654            2254     20.5345E-03     21.3798E-03
            1638            2255     23.9644E-03     24.7856E-03
            1655            2255     23.9644E-03     24.7856E-03
            1656            2255     23.9644E-03     24.7856E-03
            1637            2255     23.9644E-03     24.7856E-03
            1657            2256     27.4094E-03     28.2342E-03
            1638            2256     27.4094E-03     28.2342E-03
            1656            2256     27.4094E-03     28.2342E-03
            1639            2256     27.4094E-03     28.2342E-03
            1640            2257     30.8699E-03     31.7195E-03
            1658            2257     30.8699E-03     31.7195E-03
            1657            2257     30.8699E-03     31.7195E-03
            1639            2257     30.8699E-03     31.7195E-03
            1641            2258     34.3609E-03     35.2516E-03
            1659            2258     34.3609E-03     35.2516E-03
            1640            2258     34.3609E-03     35.2516E-03
            1658            2258     34.3609E-03     35.2516E-03
            1641            2259     37.8681E-03     38.8265E-03
            1659            2259     37.8681E-03     38.8265E-03
            1660            2259     37.8681E-03     38.8265E-03
            1642            2259     37.8681E-03     38.8265E-03
            1660            2260     41.4222E-03     42.4517E-03
            1661            2260     41.4222E-03     42.4517E-03
            1643            2260     41.4222E-03     42.4517E-03
            1642            2260     41.4222E-03     42.4517E-03
            1662            2261     44.9671E-03     46.1023E-03
            1643            2261     44.9671E-03     46.1023E-03
            1661            2261     44.9671E-03     46.1023E-03
            1644            2261     44.9671E-03     46.1023E-03
            1645            2262     48.5289E-03     49.7218E-03
            1644            2262     48.5289E-03     49.7218E-03
            1663            2262     48.5289E-03     49.7218E-03
            1662            2262     48.5289E-03     49.7218E-03
            1645            2263     51.9651E-03     53.1769E-03
            1664            2263     51.9651E-03     53.1769E-03
            1646            2263     51.9651E-03     53.1769E-03
            1663            2263     51.9651E-03     53.1769E-03
            1665            2264     55.1040E-03     56.2685E-03
            1646            2264     55.1040E-03     56.2685E-03
            1664            2264     55.1040E-03     56.2685E-03
            1647            2264     55.1040E-03     56.2685E-03
            1665            2265     58.0101E-03     58.7193E-03
            1666            2265     58.0101E-03     58.7193E-03
            1647            2265     58.0101E-03     58.7193E-03
            1648            2265     58.0101E-03     58.7193E-03
            1667            2266     3.38495E-03     4.64480E-03
            1668            2266     3.38495E-03     4.64480E-03
            1649            2266     3.38495E-03     4.64480E-03
            1650            2266     3.38495E-03     4.64480E-03
            1668            2267     6.59305E-03     7.94206E-03
            1650            2267     6.59305E-03     7.94206E-03
            1669            2267     6.59305E-03     7.94206E-03
            1651            2267     6.59305E-03     7.94206E-03
            1651            2268     10.0384E-03     11.2289E-03
            1669            2268     10.0384E-03     11.2289E-03
            1652            2268     10.0384E-03     11.2289E-03
            1670            2268     10.0384E-03     11.2289E-03
            1671            2269     13.4905E-03     14.5908E-03
            1670            2269     13.4905E-03     14.5908E-03
            1652            2269     13.4905E-03     14.5908E-03
            1653            2269     13.4905E-03     14.5908E-03
            1654            2270     16.9607E-03     17.9509E-03
            1671            2270     16.9607E-03     17.9509E-03
            1672            2270     16.9607E-03     17.9509E-03
            1653            2270     16.9607E-03     17.9509E-03
            1672            2271     20.4333E-03     21.3580E-03
            1655            2271     20.4333E-03     21.3580E-03
            1654            2271     20.4333E-03     21.3580E-03
            1673            2271     20.4333E-03     21.3580E-03
            1674            2272     23.9041E-03     24.8085E-03
            1655            2272     23.9041E-03     24.8085E-03
            1673            2272     23.9041E-03     24.8085E-03
            1656            2272     23.9041E-03     24.8085E-03
            1656            2273     27.3846E-03     28.2945E-03
            1674            2273     27.3846E-03     28.2945E-03
            1675            2273     27.3846E-03     28.2945E-03
            1657            2273     27.3846E-03     28.2945E-03
            1657            2274     30.8868E-03     31.8268E-03
            1675            2274     30.8868E-03     31.8268E-03
            1658            2274     30.8868E-03     31.8268E-03
            1676            2274     30.8868E-03     31.8268E-03
            1676            2275     34.4096E-03     35.4041E-03
            1658            2275     34.4096E-03     35.4041E-03
            1659            2275     34.4096E-03     35.4041E-03
            1677            2275     34.4096E-03     35.4041E-03
            1659            2276     37.9836E-03     39.0448E-03
            1660            2276     37.9836E-03     39.0448E-03
            1677            2276     37.9836E-03     39.0448E-03
            1678            2276     37.9836E-03     39.0448E-03
            1679            2277     41.5824E-03     42.7432E-03
            1661            2277     41.5824E-03     42.7432E-03
            1660            2277     41.5824E-03     42.7432E-03
            1678            2277     41.5824E-03     42.7432E-03
            1680            2278     45.2731E-03     46.4979E-03
            1679            2278     45.2731E-03     46.4979E-03
            1661            2278     45.2731E-03     46.4979E-03
            1662            2278     45.2731E-03     46.4979E-03
            1662            2279     48.9475E-03     50.2560E-03
            1680            2279     48.9475E-03     50.2560E-03
            1663            2279     48.9475E-03     50.2560E-03
            1681            2279     48.9475E-03     50.2560E-03
            1664            2280     52.5369E-03     53.8465E-03
            1682            2280     52.5369E-03     53.8465E-03
            1663            2280     52.5369E-03     53.8465E-03
            1681            2280     52.5369E-03     53.8465E-03
            1683            2281     55.9407E-03     57.0199E-03
            1664            2281     55.9407E-03     57.0199E-03
            1665            2281     55.9407E-03     57.0199E-03
            1682            2281     55.9407E-03     57.0199E-03
            1683            2282     58.8723E-03     59.7754E-03
            1666            2282     58.8723E-03     59.7754E-03
            1684            2282     58.8723E-03     59.7754E-03
            1665            2282     58.8723E-03     59.7754E-03
            1686            2283     3.16786E-03     4.64866E-03
            1668            2283     3.16786E-03     4.64866E-03
            1667            2283     3.16786E-03     4.64866E-03
            1685            2283     3.16786E-03     4.64866E-03
            1668            2284     6.52823E-03     7.86476E-03
            1687            2284     6.52823E-03     7.86476E-03
            1686            2284     6.52823E-03     7.86476E-03
            1669            2284     6.52823E-03     7.86476E-03
            1688            2285     9.94267E-03     11.2087E-03
            1669            2285     9.94267E-03     11.2087E-03
            1670            2285     9.94267E-03     11.2087E-03
            1687            2285     9.94267E-03     11.2087E-03
            1689            2286     13.4042E-03     14.5185E-03
            1688            2286     13.4042E-03     14.5185E-03
            1671            2286     13.4042E-03     14.5185E-03
            1670            2286     13.4042E-03     14.5185E-03
            1671            2287     16.8594E-03     17.8833E-03
            1689            2287     16.8594E-03     17.8833E-03
            1690            2287     16.8594E-03     17.8833E-03
            1672            2287     16.8594E-03     17.8833E-03
            1672            2288     20.3049E-03     21.2835E-03
            1691            2288     20.3049E-03     21.2835E-03
            1673            2288     20.3049E-03     21.2835E-03
            1690            2288     20.3049E-03     21.2835E-03
            1674            2289     23.7530E-03     24.7149E-03
            1691            2289     23.7530E-03     24.7149E-03
            1692            2289     23.7530E-03     24.7149E-03
            1673            2289     23.7530E-03     24.7149E-03
            1674            2290     27.2094E-03     28.1818E-03
            1692            2290     27.2094E-03     28.1818E-03
            1675            2290     27.2094E-03     28.1818E-03
            1693            2290     27.2094E-03     28.1818E-03
            1694            2291     30.6812E-03     31.6828E-03
            1675            2291     30.6812E-03     31.6828E-03
            1693            2291     30.6812E-03     31.6828E-03
            1676            2291     30.6812E-03     31.6828E-03
            1695            2292     34.1859E-03     35.2343E-03
            1676            2292     34.1859E-03     35.2343E-03
            1677            2292     34.1859E-03     35.2343E-03
            1694            2292     34.1859E-03     35.2343E-03
            1696            2293     37.7239E-03     38.8407E-03
            1677            2293     37.7239E-03     38.8407E-03
            1678            2293     37.7239E-03     38.8407E-03
            1695            2293     37.7239E-03     38.8407E-03
            1697            2294     41.3425E-03     42.5292E-03
            1696            2294     41.3425E-03     42.5292E-03
            1679            2294     41.3425E-03     42.5292E-03
            1678            2294     41.3425E-03     42.5292E-03
            1680            2295     45.0175E-03     46.2956E-03
            1679            2295     45.0175E-03     46.2956E-03
            1697            2295     45.0175E-03     46.2956E-03
            1698            2295     45.0175E-03     46.2956E-03
            1680            2296     48.8584E-03     50.1472E-03
            1681            2296     48.8584E-03     50.1472E-03
            1698            2296     48.8584E-03     50.1472E-03
            1699            2296     48.8584E-03     50.1472E-03
            1681            2297     52.7161E-03     53.9871E-03
            1682            2297     52.7161E-03     53.9871E-03
            1700            2297     52.7161E-03     53.9871E-03
            1699            2297     52.7161E-03     53.9871E-03
            1701            2298     56.3640E-03     57.5767E-03
            1683            2298     56.3640E-03     57.5767E-03
            1682            2298     56.3640E-03     57.5767E-03
            1700            2298     56.3640E-03     57.5767E-03
            1684            2299     59.7790E-03     60.5247E-03
            1701            2299     59.7790E-03     60.5247E-03
            1702            2299     59.7790E-03     60.5247E-03
            1683            2299     59.7790E-03     60.5247E-03
            1686            2300     3.93742E-03     5.23365E-03
            1685            2300     3.93742E-03     5.23365E-03
            1703            2300     3.93742E-03     5.23365E-03
            1704            2300     3.93742E-03     5.23365E-03
            1704            2301     6.82928E-03     8.24632E-03
            1687            2301     6.82928E-03     8.24632E-03
            1686            2301     6.82928E-03     8.24632E-03
            1705            2301     6.82928E-03     8.24632E-03
            1705            2302     10.1089E-03     11.3344E-03
            1688            2302     10.1089E-03     11.3344E-03
            1706            2302     10.1089E-03     11.3344E-03
            1687            2302     10.1089E-03     11.3344E-03
            1706            2303     13.4634E-03     14.5418E-03
            1689            2303     13.4634E-03     14.5418E-03
            1688            2303     13.4634E-03     14.5418E-03
            1707            2303     13.4634E-03     14.5418E-03
            1708            2304     16.8150E-03     17.8399E-03
            1690            2304     16.8150E-03     17.8399E-03
            1689            2304     16.8150E-03     17.8399E-03
            1707            2304     16.8150E-03     17.8399E-03
            1708            2305     20.1694E-03     21.1760E-03
            1691            2305     20.1694E-03     21.1760E-03
            1709            2305     20.1694E-03     21.1760E-03
            1690            2305     20.1694E-03     21.1760E-03
            1692            2306     23.5318E-03     24.5372E-03
            1709            2306     23.5318E-03     24.5372E-03
            1710            2306     23.5318E-03     24.5372E-03
            1691            2306     23.5318E-03     24.5372E-03
            1693            2307     26.9042E-03     27.9206E-03
            1711            2307     26.9042E-03     27.9206E-03
            1710            2307     26.9042E-03     27.9206E-03
            1692            2307     26.9042E-03     27.9206E-03
            1711            2308     30.2931E-03     31.3303E-03
            1693            2308     30.2931E-03     31.3303E-03
            1694            2308     30.2931E-03     31.3303E-03
            1712            2308     30.2931E-03     31.3303E-03
            1712            2309     33.7064E-03     34.7734E-03
            1713            2309     33.7064E-03     34.7734E-03
            1694            2309     33.7064E-03     34.7734E-03
            1695            2309     33.7064E-03     34.7734E-03
            1713            2310     37.1618E-03     38.2706E-03
            1714            2310     37.1618E-03     38.2706E-03
            1696            2310     37.1618E-03     38.2706E-03
            1695            2310     37.1618E-03     38.2706E-03
            1696            2311     40.6796E-03     41.8390E-03
            1697            2311     40.6796E-03     41.8390E-03
            1715            2311     40.6796E-03     41.8390E-03
            1714            2311     40.6796E-03     41.8390E-03
            1715            2312     44.3172E-03     45.5304E-03
            1697            2312     44.3172E-03     45.5304E-03
            1698            2312     44.3172E-03     45.5304E-03
            1716            2312     44.3172E-03     45.5304E-03
            1717            2313     48.1039E-03     49.3602E-03
            1698            2313     48.1039E-03     49.3602E-03
            1699            2313     48.1039E-03     49.3602E-03
            1716            2313     48.1039E-03     49.3602E-03
            1718            2314     52.2911E-03     53.4515E-03
            1717            2314     52.2911E-03     53.4515E-03
            1700            2314     52.2911E-03     53.4515E-03
            1699            2314     52.2911E-03     53.4515E-03
            1718            2315     56.5669E-03     57.5876E-03
            1719            2315     56.5669E-03     57.5876E-03
            1701            2315     56.5669E-03     57.5876E-03
            1700            2315     56.5669E-03     57.5876E-03
            1701            2316     60.2736E-03     61.3239E-03
            1720            2316     60.2736E-03     61.3239E-03
            1702            2316     60.2736E-03     61.3239E-03
            1719            2316     60.2736E-03     61.3239E-03
            1722            2317     5.24464E-03     6.55909E-03
            1703            2317     5.24464E-03     6.55909E-03
            1721            2317     5.24464E-03     6.55909E-03
            1704            2317     5.24464E-03     6.55909E-03
            1723            2318     7.56843E-03     8.89818E-03
            1704            2318     7.56843E-03     8.89818E-03
            1705            2318     7.56843E-03     8.89818E-03
            1722            2318     7.56843E-03     8.89818E-03
            1723            2319     10.5876E-03     11.6363E-03
            1724            2319     10.5876E-03     11.6363E-03
            1706            2319     10.5876E-03     11.6363E-03
            1705            2319     10.5876E-03     11.6363E-03
            1724            2320     13.7026E-03     14.7076E-03
            1707            2320     13.7026E-03     14.7076E-03
            1706            2320     13.7026E-03     14.7076E-03
            1725            2320     13.7026E-03     14.7076E-03
            1708            2321     16.8653E-03     17.8819E-03
            1725            2321     16.8653E-03     17.8819E-03
            1726            2321     16.8653E-03     17.8819E-03
            1707            2321     16.8653E-03     17.8819E-03
            1726            2322     20.0659E-03     21.0984E-03
            1709            2322     20.0659E-03     21.0984E-03
            1727            2322     20.0659E-03     21.0984E-03
            1708            2322     20.0659E-03     21.0984E-03
            1727            2323     23.2871E-03     24.3371E-03
            1728            2323     23.2871E-03     24.3371E-03
            1709            2323     23.2871E-03     24.3371E-03
            1710            2323     23.2871E-03     24.3371E-03
            1728            2324     26.5252E-03     27.5840E-03
            1711            2324     26.5252E-03     27.5840E-03
            1729            2324     26.5252E-03     27.5840E-03
            1710            2324     26.5252E-03     27.5840E-03
            1711            2325     29.7802E-03     30.8435E-03
            1729            2325     29.7802E-03     30.8435E-03
            1730            2325     29.7802E-03     30.8435E-03
            1712            2325     29.7802E-03     30.8435E-03
            1730            2326     33.0522E-03     34.1172E-03
            1712            2326     33.0522E-03     34.1172E-03
            1731            2326     33.0522E-03     34.1172E-03
            1713            2326     33.0522E-03     34.1172E-03
            1732            2327     36.3627E-03     37.4243E-03
            1713            2327     36.3627E-03     37.4243E-03
            1731            2327     36.3627E-03     37.4243E-03
            1714            2327     36.3627E-03     37.4243E-03
            1715            2328     39.7209E-03     40.7903E-03
            1732            2328     39.7209E-03     40.7903E-03
            1714            2328     39.7209E-03     40.7903E-03
            1733            2328     39.7209E-03     40.7903E-03
            1716            2329     43.2019E-03     44.2668E-03
            1715            2329     43.2019E-03     44.2668E-03
            1733            2329     43.2019E-03     44.2668E-03
            1734            2329     43.2019E-03     44.2668E-03
            1735            2330     46.8624E-03     47.9560E-03
            1717            2330     46.8624E-03     47.9560E-03
            1716            2330     46.8624E-03     47.9560E-03
            1734            2330     46.8624E-03     47.9560E-03
            1735            2331     50.8936E-03     51.9748E-03
            1736            2331     50.8936E-03     51.9748E-03
            1717            2331     50.8936E-03     51.9748E-03
            1718            2331     50.8936E-03     51.9748E-03
            1719            2332     55.8846E-03     56.7028E-03
            1718            2332     55.8846E-03     56.7028E-03
            1736            2332     55.8846E-03     56.7028E-03
            1737            2332     55.8846E-03     56.7028E-03
            1737            2333     60.8295E-03     61.1444E-03
            1720            2333     60.8295E-03     61.1444E-03
            1738            2333     60.8295E-03     61.1444E-03
            1719            2333     60.8295E-03     61.1444E-03
            1721            2334     6.76610E-03     8.00522E-03
            1740            2334     6.76610E-03     8.00522E-03
            1739            2334     6.76610E-03     8.00522E-03
            1722            2334     6.76610E-03     8.00522E-03
            1740            2335     8.84796E-03     9.65996E-03
            1722            2335     8.84796E-03     9.65996E-03
            1741            2335     8.84796E-03     9.65996E-03
            1723            2335     8.84796E-03     9.65996E-03
            1741            2336     11.3878E-03     12.2102E-03
            1742            2336     11.3878E-03     12.2102E-03
            1724            2336     11.3878E-03     12.2102E-03
            1723            2336     11.3878E-03     12.2102E-03
            1724            2337     14.1605E-03     15.0915E-03
            1725            2337     14.1605E-03     15.0915E-03
            1743            2337     14.1605E-03     15.0915E-03
            1742            2337     14.1605E-03     15.0915E-03
            1726            2338     17.0666E-03     18.0905E-03
            1744            2338     17.0666E-03     18.0905E-03
            1725            2338     17.0666E-03     18.0905E-03
            1743            2338     17.0666E-03     18.0905E-03
            1726            2339     20.0559E-03     21.1404E-03
            1727            2339     20.0559E-03     21.1404E-03
            1745            2339     20.0559E-03     21.1404E-03
            1744            2339     20.0559E-03     21.1404E-03
            1746            2340     23.0904E-03     24.2044E-03
            1745            2340     23.0904E-03     24.2044E-03
            1728            2340     23.0904E-03     24.2044E-03
            1727            2340     23.0904E-03     24.2044E-03
            1728            2341     26.1538E-03     27.2746E-03
            1747            2341     26.1538E-03     27.2746E-03
            1746            2341     26.1538E-03     27.2746E-03
            1729            2341     26.1538E-03     27.2746E-03
            1730            2342     29.2306E-03     30.3355E-03
            1748            2342     29.2306E-03     30.3355E-03
            1729            2342     29.2306E-03     30.3355E-03
            1747            2342     29.2306E-03     30.3355E-03
            1730            2343     32.3282E-03     33.3975E-03
            1749            2343     32.3282E-03     33.3975E-03
            1731            2343     32.3282E-03     33.3975E-03
            1748            2343     32.3282E-03     33.3975E-03
            1732            2344     35.4406E-03     36.4545E-03
            1750            2344     35.4406E-03     36.4545E-03
            1749            2344     35.4406E-03     36.4545E-03
            1731            2344     35.4406E-03     36.4545E-03
            1733            2345     38.6142E-03     39.5504E-03
            1751            2345     38.6142E-03     39.5504E-03
            1732            2345     38.6142E-03     39.5504E-03
            1750            2345     38.6142E-03     39.5504E-03
            1752            2346     41.8476E-03     42.7033E-03
            1751            2346     41.8476E-03     42.7033E-03
            1734            2346     41.8476E-03     42.7033E-03
            1733            2346     41.8476E-03     42.7033E-03
            1752            2347     45.3010E-03     46.0635E-03
            1734            2347     45.3010E-03     46.0635E-03
            1753            2347     45.3010E-03     46.0635E-03
            1735            2347     45.3010E-03     46.0635E-03
            1753            2348     48.9915E-03     49.7290E-03
            1736            2348     48.9915E-03     49.7290E-03
            1754            2348     48.9915E-03     49.7290E-03
            1735            2348     48.9915E-03     49.7290E-03
            1737            2349     53.5605E-03     54.3441E-03
            1754            2349     53.5605E-03     54.3441E-03
            1755            2349     53.5605E-03     54.3441E-03
            1736            2349     53.5605E-03     54.3441E-03
            1756            2350     59.8134E-03     60.2762E-03
            1737            2350     59.8134E-03     60.2762E-03
            1738            2350     59.8134E-03     60.2762E-03
            1755            2350     59.8134E-03     60.2762E-03
            2271            2785     451.537E-06     506.265E-06
            2290            2785     451.537E-06     506.265E-06
            2289            2785     451.537E-06     506.265E-06
            2272            2785     451.537E-06     506.265E-06
            2291            2786     418.986E-06     473.869E-06
            2290            2786     418.986E-06     473.869E-06
            2272            2786     418.986E-06     473.869E-06
            2273            2786     418.986E-06     473.869E-06
            2273            2787     420.052E-06     467.500E-06
            2291            2787     420.052E-06     467.500E-06
            2292            2787     420.052E-06     467.500E-06
            2274            2787     420.052E-06     467.500E-06
            2275            2788     416.094E-06     461.443E-06
            2292            2788     416.094E-06     461.443E-06
            2274            2788     416.094E-06     461.443E-06
            2293            2788     416.094E-06     461.443E-06
            2275            2789     406.388E-06     452.296E-06
            2294            2789     406.388E-06     452.296E-06
            2293            2789     406.388E-06     452.296E-06
            2276            2789     406.388E-06     452.296E-06
            2294            2790     402.545E-06     446.164E-06
            2295            2790     402.545E-06     446.164E-06
            2276            2790     402.545E-06     446.164E-06
            2277            2790     402.545E-06     446.164E-06
            2295            2791     397.741E-06     439.616E-06
            2278            2791     397.741E-06     439.616E-06
            2296            2791     397.741E-06     439.616E-06
            2277            2791     397.741E-06     439.616E-06
            2297            2792     395.043E-06     434.480E-06
            2296            2792     395.043E-06     434.480E-06
            2278            2792     395.043E-06     434.480E-06
            2279            2792     395.043E-06     434.480E-06
            2279            2793     392.276E-06     429.152E-06
            2298            2793     392.276E-06     429.152E-06
            2280            2793     392.276E-06     429.152E-06
            2297            2793     392.276E-06     429.152E-06
            2280            2794     390.536E-06     424.569E-06
            2281            2794     390.536E-06     424.569E-06
            2298            2794     390.536E-06     424.569E-06
            2299            2794     390.536E-06     424.569E-06
            2299            2795     389.112E-06     420.057E-06
            2282            2795     389.112E-06     420.057E-06
            2281            2795     389.112E-06     420.057E-06
            2300            2795     389.112E-06     420.057E-06
            2282            2796     388.374E-06     416.003E-06
            2283            2796     388.374E-06     416.003E-06
            2300            2796     388.374E-06     416.003E-06
            2301            2796     388.374E-06     416.003E-06
            2283            2797     388.078E-06     412.251E-06
            2301            2797     388.078E-06     412.251E-06
            2302            2797     388.078E-06     412.251E-06
            2284            2797     388.078E-06     412.251E-06
            2284            2798     388.463E-06     408.875E-06
            2285            2798     388.463E-06     408.875E-06
            2303            2798     388.463E-06     408.875E-06
            2302            2798     388.463E-06     408.875E-06
            2285            2799     389.698E-06     406.290E-06
            2303            2799     389.698E-06     406.290E-06
            2304            2799     389.698E-06     406.290E-06
            2286            2799     389.698E-06     406.290E-06
            2287            2800     392.046E-06     404.801E-06
            2305            2800     392.046E-06     404.801E-06
            2286            2800     392.046E-06     404.801E-06
            2304            2800     392.046E-06     404.801E-06
            2288            2801     396.011E-06     400.337E-06
            2305            2801     396.011E-06     400.337E-06
            2287            2801     396.011E-06     400.337E-06
            2306            2801     396.011E-06     400.337E-06
            2290            2802     328.613E-06     346.597E-06
            2308            2802     328.613E-06     346.597E-06
            2289            2802     328.613E-06     346.597E-06
            2307            2802     328.613E-06     346.597E-06
            2309            2803     455.381E-06     463.585E-06
            2291            2803     455.381E-06     463.585E-06
            2308            2803     455.381E-06     463.585E-06
            2290            2803     455.381E-06     463.585E-06
            2309            2804     457.933E-06     457.606E-06
            2292            2804     457.933E-06     457.606E-06
            2291            2804     457.933E-06     457.606E-06
            2310            2804     457.933E-06     457.606E-06
            2310            2805     435.558E-06     443.660E-06
            2293            2805     435.558E-06     443.660E-06
            2311            2805     435.558E-06     443.660E-06
            2292            2805     435.558E-06     443.660E-06
            2311            2806     430.100E-06     435.295E-06
            2312            2806     430.100E-06     435.295E-06
            2294            2806     430.100E-06     435.295E-06
            2293            2806     430.100E-06     435.295E-06
            2313            2807     423.120E-06     429.182E-06
            2294            2807     423.120E-06     429.182E-06
            2312            2807     423.120E-06     429.182E-06
            2295            2807     423.120E-06     429.182E-06
            2296            2808     419.293E-06     425.227E-06
            2313            2808     419.293E-06     425.227E-06
            2295            2808     419.293E-06     425.227E-06
            2314            2808     419.293E-06     425.227E-06
            2296            2809     414.754E-06     420.670E-06
            2315            2809     414.754E-06     420.670E-06
            2314            2809     414.754E-06     420.670E-06
            2297            2809     414.754E-06     420.670E-06
            2298            2810     411.280E-06     417.088E-06
            2315            2810     411.280E-06     417.088E-06
            2297            2810     411.280E-06     417.088E-06
            2316            2810     411.280E-06     417.088E-06
            2298            2811     407.694E-06     413.528E-06
            2299            2811     407.694E-06     413.528E-06
            2317            2811     407.694E-06     413.528E-06
            2316            2811     407.694E-06     413.528E-06
            2318            2812     404.850E-06     410.505E-06
            2317            2812     404.850E-06     410.505E-06
            2300            2812     404.850E-06     410.505E-06
            2299            2812     404.850E-06     410.505E-06
            2319            2813     402.195E-06     407.746E-06
            2301            2813     402.195E-06     407.746E-06
            2318            2813     402.195E-06     407.746E-06
            2300            2813     402.195E-06     407.746E-06
            2319            2814     399.716E-06     405.852E-06
            2320            2814     399.716E-06     405.852E-06
            2301            2814     399.716E-06     405.852E-06
            2302            2814     399.716E-06     405.852E-06
            2302            2815     399.075E-06     402.789E-06
            2321            2815     399.075E-06     402.789E-06
            2320            2815     399.075E-06     402.789E-06
            2303            2815     399.075E-06     402.789E-06
            2303            2816     396.447E-06     403.813E-06
            2322            2816     396.447E-06     403.813E-06
            2321            2816     396.447E-06     403.813E-06
            2304            2816     396.447E-06     403.813E-06
            2322            2817     397.761E-06     408.517E-06
            2305            2817     397.761E-06     408.517E-06
            2323            2817     397.761E-06     408.517E-06
            2304            2817     397.761E-06     408.517E-06
            2323            2818     423.540E-06     392.533E-06
            2305            2818     423.540E-06     392.533E-06
            2324            2818     423.540E-06     392.533E-06
            2306            2818     423.540E-06     392.533E-06
            2326            2819     251.190E-06     292.293E-06
            2307            2819     251.190E-06     292.293E-06
            2325            2819     251.190E-06     292.293E-06
            2308            2819     251.190E-06     292.293E-06
            2327            2820     440.126E-06     399.505E-06
            2309            2820     440.126E-06     399.505E-06
            2326            2820     440.126E-06     399.505E-06
            2308            2820     440.126E-06     399.505E-06
            2328            2821     467.888E-06     426.779E-06
            2309            2821     467.888E-06     426.779E-06
            2327            2821     467.888E-06     426.779E-06
            2310            2821     467.888E-06     426.779E-06
            2328            2822     462.717E-06     425.347E-06
            2311            2822     462.717E-06     425.347E-06
            2310            2822     462.717E-06     425.347E-06
            2329            2822     462.717E-06     425.347E-06
            2311            2823     456.284E-06     420.513E-06
            2330            2823     456.284E-06     420.513E-06
            2312            2823     456.284E-06     420.513E-06
            2329            2823     456.284E-06     420.513E-06
            2330            2824     451.647E-06     418.008E-06
            2312            2824     451.647E-06     418.008E-06
            2331            2824     451.647E-06     418.008E-06
            2313            2824     451.647E-06     418.008E-06
            2313            2825     446.672E-06     415.108E-06
            2314            2825     446.672E-06     415.108E-06
            2332            2825     446.672E-06     415.108E-06
            2331            2825     446.672E-06     415.108E-06
            2314            2826     442.316E-06     412.904E-06
            2315            2826     442.316E-06     412.904E-06
            2332            2826     442.316E-06     412.904E-06
            2333            2826     442.316E-06     412.904E-06
            2334            2827     437.667E-06     410.745E-06
            2316            2827     437.667E-06     410.745E-06
            2315            2827     437.667E-06     410.745E-06
            2333            2827     437.667E-06     410.745E-06
            2316            2828     433.454E-06     409.108E-06
            2335            2828     433.454E-06     409.108E-06
            2317            2828     433.454E-06     409.108E-06
            2334            2828     433.454E-06     409.108E-06
            2335            2829     429.295E-06     407.812E-06
            2317            2829     429.295E-06     407.812E-06
            2318            2829     429.295E-06     407.812E-06
            2336            2829     429.295E-06     407.812E-06
            2319            2830     425.476E-06     407.019E-06
            2336            2830     425.476E-06     407.019E-06
            2318            2830     425.476E-06     407.019E-06
            2337            2830     425.476E-06     407.019E-06
            2338            2831     421.925E-06     406.629E-06
            2320            2831     421.925E-06     406.629E-06
            2319            2831     421.925E-06     406.629E-06
            2337            2831     421.925E-06     406.629E-06
            2339            2832     418.742E-06     406.871E-06
            2320            2832     418.742E-06     406.871E-06
            2321            2832     418.742E-06     406.871E-06
            2338            2832     418.742E-06     406.871E-06
            2322            2833     415.945E-06     407.905E-06
            2339            2833     415.945E-06     407.905E-06
            2321            2833     415.945E-06     407.905E-06
            2340            2833     415.945E-06     407.905E-06
            2340            2834     413.939E-06     410.401E-06
            2323            2834     413.939E-06     410.401E-06
            2322            2834     413.939E-06     410.401E-06
            2341            2834     413.939E-06     410.401E-06
            2341            2835     412.760E-06     412.868E-06
            2342            2835     412.760E-06     412.868E-06
            2323            2835     412.760E-06     412.868E-06
            2324            2835     412.760E-06     412.868E-06
            3393            3784     63.5562E-03     82.7279E-03
            3394            3784     63.5562E-03     82.7279E-03
            3411            3784     63.5562E-03     82.7279E-03
            3412            3784     63.5562E-03     82.7279E-03
            3412            3785     23.7832E-03     42.5692E-03
            3395            3785     23.7832E-03     42.5692E-03
            3394            3785     23.7832E-03     42.5692E-03
            3413            3785     23.7832E-03     42.5692E-03
            3395            3786     14.5157E-03     26.7495E-03
            3396            3786     14.5157E-03     26.7495E-03
            3413            3786     14.5157E-03     26.7495E-03
            3414            3786     14.5157E-03     26.7495E-03
            3397            3787     15.2579E-03     19.9953E-03
            3396            3787     15.2579E-03     19.9953E-03
            3415            3787     15.2579E-03     19.9953E-03
            3414            3787     15.2579E-03     19.9953E-03
            3397            3788     17.5962E-03     15.8048E-03
            3398            3788     17.5962E-03     15.8048E-03
            3416            3788     17.5962E-03     15.8048E-03
            3415            3788     17.5962E-03     15.8048E-03
            3417            3789     20.4361E-03     13.8756E-03
            3416            3789     20.4361E-03     13.8756E-03
            3398            3789     20.4361E-03     13.8756E-03
            3399            3789     20.4361E-03     13.8756E-03
            3399            3790     23.7047E-03     14.2318E-03
            3417            3790     23.7047E-03     14.2318E-03
            3418            3790     23.7047E-03     14.2318E-03
            3400            3790     23.7047E-03     14.2318E-03
            3401            3791     27.4616E-03     17.1032E-03
            3400            3791     27.4616E-03     17.1032E-03
            3419            3791     27.4616E-03     17.1032E-03
            3418            3791     27.4616E-03     17.1032E-03
            3401            3792     31.6659E-03     21.4917E-03
            3419            3792     31.6659E-03     21.4917E-03
            3420            3792     31.6659E-03     21.4917E-03
            3402            3792     31.6659E-03     21.4917E-03
            3421            3793     36.1112E-03     26.7938E-03
            3403            3793     36.1112E-03     26.7938E-03
            3420            3793     36.1112E-03     26.7938E-03
            3402            3793     36.1112E-03     26.7938E-03
            3403            3794     40.7717E-03     32.5175E-03
            3404            3794     40.7717E-03     32.5175E-03
            3422            3794     40.7717E-03     32.5175E-03
            3421            3794     40.7717E-03     32.5175E-03
            3404            3795     45.5526E-03     38.4977E-03
            3422            3795     45.5526E-03     38.4977E-03
            3405            3795     45.5526E-03     38.4977E-03
            3423            3795     45.5526E-03     38.4977E-03
            3424            3796     50.4300E-03     44.6084E-03
            3423            3796     50.4300E-03     44.6084E-03
            3406            3796     50.4300E-03     44.6084E-03
            3405            3796     50.4300E-03     44.6084E-03
            3425            3797     55.5094E-03     50.8999E-03
            3407            3797     55.5094E-03     50.8999E-03
            3424            3797     55.5094E-03     50.8999E-03
            3406            3797     55.5094E-03     50.8999E-03
            3408            3798     60.6341E-03     57.3136E-03
            3426            3798     60.6341E-03     57.3136E-03
            3407            3798     60.6341E-03     57.3136E-03
            3425            3798     60.6341E-03     57.3136E-03
            3408            3799     66.6838E-03     64.4814E-03
            3426            3799     66.6838E-03     64.4814E-03
            3409            3799     66.6838E-03     64.4814E-03
            3427            3799     66.6838E-03     64.4814E-03
            3409            3800     74.1649E-03     72.6685E-03
            3427            3800     74.1649E-03     72.6685E-03
            3410            3800     74.1649E-03     72.6685E-03
            3428            3800     74.1649E-03     72.6685E-03
            3411            3801     59.1617E-03     55.8912E-03
            3430            3801     59.1617E-03     55.8912E-03
            3429            3801     59.1617E-03     55.8912E-03
            3412            3801     59.1617E-03     55.8912E-03
            3430            3802     29.8455E-03     33.5530E-03
            3412            3802     29.8455E-03     33.5530E-03
            3413            3802     29.8455E-03     33.5530E-03
            3431            3802     29.8455E-03     33.5530E-03
            3413            3803     20.8891E-03     24.1973E-03
            3431            3803     20.8891E-03     24.1973E-03
            3414            3803     20.8891E-03     24.1973E-03
            3432            3803     20.8891E-03     24.1973E-03
            3414            3804     20.4766E-03     20.1607E-03
            3415            3804     20.4766E-03     20.1607E-03
            3432            3804     20.4766E-03     20.1607E-03
            3433            3804     20.4766E-03     20.1607E-03
            3434            3805     20.7408E-03     17.5298E-03
            3415            3805     20.7408E-03     17.5298E-03
            3433            3805     20.7408E-03     17.5298E-03
            3416            3805     20.7408E-03     17.5298E-03
            3417            3806     21.4137E-03     16.5438E-03
            3435            3806     21.4137E-03     16.5438E-03
            3416            3806     21.4137E-03     16.5438E-03
            3434            3806     21.4137E-03     16.5438E-03
            3418            3807     23.8056E-03     17.7772E-03
            3435            3807     23.8056E-03     17.7772E-03
            3436            3807     23.8056E-03     17.7772E-03
            3417            3807     23.8056E-03     17.7772E-03
            3418            3808     27.0168E-03     20.8307E-03
            3436            3808     27.0168E-03     20.8307E-03
            3437            3808     27.0168E-03     20.8307E-03
            3419            3808     27.0168E-03     20.8307E-03
            3420            3809     31.0638E-03     25.1984E-03
            3419            3809     31.0638E-03     25.1984E-03
            3437            3809     31.0638E-03     25.1984E-03
            3438            3809     31.0638E-03     25.1984E-03
            3421            3810     35.5389E-03     30.2271E-03
            3438            3810     35.5389E-03     30.2271E-03
            3439            3810     35.5389E-03     30.2271E-03
            3420            3810     35.5389E-03     30.2271E-03
            3439            3811     40.3459E-03     35.6952E-03
            3421            3811     40.3459E-03     35.6952E-03
            3440            3811     40.3459E-03     35.6952E-03
            3422            3811     40.3459E-03     35.6952E-03
            3422            3812     45.3663E-03     41.4186E-03
            3441            3812     45.3663E-03     41.4186E-03
            3440            3812     45.3663E-03     41.4186E-03
            3423            3812     45.3663E-03     41.4186E-03
            3424            3813     50.5883E-03     47.3584E-03
            3423            3813     50.5883E-03     47.3584E-03
            3442            3813     50.5883E-03     47.3584E-03
            3441            3813     50.5883E-03     47.3584E-03
            3442            3814     56.0138E-03     53.5447E-03
            3443            3814     56.0138E-03     53.5447E-03
            3424            3814     56.0138E-03     53.5447E-03
            3425            3814     56.0138E-03     53.5447E-03
            3426            3815     61.7883E-03     59.9761E-03
            3444            3815     61.7883E-03     59.9761E-03
            3443            3815     61.7883E-03     59.9761E-03
            3425            3815     61.7883E-03     59.9761E-03
            3445            3816     68.2716E-03     66.9796E-03
            3426            3816     68.2716E-03     66.9796E-03
            3444            3816     68.2716E-03     66.9796E-03
            3427            3816     68.2716E-03     66.9796E-03
            3446            3817     74.0669E-03     72.7365E-03
            3428            3817     74.0669E-03     72.7365E-03
            3445            3817     74.0669E-03     72.7365E-03
            3427            3817     74.0669E-03     72.7365E-03
            3448            3818     42.1271E-03     37.2445E-03
            3429            3818     42.1271E-03     37.2445E-03
            3430            3818     42.1271E-03     37.2445E-03
            3447            3818     42.1271E-03     37.2445E-03
            3431            3819     24.9991E-03     22.2739E-03
            3430            3819     24.9991E-03     22.2739E-03
            3448            3819     24.9991E-03     22.2739E-03
            3449            3819     24.9991E-03     22.2739E-03
            3431            3820     25.8750E-03     22.5437E-03
            3449            3820     25.8750E-03     22.5437E-03
            3450            3820     25.8750E-03     22.5437E-03
            3432            3820     25.8750E-03     22.5437E-03
            3451            3821     24.8788E-03     21.0122E-03
            3450            3821     24.8788E-03     21.0122E-03
            3433            3821     24.8788E-03     21.0122E-03
            3432            3821     24.8788E-03     21.0122E-03
            3434            3822     23.1411E-03     19.7046E-03
            3452            3822     23.1411E-03     19.7046E-03
            3451            3822     23.1411E-03     19.7046E-03
            3433            3822     23.1411E-03     19.7046E-03
            3434            3823     23.0197E-03     19.6768E-03
            3435            3823     23.0197E-03     19.6768E-03
            3452            3823     23.0197E-03     19.6768E-03
            3453            3823     23.0197E-03     19.6768E-03
            3436            3824     24.1186E-03     21.4734E-03
            3435            3824     24.1186E-03     21.4734E-03
            3453            3824     24.1186E-03     21.4734E-03
            3454            3824     24.1186E-03     21.4734E-03
            3455            3825     26.9462E-03     24.7539E-03
            3437            3825     26.9462E-03     24.7539E-03
            3454            3825     26.9462E-03     24.7539E-03
            3436            3825     26.9462E-03     24.7539E-03
            3437            3826     30.5724E-03     28.9101E-03
            3456            3826     30.5724E-03     28.9101E-03
            3438            3826     30.5724E-03     28.9101E-03
            3455            3826     30.5724E-03     28.9101E-03
            3456            3827     34.9397E-03     33.6537E-03
            3438            3827     34.9397E-03     33.6537E-03
            3457            3827     34.9397E-03     33.6537E-03
            3439            3827     34.9397E-03     33.6537E-03
            3458            3828     39.6719E-03     38.7042E-03
            3439            3828     39.6719E-03     38.7042E-03
            3457            3828     39.6719E-03     38.7042E-03
            3440            3828     39.6719E-03     38.7042E-03
            3458            3829     44.7263E-03     44.0142E-03
            3459            3829     44.7263E-03     44.0142E-03
            3441            3829     44.7263E-03     44.0142E-03
            3440            3829     44.7263E-03     44.0142E-03
            3441            3830     50.0262E-03     49.5476E-03
            3459            3830     50.0262E-03     49.5476E-03
            3442            3830     50.0262E-03     49.5476E-03
            3460            3830     50.0262E-03     49.5476E-03
            3443            3831     55.4926E-03     55.2735E-03
            3442            3831     55.4926E-03     55.2735E-03
            3461            3831     55.4926E-03     55.2735E-03
            3460            3831     55.4926E-03     55.2735E-03
            3444            3832     61.5004E-03     61.3603E-03
            3443            3832     61.5004E-03     61.3603E-03
            3461            3832     61.5004E-03     61.3603E-03
            3462            3832     61.5004E-03     61.3603E-03
            3462            3833     67.3691E-03     67.2984E-03
            3445            3833     67.3691E-03     67.2984E-03
            3444            3833     67.3691E-03     67.2984E-03
            3463            3833     67.3691E-03     67.2984E-03
            3464            3834     71.5343E-03     72.0211E-03
            3463            3834     71.5343E-03     72.0211E-03
            3446            3834     71.5343E-03     72.0211E-03
            3445            3834     71.5343E-03     72.0211E-03
            3465            3835     33.7914E-03     31.2004E-03
            3466            3835     33.7914E-03     31.2004E-03
            3448            3835     33.7914E-03     31.2004E-03
            3447            3835     33.7914E-03     31.2004E-03
            3467            3836     18.5823E-03     16.8631E-03
            3466            3836     18.5823E-03     16.8631E-03
            3448            3836     18.5823E-03     16.8631E-03
            3449            3836     18.5823E-03     16.8631E-03
            3450            3837     26.4830E-03     19.3210E-03
            3467            3837     26.4830E-03     19.3210E-03
            3468            3837     26.4830E-03     19.3210E-03
            3449            3837     26.4830E-03     19.3210E-03
            3468            3838     26.5702E-03     20.9073E-03
            3469            3838     26.5702E-03     20.9073E-03
            3450            3838     26.5702E-03     20.9073E-03
            3451            3838     26.5702E-03     20.9073E-03
            3452            3839     24.8088E-03     21.3767E-03
            3469            3839     24.8088E-03     21.3767E-03
            3451            3839     24.8088E-03     21.3767E-03
            3470            3839     24.8088E-03     21.3767E-03
            3470            3840     24.0162E-03     22.8382E-03
            3453            3840     24.0162E-03     22.8382E-03
            3471            3840     24.0162E-03     22.8382E-03
            3452            3840     24.0162E-03     22.8382E-03
            3471            3841     24.8523E-03     25.4276E-03
            3453            3841     24.8523E-03     25.4276E-03
            3472            3841     24.8523E-03     25.4276E-03
            3454            3841     24.8523E-03     25.4276E-03
            3455            3842     26.9655E-03     28.8460E-03
            3472            3842     26.9655E-03     28.8460E-03
            3454            3842     26.9655E-03     28.8460E-03
            3473            3842     26.9655E-03     28.8460E-03
            3473            3843     30.2973E-03     32.8458E-03
            3455            3843     30.2973E-03     32.8458E-03
            3456            3843     30.2973E-03     32.8458E-03
            3474            3843     30.2973E-03     32.8458E-03
            3474            3844     34.2679E-03     37.1328E-03
            3456            3844     34.2679E-03     37.1328E-03
            3457            3844     34.2679E-03     37.1328E-03
            3475            3844     34.2679E-03     37.1328E-03
            3475            3845     38.7967E-03     41.6792E-03
            3476            3845     38.7967E-03     41.6792E-03
            3458            3845     38.7967E-03     41.6792E-03
            3457            3845     38.7967E-03     41.6792E-03
            3458            3846     43.6338E-03     46.3568E-03
            3476            3846     43.6338E-03     46.3568E-03
            3477            3846     43.6338E-03     46.3568E-03
            3459            3846     43.6338E-03     46.3568E-03
            3477            3847     48.7015E-03     51.1709E-03
            3459            3847     48.7015E-03     51.1709E-03
            3460            3847     48.7015E-03     51.1709E-03
            3478            3847     48.7015E-03     51.1709E-03
            3460            3848     54.0005E-03     56.1091E-03
            3478            3848     54.0005E-03     56.1091E-03
            3461            3848     54.0005E-03     56.1091E-03
            3479            3848     54.0005E-03     56.1091E-03
            3461            3849     59.2075E-03     61.0835E-03
            3480            3849     59.2075E-03     61.0835E-03
            3479            3849     59.2075E-03     61.0835E-03
            3462            3849     59.2075E-03     61.0835E-03
            3480            3850     64.4612E-03     65.9198E-03
            3462            3850     64.4612E-03     65.9198E-03
            3463            3850     64.4612E-03     65.9198E-03
            3481            3850     64.4612E-03     65.9198E-03
            3463            3851     68.8425E-03     69.1131E-03
            3481            3851     68.8425E-03     69.1131E-03
            3464            3851     68.8425E-03     69.1131E-03
            3482            3851     68.8425E-03     69.1131E-03
            3465            3852     28.8180E-03     42.5023E-03
            3466            3852     28.8180E-03     42.5023E-03
            3483            3852     28.8180E-03     42.5023E-03
            3484            3852     28.8180E-03     42.5023E-03
            3485            3853     16.3786E-03     16.4941E-03
            3466            3853     16.3786E-03     16.4941E-03
            3484            3853     16.3786E-03     16.4941E-03
            3467            3853     16.3786E-03     16.4941E-03
            3486            3854     24.2492E-03     16.5259E-03
            3468            3854     24.2492E-03     16.5259E-03
            3467            3854     24.2492E-03     16.5259E-03
            3485            3854     24.2492E-03     16.5259E-03
            3486            3855     25.8584E-03     20.3455E-03
            3469            3855     25.8584E-03     20.3455E-03
            3468            3855     25.8584E-03     20.3455E-03
            3487            3855     25.8584E-03     20.3455E-03
            3488            3856     25.6253E-03     23.5330E-03
            3469            3856     25.6253E-03     23.5330E-03
            3470            3856     25.6253E-03     23.5330E-03
            3487            3856     25.6253E-03     23.5330E-03
            3488            3857     25.1202E-03     26.6610E-03
            3471            3857     25.1202E-03     26.6610E-03
            3470            3857     25.1202E-03     26.6610E-03
            3489            3857     25.1202E-03     26.6610E-03
            3489            3858     25.7322E-03     29.9064E-03
            3472            3858     25.7322E-03     29.9064E-03
            3490            3858     25.7322E-03     29.9064E-03
            3471            3858     25.7322E-03     29.9064E-03
            3490            3859     27.4530E-03     33.4315E-03
            3491            3859     27.4530E-03     33.4315E-03
            3473            3859     27.4530E-03     33.4315E-03
            3472            3859     27.4530E-03     33.4315E-03
            3473            3860     30.1798E-03     37.0804E-03
            3491            3860     30.1798E-03     37.0804E-03
            3474            3860     30.1798E-03     37.0804E-03
            3492            3860     30.1798E-03     37.0804E-03
            3474            3861     33.7547E-03     40.9127E-03
            3492            3861     33.7547E-03     40.9127E-03
            3475            3861     33.7547E-03     40.9127E-03
            3493            3861     33.7547E-03     40.9127E-03
            3476            3862     37.8332E-03     44.7796E-03
            3494            3862     37.8332E-03     44.7796E-03
            3475            3862     37.8332E-03     44.7796E-03
            3493            3862     37.8332E-03     44.7796E-03
            3477            3863     42.2943E-03     48.7085E-03
            3476            3863     42.2943E-03     48.7085E-03
            3494            3863     42.2943E-03     48.7085E-03
            3495            3863     42.2943E-03     48.7085E-03
            3496            3864     46.9319E-03     52.5544E-03
            3478            3864     46.9319E-03     52.5544E-03
            3477            3864     46.9319E-03     52.5544E-03
            3495            3864     46.9319E-03     52.5544E-03
            3497            3865     51.6028E-03     56.3091E-03
            3496            3865     51.6028E-03     56.3091E-03
            3479            3865     51.6028E-03     56.3091E-03
            3478            3865     51.6028E-03     56.3091E-03
            3479            3866     56.0227E-03     59.7375E-03
            3498            3866     56.0227E-03     59.7375E-03
            3497            3866     56.0227E-03     59.7375E-03
            3480            3866     56.0227E-03     59.7375E-03
            3499            3867     60.1020E-03     62.8666E-03
            3480            3867     60.1020E-03     62.8666E-03
            3498            3867     60.1020E-03     62.8666E-03
            3481            3867     60.1020E-03     62.8666E-03
            3482            3868     64.1313E-03     65.6750E-03
            3499            3868     64.1313E-03     65.6750E-03
            3481            3868     64.1313E-03     65.6750E-03
            3500            3868     64.1313E-03     65.6750E-03
            3977            4243     34.4013E-03     43.0097E-03
            3959            4243     34.4013E-03     43.0097E-03
            3960            4243     34.4013E-03     43.0097E-03
            3978            4243     34.4013E-03     43.0097E-03
            3979            4244     34.0625E-03     27.3369E-03
            3978            4244     34.0625E-03     27.3369E-03
            3960            4244     34.0625E-03     27.3369E-03
            3961            4244     34.0625E-03     27.3369E-03
            3961            4245     35.7052E-03     27.3774E-03
            3980            4245     35.7052E-03     27.3774E-03
            3962            4245     35.7052E-03     27.3774E-03
            3979            4245     35.7052E-03     27.3774E-03
            3981            4246     36.1428E-03     30.7249E-03
            3980            4246     36.1428E-03     30.7249E-03
            3963            4246     36.1428E-03     30.7249E-03
            3962            4246     36.1428E-03     30.7249E-03
            3982            4247     35.3775E-03     33.3203E-03
            3963            4247     35.3775E-03     33.3203E-03
            3964            4247     35.3775E-03     33.3203E-03
            3981            4247     35.3775E-03     33.3203E-03
            3982            4248     34.7895E-03     35.7206E-03
            3983            4248     34.7895E-03     35.7206E-03
            3965            4248     34.7895E-03     35.7206E-03
            3964            4248     34.7895E-03     35.7206E-03
            3984            4249     35.1322E-03     38.3964E-03
            3966            4249     35.1322E-03     38.3964E-03
            3965            4249     35.1322E-03     38.3964E-03
            3983            4249     35.1322E-03     38.3964E-03
            3985            4250     36.3390E-03     41.1904E-03
            3966            4250     36.3390E-03     41.1904E-03
            3967            4250     36.3390E-03     41.1904E-03
            3984            4250     36.3390E-03     41.1904E-03
            3967            4251     38.5570E-03     44.2233E-03
            3985            4251     38.5570E-03     44.2233E-03
            3986            4251     38.5570E-03     44.2233E-03
            3968            4251     38.5570E-03     44.2233E-03
            3968            4252     41.4599E-03     47.3782E-03
            3986            4252     41.4599E-03     47.3782E-03
            3969            4252     41.4599E-03     47.3782E-03
            3987            4252     41.4599E-03     47.3782E-03
            3970            4253     44.9319E-03     50.6733E-03
            3987            4253     44.9319E-03     50.6733E-03
            3969            4253     44.9319E-03     50.6733E-03
            3988            4253     44.9319E-03     50.6733E-03
            3971            4254     48.6733E-03     54.0088E-03
            3970            4254     48.6733E-03     54.0088E-03
            3989            4254     48.6733E-03     54.0088E-03
            3988            4254     48.6733E-03     54.0088E-03
            3990            4255     52.6911E-03     57.3758E-03
            3971            4255     52.6911E-03     57.3758E-03
            3989            4255     52.6911E-03     57.3758E-03
            3972            4255     52.6911E-03     57.3758E-03
            3972            4256     56.6696E-03     60.6970E-03
            3990            4256     56.6696E-03     60.6970E-03
            3973            4256     56.6696E-03     60.6970E-03
            3991            4256     56.6696E-03     60.6970E-03
            3991            4257     60.7153E-03     63.8737E-03
            3973            4257     60.7153E-03     63.8737E-03
            3992            4257     60.7153E-03     63.8737E-03
            3974            4257     60.7153E-03     63.8737E-03
            3974            4258     64.3836E-03     66.7564E-03
            3993            4258     64.3836E-03     66.7564E-03
            3975            4258     64.3836E-03     66.7564E-03
            3992            4258     64.3836E-03     66.7564E-03
            3994            4259     68.2600E-03     70.6268E-03
            3976            4259     68.2600E-03     70.6268E-03
            3975            4259     68.2600E-03     70.6268E-03
            3993            4259     68.2600E-03     70.6268E-03
            3995            4260     31.2484E-03     37.7598E-03
            3996            4260     31.2484E-03     37.7598E-03
            3978            4260     31.2484E-03     37.7598E-03
            3977            4260     31.2484E-03     37.7598E-03
            3996            4261     26.4670E-03     14.3504E-03
            3997            4261     26.4670E-03     14.3504E-03
            3978            4261     26.4670E-03     14.3504E-03
            3979            4261     26.4670E-03     14.3504E-03
            3998            4262     30.8211E-03     16.5468E-03
            3979            4262     30.8211E-03     16.5468E-03
            3980            4262     30.8211E-03     16.5468E-03
            3997            4262     30.8211E-03     16.5468E-03
            3980            4263     28.8105E-03     19.1435E-03
            3998            4263     28.8105E-03     19.1435E-03
            3999            4263     28.8105E-03     19.1435E-03
            3981            4263     28.8105E-03     19.1435E-03
            4000            4264     25.5698E-03     21.1194E-03
            3982            4264     25.5698E-03     21.1194E-03
            3981            4264     25.5698E-03     21.1194E-03
            3999            4264     25.5698E-03     21.1194E-03
            3982            4265     23.5103E-03     23.8647E-03
            4000            4265     23.5103E-03     23.8647E-03
            3983            4265     23.5103E-03     23.8647E-03
            4001            4265     23.5103E-03     23.8647E-03
            4002            4266     23.0359E-03     27.2541E-03
            4001            4266     23.0359E-03     27.2541E-03
            3983            4266     23.0359E-03     27.2541E-03
            3984            4266     23.0359E-03     27.2541E-03
            4003            4267     24.3453E-03     31.1083E-03
            4002            4267     24.3453E-03     31.1083E-03
            3985            4267     24.3453E-03     31.1083E-03
            3984            4267     24.3453E-03     31.1083E-03
            4004            4268     27.2496E-03     35.2880E-03
            3985            4268     27.2496E-03     35.2880E-03
            3986            4268     27.2496E-03     35.2880E-03
            4003            4268     27.2496E-03     35.2880E-03
            3986            4269     31.2452E-03     39.6754E-03
            4005            4269     31.2452E-03     39.6754E-03
            4004            4269     31.2452E-03     39.6754E-03
            3987            4269     31.2452E-03     39.6754E-03
            4006            4270     36.0059E-03     44.1841E-03
            3988            4270     36.0059E-03     44.1841E-03
            3987            4270     36.0059E-03     44.1841E-03
            4005            4270     36.0059E-03     44.1841E-03
            4006            4271     41.2212E-03     48.7500E-03
            3988            4271     41.2212E-03     48.7500E-03
            3989            4271     41.2212E-03     48.7500E-03
            4007            4271     41.2212E-03     48.7500E-03
            3990            4272     46.6502E-03     53.3168E-03
            4008            4272     46.6502E-03     53.3168E-03
            3989            4272     46.6502E-03     53.3168E-03
            4007            4272     46.6502E-03     53.3168E-03
            4009            4273     52.2667E-03     57.8223E-03
            3991            4273     52.2667E-03     57.8223E-03
            4008            4273     52.2667E-03     57.8223E-03
            3990            4273     52.2667E-03     57.8223E-03
            4010            4274     57.7214E-03     62.1626E-03
            3991            4274     57.7214E-03     62.1626E-03
            3992            4274     57.7214E-03     62.1626E-03
            4009            4274     57.7214E-03     62.1626E-03
            4011            4275     62.8206E-03     66.3856E-03
            3992            4275     62.8206E-03     66.3856E-03
            4010            4275     62.8206E-03     66.3856E-03
            3993            4275     62.8206E-03     66.3856E-03
            4012            4276     68.4809E-03     70.3144E-03
            3993            4276     68.4809E-03     70.3144E-03
            3994            4276     68.4809E-03     70.3144E-03
            4011            4276     68.4809E-03     70.3144E-03
            4013            4277     39.6467E-03     32.4326E-03
            3996            4277     39.6467E-03     32.4326E-03
            3995            4277     39.6467E-03     32.4326E-03
            4014            4277     39.6467E-03     32.4326E-03
            4015            4278     28.6992E-03     20.9322E-03
            3997            4278     28.6992E-03     20.9322E-03
            4014            4278     28.6992E-03     20.9322E-03
            3996            4278     28.6992E-03     20.9322E-03
            4015            4279     30.3561E-03     22.0413E-03
            3997            4279     30.3561E-03     22.0413E-03
            3998            4279     30.3561E-03     22.0413E-03
            4016            4279     30.3561E-03     22.0413E-03
            4017            4280     25.2957E-03     19.2224E-03
            3998            4280     25.2957E-03     19.2224E-03
            3999            4280     25.2957E-03     19.2224E-03
            4016            4280     25.2957E-03     19.2224E-03
            4017            4281     22.1817E-03     17.9121E-03
            3999            4281     22.1817E-03     17.9121E-03
            4000            4281     22.1817E-03     17.9121E-03
            4018            4281     22.1817E-03     17.9121E-03
            4000            4282     20.8002E-03     18.5272E-03
            4019            4282     20.8002E-03     18.5272E-03
            4001            4282     20.8002E-03     18.5272E-03
            4018            4282     20.8002E-03     18.5272E-03
            4020            4283     21.4918E-03     21.1153E-03
            4002            4283     21.4918E-03     21.1153E-03
            4001            4283     21.4918E-03     21.1153E-03
            4019            4283     21.4918E-03     21.1153E-03
            4003            4284     24.0688E-03     24.9711E-03
            4020            4284     24.0688E-03     24.9711E-03
            4002            4284     24.0688E-03     24.9711E-03
            4021            4284     24.0688E-03     24.9711E-03
            4022            4285     27.8463E-03     29.5471E-03
            4021            4285     27.8463E-03     29.5471E-03
            4003            4285     27.8463E-03     29.5471E-03
            4004            4285     27.8463E-03     29.5471E-03
            4023            4286     32.4761E-03     34.5288E-03
            4005            4286     32.4761E-03     34.5288E-03
            4004            4286     32.4761E-03     34.5288E-03
            4022            4286     32.4761E-03     34.5288E-03
            4024            4287     37.5949E-03     39.7539E-03
            4023            4287     37.5949E-03     39.7539E-03
            4006            4287     37.5949E-03     39.7539E-03
            4005            4287     37.5949E-03     39.7539E-03
            4025            4288     43.0609E-03     45.1474E-03
            4006            4288     43.0609E-03     45.1474E-03
            4007            4288     43.0609E-03     45.1474E-03
            4024            4288     43.0609E-03     45.1474E-03
            4026            4289     48.7490E-03     50.6789E-03
            4025            4289     48.7490E-03     50.6789E-03
            4008            4289     48.7490E-03     50.6789E-03
            4007            4289     48.7490E-03     50.6789E-03
            4008            4290     54.6241E-03     56.3350E-03
            4009            4290     54.6241E-03     56.3350E-03
            4026            4290     54.6241E-03     56.3350E-03
            4027            4290     54.6241E-03     56.3350E-03
            4028            4291     60.7362E-03     62.2239E-03
            4027            4291     60.7362E-03     62.2239E-03
            4010            4291     60.7362E-03     62.2239E-03
            4009            4291     60.7362E-03     62.2239E-03
            4029            4292     67.2555E-03     68.3055E-03
            4011            4292     67.2555E-03     68.3055E-03
            4028            4292     67.2555E-03     68.3055E-03
            4010            4292     67.2555E-03     68.3055E-03
            4011            4293     72.6215E-03     72.9882E-03
            4030            4293     72.6215E-03     72.9882E-03
            4012            4293     72.6215E-03     72.9882E-03
            4029            4293     72.6215E-03     72.9882E-03
            4032            4294     54.2199E-03     48.8648E-03
            4013            4294     54.2199E-03     48.8648E-03
            4014            4294     54.2199E-03     48.8648E-03
            4031            4294     54.2199E-03     48.8648E-03
            4033            4295     29.9719E-03     32.7534E-03
            4032            4295     29.9719E-03     32.7534E-03
            4015            4295     29.9719E-03     32.7534E-03
            4014            4295     29.9719E-03     32.7534E-03
            4033            4296     23.7869E-03     25.3033E-03
            4034            4296     23.7869E-03     25.3033E-03
            4016            4296     23.7869E-03     25.3033E-03
            4015            4296     23.7869E-03     25.3033E-03
            4017            4297     20.6375E-03     20.3307E-03
            4034            4297     20.6375E-03     20.3307E-03
            4035            4297     20.6375E-03     20.3307E-03
            4016            4297     20.6375E-03     20.3307E-03
            4035            4298     18.9086E-03     16.6190E-03
            4018            4298     18.9086E-03     16.6190E-03
            4036            4298     18.9086E-03     16.6190E-03
            4017            4298     18.9086E-03     16.6190E-03
            4019            4299     18.9603E-03     14.8797E-03
            4037            4299     18.9603E-03     14.8797E-03
            4036            4299     18.9603E-03     14.8797E-03
            4018            4299     18.9603E-03     14.8797E-03
            4038            4300     21.1318E-03     15.9925E-03
            4019            4300     21.1318E-03     15.9925E-03
            4020            4300     21.1318E-03     15.9925E-03
            4037            4300     21.1318E-03     15.9925E-03
            4021            4301     24.6445E-03     19.4001E-03
            4039            4301     24.6445E-03     19.4001E-03
            4020            4301     24.6445E-03     19.4001E-03
            4038            4301     24.6445E-03     19.4001E-03
            4022            4302     29.0545E-03     24.1917E-03
            4021            4302     29.0545E-03     24.1917E-03
            4039            4302     29.0545E-03     24.1917E-03
            4040            4302     29.0545E-03     24.1917E-03
            4022            4303     33.9660E-03     29.6616E-03
            4040            4303     33.9660E-03     29.6616E-03
            4041            4303     33.9660E-03     29.6616E-03
            4023            4303     33.9660E-03     29.6616E-03
            4042            4304     39.2155E-03     35.4986E-03
            4024            4304     39.2155E-03     35.4986E-03
            4023            4304     39.2155E-03     35.4986E-03
            4041            4304     39.2155E-03     35.4986E-03
            4042            4305     44.6599E-03     41.5569E-03
            4025            4305     44.6599E-03     41.5569E-03
            4043            4305     44.6599E-03     41.5569E-03
            4024            4305     44.6599E-03     41.5569E-03
            4025            4306     50.3372E-03     47.7902E-03
            4026            4306     50.3372E-03     47.7902E-03
            4043            4306     50.3372E-03     47.7902E-03
            4044            4306     50.3372E-03     47.7902E-03
            4026            4307     56.0989E-03     54.2245E-03
            4044            4307     56.0989E-03     54.2245E-03
            4027            4307     56.0989E-03     54.2245E-03
            4045            4307     56.0989E-03     54.2245E-03
            4028            4308     62.2787E-03     60.9044E-03
            4027            4308     62.2787E-03     60.9044E-03
            4046            4308     62.2787E-03     60.9044E-03
            4045            4308     62.2787E-03     60.9044E-03
            4046            4309     69.2304E-03     68.0563E-03
            4029            4309     69.2304E-03     68.0563E-03
            4028            4309     69.2304E-03     68.0563E-03
            4047            4309     69.2304E-03     68.0563E-03
            4029            4310     74.8782E-03     73.9742E-03
            4030            4310     74.8782E-03     73.9742E-03
            4048            4310     74.8782E-03     73.9742E-03
            4047            4310     74.8782E-03     73.9742E-03
            4031            4311     58.5446E-03     78.8141E-03
            4049            4311     58.5446E-03     78.8141E-03
            4032            4311     58.5446E-03     78.8141E-03
            4050            4311     58.5446E-03     78.8141E-03
            4032            4312     22.0597E-03     41.9313E-03
            4051            4312     22.0597E-03     41.9313E-03
            4050            4312     22.0597E-03     41.9313E-03
            4033            4312     22.0597E-03     41.9313E-03
            4033            4313     14.9359E-03     28.9271E-03
            4051            4313     14.9359E-03     28.9271E-03
            4052            4313     14.9359E-03     28.9271E-03
            4034            4313     14.9359E-03     28.9271E-03
            4035            4314     15.7222E-03     22.5441E-03
            4052            4314     15.7222E-03     22.5441E-03
            4053            4314     15.7222E-03     22.5441E-03
            4034            4314     15.7222E-03     22.5441E-03
            4053            4315     16.4716E-03     17.1499E-03
            4035            4315     16.4716E-03     17.1499E-03
            4054            4315     16.4716E-03     17.1499E-03
            4036            4315     16.4716E-03     17.1499E-03
            4037            4316     18.7325E-03     13.4151E-03
            4055            4316     18.7325E-03     13.4151E-03
            4036            4316     18.7325E-03     13.4151E-03
            4054            4316     18.7325E-03     13.4151E-03
            4056            4317     22.0681E-03     12.2141E-03
            4055            4317     22.0681E-03     12.2141E-03
            4038            4317     22.0681E-03     12.2141E-03
            4037            4317     22.0681E-03     12.2141E-03
            4038            4318     26.2070E-03     14.4561E-03
            4056            4318     26.2070E-03     14.4561E-03
            4057            4318     26.2070E-03     14.4561E-03
            4039            4318     26.2070E-03     14.4561E-03
            4058            4319     30.8348E-03     19.1156E-03
            4040            4319     30.8348E-03     19.1156E-03
            4057            4319     30.8348E-03     19.1156E-03
            4039            4319     30.8348E-03     19.1156E-03
            4041            4320     35.7320E-03     24.9526E-03
            4059            4320     35.7320E-03     24.9526E-03
            4040            4320     35.7320E-03     24.9526E-03
            4058            4320     35.7320E-03     24.9526E-03
            4042            4321     40.7844E-03     31.2466E-03
            4059            4321     40.7844E-03     31.2466E-03
            4041            4321     40.7844E-03     31.2466E-03
            4060            4321     40.7844E-03     31.2466E-03
            4060            4322     45.9783E-03     37.7869E-03
            4061            4322     45.9783E-03     37.7869E-03
            4043            4322     45.9783E-03     37.7869E-03
            4042            4322     45.9783E-03     37.7869E-03
            4044            4323     51.2034E-03     44.4393E-03
            4061            4323     51.2034E-03     44.4393E-03
            4062            4323     51.2034E-03     44.4393E-03
            4043            4323     51.2034E-03     44.4393E-03
            4062            4324     56.6175E-03     51.2283E-03
            4045            4324     56.6175E-03     51.2283E-03
            4044            4324     56.6175E-03     51.2283E-03
            4063            4324     56.6175E-03     51.2283E-03
            4045            4325     62.0623E-03     58.0717E-03
            4046            4325     62.0623E-03     58.0717E-03
            4064            4325     62.0623E-03     58.0717E-03
            4063            4325     62.0623E-03     58.0717E-03
            4064            4326     67.9702E-03     65.4497E-03
            4047            4326     67.9702E-03     65.4497E-03
            4046            4326     67.9702E-03     65.4497E-03
            4065            4326     67.9702E-03     65.4497E-03
            4048            4327     74.9247E-03     73.1199E-03
            4047            4327     74.9247E-03     73.1199E-03
            4066            4327     74.9247E-03     73.1199E-03
            4065            4327     74.9247E-03     73.1199E-03
            5085            5225     380.773E-06     406.420E-06
            5086            5225     380.773E-06     406.420E-06
            5067            5225     380.773E-06     406.420E-06
            5068            5225     380.773E-06     406.420E-06
            5069            5226     382.117E-06     406.036E-06
            5086            5226     382.117E-06     406.036E-06
            5087            5226     382.117E-06     406.036E-06
            5068            5226     382.117E-06     406.036E-06
            5069            5227     386.835E-06     407.068E-06
            5070            5227     386.835E-06     407.068E-06
            5087            5227     386.835E-06     407.068E-06
            5088            5227     386.835E-06     407.068E-06
            5070            5228     389.235E-06     414.953E-06
            5089            5228     389.235E-06     414.953E-06
            5071            5228     389.235E-06     414.953E-06
            5088            5228     389.235E-06     414.953E-06
            5090            5229     392.106E-06     423.583E-06
            5089            5229     392.106E-06     423.583E-06
            5071            5229     392.106E-06     423.583E-06
            5072            5229     392.106E-06     423.583E-06
            5072            5230     396.990E-06     432.831E-06
            5090            5230     396.990E-06     432.831E-06
            5091            5230     396.990E-06     432.831E-06
            5073            5230     396.990E-06     432.831E-06
            5091            5231     403.207E-06     443.226E-06
            5092            5231     403.207E-06     443.226E-06
            5073            5231     403.207E-06     443.226E-06
            5074            5231     403.207E-06     443.226E-06
            5075            5232     411.244E-06     454.623E-06
            5093            5232     411.244E-06     454.623E-06
            5074            5232     411.244E-06     454.623E-06
            5092            5232     411.244E-06     454.623E-06
            5093            5233     420.495E-06     466.834E-06
            5076            5233     420.495E-06     466.834E-06
            5075            5233     420.495E-06     466.834E-06
            5094            5233     420.495E-06     466.834E-06
            5077            5234     431.341E-06     480.134E-06
            5095            5234     431.341E-06     480.134E-06
            5094            5234     431.341E-06     480.134E-06
            5076            5234     431.341E-06     480.134E-06
            5077            5235     442.669E-06     493.513E-06
            5096            5235     442.669E-06     493.513E-06
            5095            5235     442.669E-06     493.513E-06
            5078            5235     442.669E-06     493.513E-06
            5097            5236     454.892E-06     507.606E-06
            5079            5236     454.892E-06     507.606E-06
            5078            5236     454.892E-06     507.606E-06
            5096            5236     454.892E-06     507.606E-06
            5080            5237     465.902E-06     520.540E-06
            5079            5237     465.902E-06     520.540E-06
            5097            5237     465.902E-06     520.540E-06
            5098            5237     465.902E-06     520.540E-06
            5080            5238     477.633E-06     535.462E-06
            5099            5238     477.633E-06     535.462E-06
            5081            5238     477.633E-06     535.462E-06
            5098            5238     477.633E-06     535.462E-06
            5081            5239     493.118E-06     553.844E-06
            5100            5239     493.118E-06     553.844E-06
            5082            5239     493.118E-06     553.844E-06
            5099            5239     493.118E-06     553.844E-06
            5101            5240     553.762E-06     615.667E-06
            5083            5240     553.762E-06     615.667E-06
            5100            5240     553.762E-06     615.667E-06
            5082            5240     553.762E-06     615.667E-06
            5101            5241     732.785E-06     786.443E-06
            5102            5241     732.785E-06     786.443E-06
            5083            5241     732.785E-06     786.443E-06
            5084            5241     732.785E-06     786.443E-06
            5086            5242     419.333E-06     396.855E-06
            5103            5242     419.333E-06     396.855E-06
            5085            5242     419.333E-06     396.855E-06
            5104            5242     419.333E-06     396.855E-06
            5104            5243     406.296E-06     410.057E-06
            5105            5243     406.296E-06     410.057E-06
            5086            5243     406.296E-06     410.057E-06
            5087            5243     406.296E-06     410.057E-06
            5106            5244     404.368E-06     416.815E-06
            5087            5244     404.368E-06     416.815E-06
            5088            5244     404.368E-06     416.815E-06
            5105            5244     404.368E-06     416.815E-06
            5088            5245     405.979E-06     422.518E-06
            5089            5245     405.979E-06     422.518E-06
            5106            5245     405.979E-06     422.518E-06
            5107            5245     405.979E-06     422.518E-06
            5107            5246     409.557E-06     429.186E-06
            5089            5246     409.557E-06     429.186E-06
            5108            5246     409.557E-06     429.186E-06
            5090            5246     409.557E-06     429.186E-06
            5091            5247     415.219E-06     436.746E-06
            5108            5247     415.219E-06     436.746E-06
            5090            5247     415.219E-06     436.746E-06
            5109            5247     415.219E-06     436.746E-06
            5091            5248     422.167E-06     445.925E-06
            5092            5248     422.167E-06     445.925E-06
            5110            5248     422.167E-06     445.925E-06
            5109            5248     422.167E-06     445.925E-06
            5111            5249     430.583E-06     456.083E-06
            5110            5249     430.583E-06     456.083E-06
            5093            5249     430.583E-06     456.083E-06
            5092            5249     430.583E-06     456.083E-06
            5094            5250     440.713E-06     467.754E-06
            5093            5250     440.713E-06     467.754E-06
            5112            5250     440.713E-06     467.754E-06
            5111            5250     440.713E-06     467.754E-06
            5112            5251     452.087E-06     480.504E-06
            5113            5251     452.087E-06     480.504E-06
            5095            5251     452.087E-06     480.504E-06
            5094            5251     452.087E-06     480.504E-06
            5113            5252     465.800E-06     495.071E-06
            5096            5252     465.800E-06     495.071E-06
            5114            5252     465.800E-06     495.071E-06
            5095            5252     465.800E-06     495.071E-06
            5114            5253     480.072E-06     510.812E-06
            5096            5253     480.072E-06     510.812E-06
            5115            5253     480.072E-06     510.812E-06
            5097            5253     480.072E-06     510.812E-06
            5115            5254     497.258E-06     527.988E-06
            5116            5254     497.258E-06     527.988E-06
            5098            5254     497.258E-06     527.988E-06
            5097            5254     497.258E-06     527.988E-06
            5117            5255     510.620E-06     544.498E-06
            5116            5255     510.620E-06     544.498E-06
            5099            5255     510.620E-06     544.498E-06
            5098            5255     510.620E-06     544.498E-06
            5099            5256     521.868E-06     556.249E-06
            5100            5256     521.868E-06     556.249E-06
            5118            5256     521.868E-06     556.249E-06
            5117            5256     521.868E-06     556.249E-06
            5100            5257     547.951E-06     573.507E-06
            5118            5257     547.951E-06     573.507E-06
            5101            5257     547.951E-06     573.507E-06
            5119            5257     547.951E-06     573.507E-06
            5102            5258     602.476E-06     608.714E-06
            5119            5258     602.476E-06     608.714E-06
            5101            5258     602.476E-06     608.714E-06
            5120            5258     602.476E-06     608.714E-06
            5103            5259     439.862E-06     395.764E-06
            5121            5259     439.862E-06     395.764E-06
            5104            5259     439.862E-06     395.764E-06
            5122            5259     439.862E-06     395.764E-06
            5104            5260     431.378E-06     414.556E-06
            5123            5260     431.378E-06     414.556E-06
            5105            5260     431.378E-06     414.556E-06
            5122            5260     431.378E-06     414.556E-06
            5123            5261     421.835E-06     427.475E-06
            5105            5261     421.835E-06     427.475E-06
            5106            5261     421.835E-06     427.475E-06
            5124            5261     421.835E-06     427.475E-06
            5125            5262     423.275E-06     430.809E-06
            5107            5262     423.275E-06     430.809E-06
            5106            5262     423.275E-06     430.809E-06
            5124            5262     423.275E-06     430.809E-06
            5108            5263     428.457E-06     435.010E-06
            5126            5263     428.457E-06     435.010E-06
            5107            5263     428.457E-06     435.010E-06
            5125            5263     428.457E-06     435.010E-06
            5108            5264     434.306E-06     441.408E-06
            5109            5264     434.306E-06     441.408E-06
            5127            5264     434.306E-06     441.408E-06
            5126            5264     434.306E-06     441.408E-06
            5128            5265     441.777E-06     448.661E-06
            5127            5265     441.777E-06     448.661E-06
            5110            5265     441.777E-06     448.661E-06
            5109            5265     441.777E-06     448.661E-06
            5110            5266     450.414E-06     457.606E-06
            5129            5266     450.414E-06     457.606E-06
            5111            5266     450.414E-06     457.606E-06
            5128            5266     450.414E-06     457.606E-06
            5111            5267     460.349E-06     467.658E-06
            5112            5267     460.349E-06     467.658E-06
            5130            5267     460.349E-06     467.658E-06
            5129            5267     460.349E-06     467.658E-06
            5112            5268     472.281E-06     479.588E-06
            5113            5268     472.281E-06     479.588E-06
            5131            5268     472.281E-06     479.588E-06
            5130            5268     472.281E-06     479.588E-06
            5113            5269     485.642E-06     493.326E-06
            5131            5269     485.642E-06     493.326E-06
            5114            5269     485.642E-06     493.326E-06
            5132            5269     485.642E-06     493.326E-06
            5133            5270     502.334E-06     509.361E-06
            5115            5270     502.334E-06     509.361E-06
            5132            5270     502.334E-06     509.361E-06
            5114            5270     502.334E-06     509.361E-06
            5115            5271     518.503E-06     526.904E-06
            5134            5271     518.503E-06     526.904E-06
            5116            5271     518.503E-06     526.904E-06
            5133            5271     518.503E-06     526.904E-06
            5135            5272     534.192E-06     540.864E-06
            5117            5272     534.192E-06     540.864E-06
            5134            5272     534.192E-06     540.864E-06
            5116            5272     534.192E-06     540.864E-06
            5118            5273     529.949E-06     542.752E-06
            5136            5273     529.949E-06     542.752E-06
            5135            5273     529.949E-06     542.752E-06
            5117            5273     529.949E-06     542.752E-06
            5136            5274     467.916E-06     492.372E-06
            5118            5274     467.916E-06     492.372E-06
            5137            5274     467.916E-06     492.372E-06
            5119            5274     467.916E-06     492.372E-06
            5119            5275     417.907E-06     432.588E-06
            5120            5275     417.907E-06     432.588E-06
            5137            5275     417.907E-06     432.588E-06
            5138            5275     417.907E-06     432.588E-06
            5139            5276     447.573E-06     427.544E-06
            5121            5276     447.573E-06     427.544E-06
            5122            5276     447.573E-06     427.544E-06
            5140            5276     447.573E-06     427.544E-06
            5122            5277     436.333E-06     436.524E-06
            5123            5277     436.333E-06     436.524E-06
            5140            5277     436.333E-06     436.524E-06
            5141            5277     436.333E-06     436.524E-06
            5142            5278     438.266E-06     436.810E-06
            5141            5278     438.266E-06     436.810E-06
            5124            5278     438.266E-06     436.810E-06
            5123            5278     438.266E-06     436.810E-06
            5125            5279     442.819E-06     438.590E-06
            5124            5279     442.819E-06     438.590E-06
            5143            5279     442.819E-06     438.590E-06
            5142            5279     442.819E-06     438.590E-06
            5144            5280     448.164E-06     442.065E-06
            5143            5280     448.164E-06     442.065E-06
            5126            5280     448.164E-06     442.065E-06
            5125            5280     448.164E-06     442.065E-06
            5127            5281     454.905E-06     446.445E-06
            5126            5281     454.905E-06     446.445E-06
            5145            5281     454.905E-06     446.445E-06
            5144            5281     454.905E-06     446.445E-06
            5146            5282     462.326E-06     452.412E-06
            5128            5282     462.326E-06     452.412E-06
            5145            5282     462.326E-06     452.412E-06
            5127            5282     462.326E-06     452.412E-06
            5147            5283     470.726E-06     459.215E-06
            5128            5283     470.726E-06     459.215E-06
            5146            5283     470.726E-06     459.215E-06
            5129            5283     470.726E-06     459.215E-06
            5129            5284     480.163E-06     467.309E-06
            5130            5284     480.163E-06     467.309E-06
            5147            5284     480.163E-06     467.309E-06
            5148            5284     480.163E-06     467.309E-06
            5130            5285     490.543E-06     476.428E-06
            5149            5285     490.543E-06     476.428E-06
            5131            5285     490.543E-06     476.428E-06
            5148            5285     490.543E-06     476.428E-06
            5150            5286     502.386E-06     487.040E-06
            5149            5286     502.386E-06     487.040E-06
            5131            5286     502.386E-06     487.040E-06
            5132            5286     502.386E-06     487.040E-06
            5151            5287     514.905E-06     498.533E-06
            5132            5287     514.905E-06     498.533E-06
            5133            5287     514.905E-06     498.533E-06
            5150            5287     514.905E-06     498.533E-06
            5151            5288     527.202E-06     509.346E-06
            5152            5288     527.202E-06     509.346E-06
            5134            5288     527.202E-06     509.346E-06
            5133            5288     527.202E-06     509.346E-06
            5135            5289     532.332E-06     513.944E-06
            5152            5289     532.332E-06     513.944E-06
            5134            5289     532.332E-06     513.944E-06
            5153            5289     532.332E-06     513.944E-06
            5135            5290     511.618E-06     495.393E-06
            5136            5290     511.618E-06     495.393E-06
            5154            5290     511.618E-06     495.393E-06
            5153            5290     511.618E-06     495.393E-06
            5137            5291     409.248E-06     410.428E-06
            5155            5291     409.248E-06     410.428E-06
            5154            5291     409.248E-06     410.428E-06
            5136            5291     409.248E-06     410.428E-06
            5155            5292     278.635E-06     274.808E-06
            5156            5292     278.635E-06     274.808E-06
            5138            5292     278.635E-06     274.808E-06
            5137            5292     278.635E-06     274.808E-06
            5157            5293     437.348E-06     464.318E-06
            5140            5293     437.348E-06     464.318E-06
            5158            5293     437.348E-06     464.318E-06
            5139            5293     437.348E-06     464.318E-06
            5141            5294     445.597E-06     453.118E-06
            5159            5294     445.597E-06     453.118E-06
            5140            5294     445.597E-06     453.118E-06
            5158            5294     445.597E-06     453.118E-06
            5159            5295     456.154E-06     446.259E-06
            5142            5295     456.154E-06     446.259E-06
            5141            5295     456.154E-06     446.259E-06
            5160            5295     456.154E-06     446.259E-06
            5142            5296     463.271E-06     447.282E-06
            5161            5296     463.271E-06     447.282E-06
            5160            5296     463.271E-06     447.282E-06
            5143            5296     463.271E-06     447.282E-06
            5143            5297     469.454E-06     449.731E-06
            5162            5297     469.454E-06     449.731E-06
            5161            5297     469.454E-06     449.731E-06
            5144            5297     469.454E-06     449.731E-06
            5144            5298     476.596E-06     452.875E-06
            5145            5298     476.596E-06     452.875E-06
            5162            5298     476.596E-06     452.875E-06
            5163            5298     476.596E-06     452.875E-06
            5145            5299     484.042E-06     457.078E-06
            5164            5299     484.042E-06     457.078E-06
            5146            5299     484.042E-06     457.078E-06
            5163            5299     484.042E-06     457.078E-06
            5164            5300     492.096E-06     461.922E-06
            5146            5300     492.096E-06     461.922E-06
            5165            5300     492.096E-06     461.922E-06
            5147            5300     492.096E-06     461.922E-06
            5166            5301     500.398E-06     467.360E-06
            5147            5301     500.398E-06     467.360E-06
            5148            5301     500.398E-06     467.360E-06
            5165            5301     500.398E-06     467.360E-06
            5149            5302     508.747E-06     473.062E-06
            5148            5302     508.747E-06     473.062E-06
            5167            5302     508.747E-06     473.062E-06
            5166            5302     508.747E-06     473.062E-06
            5168            5303     516.661E-06     478.196E-06
            5149            5303     516.661E-06     478.196E-06
            5150            5303     516.661E-06     478.196E-06
            5167            5303     516.661E-06     478.196E-06
            5151            5304     522.246E-06     481.703E-06
            5168            5304     522.246E-06     481.703E-06
            5150            5304     522.246E-06     481.703E-06
            5169            5304     522.246E-06     481.703E-06
            5170            5305     523.578E-06     479.506E-06
            5152            5305     523.578E-06     479.506E-06
            5151            5305     523.578E-06     479.506E-06
            5169            5305     523.578E-06     479.506E-06
            5152            5306     510.617E-06     465.296E-06
            5171            5306     510.617E-06     465.296E-06
            5170            5306     510.617E-06     465.296E-06
            5153            5306     510.617E-06     465.296E-06
            5172            5307     470.192E-06     420.545E-06
            5171            5307     470.192E-06     420.545E-06
            5153            5307     470.192E-06     420.545E-06
            5154            5307     470.192E-06     420.545E-06
            5154            5308     377.142E-06     324.731E-06
            5173            5308     377.142E-06     324.731E-06
            5172            5308     377.142E-06     324.731E-06
            5155            5308     377.142E-06     324.731E-06
            5156            5309     228.289E-06     244.394E-06
            5174            5309     228.289E-06     244.394E-06
            5173            5309     228.289E-06     244.394E-06
            5155            5309     228.289E-06     244.394E-06
            5865            5862     4.34339E-03     5.14288E-03
            5866            5862     4.34339E-03     5.14288E-03
            5848            5862     4.34339E-03     5.14288E-03
            5847            5862     4.34339E-03     5.14288E-03
            5848            5863     6.87716E-03     7.61438E-03
            5867            5863     6.87716E-03     7.61438E-03
            5866            5863     6.87716E-03     7.61438E-03
            5849            5863     6.87716E-03     7.61438E-03
            5849            5864     9.54710E-03     10.4114E-03
            5868            5864     9.54710E-03     10.4114E-03
            5850            5864     9.54710E-03     10.4114E-03
            5867            5864     9.54710E-03     10.4114E-03
            5868            5865     12.3415E-03     13.3071E-03
            5851            5865     12.3415E-03     13.3071E-03
            5850            5865     12.3415E-03     13.3071E-03
            5869            5865     12.3415E-03     13.3071E-03
            5870            5866     15.2044E-03     16.2335E-03
            5852            5866     15.2044E-03     16.2335E-03
            5851            5866     15.2044E-03     16.2335E-03
            5869            5866     15.2044E-03     16.2335E-03
            5870            5867     18.1029E-03     19.1680E-03
            5852            5867     18.1029E-03     19.1680E-03
            5853            5867     18.1029E-03     19.1680E-03
            5871            5867     18.1029E-03     19.1680E-03
            5853            5868     21.0261E-03     22.1052E-03
            5872            5868     21.0261E-03     22.1052E-03
            5871            5868     21.0261E-03     22.1052E-03
            5854            5868     21.0261E-03     22.1052E-03
            5854            5869     23.9598E-03     25.0396E-03
            5872            5869     23.9598E-03     25.0396E-03
            5855            5869     23.9598E-03     25.0396E-03
            5873            5869     23.9598E-03     25.0396E-03
            5874            5870     26.9101E-03     27.9711E-03
            5855            5870     26.9101E-03     27.9711E-03
            5873            5870     26.9101E-03     27.9711E-03
            5856            5870     26.9101E-03     27.9711E-03
            5874            5871     29.8685E-03     30.9053E-03
            5875            5871     29.8685E-03     30.9053E-03
            5857            5871     29.8685E-03     30.9053E-03
            5856            5871     29.8685E-03     30.9053E-03
            5876            5872     32.8595E-03     33.8462E-03
            5875            5872     32.8595E-03     33.8462E-03
            5857            5872     32.8595E-03     33.8462E-03
            5858            5872     32.8595E-03     33.8462E-03
            5858            5873     35.8757E-03     36.8184E-03
            5877            5873     35.8757E-03     36.8184E-03
            5876            5873     35.8757E-03     36.8184E-03
            5859            5873     35.8757E-03     36.8184E-03
            5878            5874     38.9804E-03     39.8454E-03
            5860            5874     38.9804E-03     39.8454E-03
            5877            5874     38.9804E-03     39.8454E-03
            5859            5874     38.9804E-03     39.8454E-03
            5861            5875     42.1650E-03     42.9944E-03
            5878            5875     42.1650E-03     42.9944E-03
            5879            5875     42.1650E-03     42.9944E-03
            5860            5875     42.1650E-03     42.9944E-03
            5879            5876     45.6111E-03     46.3954E-03
            5880            5876     45.6111E-03     46.3954E-03
            5861            5876     45.6111E-03     46.3954E-03
            5862            5876     45.6111E-03     46.3954E-03
            5880            5877     49.3166E-03     50.2181E-03
            5862            5877     49.3166E-03     50.2181E-03
            5863            5877     49.3166E-03     50.2181E-03
            5881            5877     49.3166E-03     50.2181E-03
            5863            5878     54.4064E-03     56.0087E-03
            5881            5878     54.4064E-03     56.0087E-03
            5864            5878     54.4064E-03     56.0087E-03
            5882            5878     54.4064E-03     56.0087E-03
            5865            5879     4.93542E-03     6.03744E-03
            5883            5879     4.93542E-03     6.03744E-03
            5866            5879     4.93542E-03     6.03744E-03
            5884            5879     4.93542E-03     6.03744E-03
            5884            5880     7.00960E-03     7.86791E-03
            5866            5880     7.00960E-03     7.86791E-03
            5867            5880     7.00960E-03     7.86791E-03
            5885            5880     7.00960E-03     7.86791E-03
            5868            5881     9.41997E-03     10.3804E-03
            5867            5881     9.41997E-03     10.3804E-03
            5885            5881     9.41997E-03     10.3804E-03
            5886            5881     9.41997E-03     10.3804E-03
            5868            5882     11.9991E-03     13.0874E-03
            5886            5882     11.9991E-03     13.0874E-03
            5869            5882     11.9991E-03     13.0874E-03
            5887            5882     11.9991E-03     13.0874E-03
            5888            5883     14.6626E-03     15.8458E-03
            5869            5883     14.6626E-03     15.8458E-03
            5887            5883     14.6626E-03     15.8458E-03
            5870            5883     14.6626E-03     15.8458E-03
            5888            5884     17.3842E-03     18.6229E-03
            5870            5884     17.3842E-03     18.6229E-03
            5871            5884     17.3842E-03     18.6229E-03
            5889            5884     17.3842E-03     18.6229E-03
            5872            5885     20.1336E-03     21.3999E-03
            5889            5885     20.1336E-03     21.3999E-03
            5890            5885     20.1336E-03     21.3999E-03
            5871            5885     20.1336E-03     21.3999E-03
            5891            5886     22.9096E-03     24.1760E-03
            5873            5886     22.9096E-03     24.1760E-03
            5872            5886     22.9096E-03     24.1760E-03
            5890            5886     22.9096E-03     24.1760E-03
            5873            5887     25.7019E-03     26.9496E-03
            5874            5887     25.7019E-03     26.9496E-03
            5891            5887     25.7019E-03     26.9496E-03
            5892            5887     25.7019E-03     26.9496E-03
            5893            5888     28.5299E-03     29.7364E-03
            5874            5888     28.5299E-03     29.7364E-03
            5875            5888     28.5299E-03     29.7364E-03
            5892            5888     28.5299E-03     29.7364E-03
            5876            5889     31.3964E-03     32.5472E-03
            5875            5889     31.3964E-03     32.5472E-03
            5894            5889     31.3964E-03     32.5472E-03
            5893            5889     31.3964E-03     32.5472E-03
            5895            5890     34.3617E-03     35.4387E-03
            5876            5890     34.3617E-03     35.4387E-03
            5894            5890     34.3617E-03     35.4387E-03
            5877            5890     34.3617E-03     35.4387E-03
            5878            5891     37.4472E-03     38.4507E-03
            5877            5891     37.4472E-03     38.4507E-03
            5896            5891     37.4472E-03     38.4507E-03
            5895            5891     37.4472E-03     38.4507E-03
            5879            5892     40.8345E-03     41.7686E-03
            5897            5892     40.8345E-03     41.7686E-03
            5878            5892     40.8345E-03     41.7686E-03
            5896            5892     40.8345E-03     41.7686E-03
            5879            5893     44.5898E-03     45.5160E-03
            5898            5893     44.5898E-03     45.5160E-03
            5897            5893     44.5898E-03     45.5160E-03
            5880            5893     44.5898E-03     45.5160E-03
            5881            5894     49.4436E-03     50.4523E-03
            5899            5894     49.4436E-03     50.4523E-03
            5880            5894     49.4436E-03     50.4523E-03
            5898            5894     49.4436E-03     50.4523E-03
            5900            5895     56.4341E-03     57.1302E-03
            5899            5895     56.4341E-03     57.1302E-03
            5882            5895     56.4341E-03     57.1302E-03
            5881            5895     56.4341E-03     57.1302E-03
            5902            5896     3.72228E-03     5.05230E-03
            5883            5896     3.72228E-03     5.05230E-03
            5901            5896     3.72228E-03     5.05230E-03
            5884            5896     3.72228E-03     5.05230E-03
            5903            5897     6.16380E-03     7.40527E-03
            5884            5897     6.16380E-03     7.40527E-03
            5902            5897     6.16380E-03     7.40527E-03
            5885            5897     6.16380E-03     7.40527E-03
            5903            5898     8.99338E-03     10.0601E-03
            5885            5898     8.99338E-03     10.0601E-03
            5904            5898     8.99338E-03     10.0601E-03
            5886            5898     8.99338E-03     10.0601E-03
            5886            5899     11.8306E-03     12.9115E-03
            5904            5899     11.8306E-03     12.9115E-03
            5905            5899     11.8306E-03     12.9115E-03
            5887            5899     11.8306E-03     12.9115E-03
            5905            5900     14.6934E-03     15.8021E-03
            5888            5900     14.6934E-03     15.8021E-03
            5887            5900     14.6934E-03     15.8021E-03
            5906            5900     14.6934E-03     15.8021E-03
            5888            5901     17.5709E-03     18.7088E-03
            5906            5901     17.5709E-03     18.7088E-03
            5889            5901     17.5709E-03     18.7088E-03
            5907            5901     17.5709E-03     18.7088E-03
            5907            5902     20.4645E-03     21.6187E-03
            5890            5902     20.4645E-03     21.6187E-03
            5908            5902     20.4645E-03     21.6187E-03
            5889            5902     20.4645E-03     21.6187E-03
            5908            5903     23.3688E-03     24.5332E-03
            5890            5903     23.3688E-03     24.5332E-03
            5891            5903     23.3688E-03     24.5332E-03
            5909            5903     23.3688E-03     24.5332E-03
            5909            5904     26.2960E-03     27.4587E-03
            5892            5904     26.2960E-03     27.4587E-03
            5910            5904     26.2960E-03     27.4587E-03
            5891            5904     26.2960E-03     27.4587E-03
            5893            5905     29.2471E-03     30.4087E-03
            5910            5905     29.2471E-03     30.4087E-03
            5911            5905     29.2471E-03     30.4087E-03
            5892            5905     29.2471E-03     30.4087E-03
            5911            5906     32.2603E-03     33.4087E-03
            5893            5906     32.2603E-03     33.4087E-03
            5912            5906     32.2603E-03     33.4087E-03
            5894            5906     32.2603E-03     33.4087E-03
            5912            5907     35.3547E-03     36.5017E-03
            5913            5907     35.3547E-03     36.5017E-03
            5894            5907     35.3547E-03     36.5017E-03
            5895            5907     35.3547E-03     36.5017E-03
            5913            5908     38.6292E-03     39.7595E-03
            5896            5908     38.6292E-03     39.7595E-03
            5895            5908     38.6292E-03     39.7595E-03
            5914            5908     38.6292E-03     39.7595E-03
            5914            5909     42.1795E-03     43.3130E-03
            5915            5909     42.1795E-03     43.3130E-03
            5897            5909     42.1795E-03     43.3130E-03
            5896            5909     42.1795E-03     43.3130E-03
            5898            5910     46.2263E-03     47.3331E-03
            5897            5910     46.2263E-03     47.3331E-03
            5915            5910     46.2263E-03     47.3331E-03
            5916            5910     46.2263E-03     47.3331E-03
            5917            5911     51.5066E-03     52.2904E-03
            5916            5911     51.5066E-03     52.2904E-03
            5898            5911     51.5066E-03     52.2904E-03
            5899            5911     51.5066E-03     52.2904E-03
            5918            5912     56.9435E-03     57.2076E-03
            5917            5912     56.9435E-03     57.2076E-03
            5900            5912     56.9435E-03     57.2076E-03
            5899            5912     56.9435E-03     57.2076E-03
            5901            5913     2.95774E-03     4.24118E-03
            5919            5913     2.95774E-03     4.24118E-03
            5920            5913     2.95774E-03     4.24118E-03
            5902            5913     2.95774E-03     4.24118E-03
            5902            5914     5.82807E-03     7.13922E-03
            5903            5914     5.82807E-03     7.13922E-03
            5920            5914     5.82807E-03     7.13922E-03
            5921            5914     5.82807E-03     7.13922E-03
            5904            5915     8.83725E-03     9.99619E-03
            5903            5915     8.83725E-03     9.99619E-03
            5921            5915     8.83725E-03     9.99619E-03
            5922            5915     8.83725E-03     9.99619E-03
            5923            5916     11.8531E-03     12.9248E-03
            5922            5916     11.8531E-03     12.9248E-03
            5904            5916     11.8531E-03     12.9248E-03
            5905            5916     11.8531E-03     12.9248E-03
            5906            5917     14.8451E-03     15.9070E-03
            5905            5917     14.8451E-03     15.9070E-03
            5923            5917     14.8451E-03     15.9070E-03
            5924            5917     14.8451E-03     15.9070E-03
            5907            5918     17.8410E-03     18.8982E-03
            5906            5918     17.8410E-03     18.8982E-03
            5924            5918     17.8410E-03     18.8982E-03
            5925            5918     17.8410E-03     18.8982E-03
            5926            5919     20.8393E-03     21.9066E-03
            5925            5919     20.8393E-03     21.9066E-03
            5907            5919     20.8393E-03     21.9066E-03
            5908            5919     20.8393E-03     21.9066E-03
            5927            5920     23.8504E-03     24.9278E-03
            5908            5920     23.8504E-03     24.9278E-03
            5926            5920     23.8504E-03     24.9278E-03
            5909            5920     23.8504E-03     24.9278E-03
            5909            5921     26.8772E-03     27.9744E-03
            5927            5921     26.8772E-03     27.9744E-03
            5928            5921     26.8772E-03     27.9744E-03
            5910            5921     26.8772E-03     27.9744E-03
            5911            5922     29.9407E-03     31.0565E-03
            5910            5922     29.9407E-03     31.0565E-03
            5928            5922     29.9407E-03     31.0565E-03
            5929            5922     29.9407E-03     31.0565E-03
            5912            5923     33.0559E-03     34.2042E-03
            5930            5923     33.0559E-03     34.2042E-03
            5929            5923     33.0559E-03     34.2042E-03
            5911            5923     33.0559E-03     34.2042E-03
            5912            5924     36.2686E-03     37.4426E-03
            5930            5924     36.2686E-03     37.4426E-03
            5931            5924     36.2686E-03     37.4426E-03
            5913            5924     36.2686E-03     37.4426E-03
            5914            5925     39.6493E-03     40.8480E-03
            5932            5925     39.6493E-03     40.8480E-03
            5913            5925     39.6493E-03     40.8480E-03
            5931            5925     39.6493E-03     40.8480E-03
            5914            5926     43.2571E-03     44.4664E-03
            5932            5926     43.2571E-03     44.4664E-03
            5933            5926     43.2571E-03     44.4664E-03
            5915            5926     43.2571E-03     44.4664E-03
            5934            5927     47.4213E-03     48.4752E-03
            5916            5927     47.4213E-03     48.4752E-03
            5933            5927     47.4213E-03     48.4752E-03
            5915            5927     47.4213E-03     48.4752E-03
            5917            5928     51.8161E-03     52.7281E-03
            5934            5928     51.8161E-03     52.7281E-03
            5935            5928     51.8161E-03     52.7281E-03
            5916            5928     51.8161E-03     52.7281E-03
            5936            5929     55.7664E-03     56.7414E-03
            5918            5929     55.7664E-03     56.7414E-03
            5917            5929     55.7664E-03     56.7414E-03
            5935            5929     55.7664E-03     56.7414E-03
            5938            5930     2.94845E-03     4.16714E-03
            5920            5930     2.94845E-03     4.16714E-03
            5937            5930     2.94845E-03     4.16714E-03
            5919            5930     2.94845E-03     4.16714E-03
            5939            5931     5.90658E-03     7.09079E-03
            5921            5931     5.90658E-03     7.09079E-03
            5938            5931     5.90658E-03     7.09079E-03
            5920            5931     5.90658E-03     7.09079E-03
            5921            5932     8.94237E-03     10.0852E-03
            5940            5932     8.94237E-03     10.0852E-03
            5922            5932     8.94237E-03     10.0852E-03
            5939            5932     8.94237E-03     10.0852E-03
            5940            5933     12.0048E-03     13.0686E-03
            5922            5933     12.0048E-03     13.0686E-03
            5923            5933     12.0048E-03     13.0686E-03
            5941            5933     12.0048E-03     13.0686E-03
            5923            5934     15.0718E-03     16.0786E-03
            5941            5934     15.0718E-03     16.0786E-03
            5924            5934     15.0718E-03     16.0786E-03
            5942            5934     15.0718E-03     16.0786E-03
            5942            5935     18.1329E-03     19.1216E-03
            5925            5935     18.1329E-03     19.1216E-03
            5943            5935     18.1329E-03     19.1216E-03
            5924            5935     18.1329E-03     19.1216E-03
            5944            5936     21.2012E-03     22.1830E-03
            5926            5936     21.2012E-03     22.1830E-03
            5943            5936     21.2012E-03     22.1830E-03
            5925            5936     21.2012E-03     22.1830E-03
            5927            5937     24.2795E-03     25.2749E-03
            5944            5937     24.2795E-03     25.2749E-03
            5945            5937     24.2795E-03     25.2749E-03
            5926            5937     24.2795E-03     25.2749E-03
            5927            5938     27.3788E-03     28.3986E-03
            5945            5938     27.3788E-03     28.3986E-03
            5928            5938     27.3788E-03     28.3986E-03
            5946            5938     27.3788E-03     28.3986E-03
            5947            5939     30.5099E-03     31.5716E-03
            5929            5939     30.5099E-03     31.5716E-03
            5946            5939     30.5099E-03     31.5716E-03
            5928            5939     30.5099E-03     31.5716E-03
            5947            5940     33.6916E-03     34.8012E-03
            5929            5940     33.6916E-03     34.8012E-03
            5930            5940     33.6916E-03     34.8012E-03
            5948            5940     33.6916E-03     34.8012E-03
            5948            5941     36.9613E-03     38.1228E-03
            5931            5941     36.9613E-03     38.1228E-03
            5949            5941     36.9613E-03     38.1228E-03
            5930            5941     36.9613E-03     38.1228E-03
            5950            5942     40.3295E-03     41.5411E-03
            5932            5942     40.3295E-03     41.5411E-03
            5949            5942     40.3295E-03     41.5411E-03
            5931            5942     40.3295E-03     41.5411E-03
            5951            5943     43.9248E-03     45.1006E-03
            5933            5943     43.9248E-03     45.1006E-03
            5950            5943     43.9248E-03     45.1006E-03
            5932            5943     43.9248E-03     45.1006E-03
            5951            5944     47.6241E-03     48.7604E-03
            5933            5944     47.6241E-03     48.7604E-03
            5952            5944     47.6241E-03     48.7604E-03
            5934            5944     47.6241E-03     48.7604E-03
            5935            5945     51.2495E-03     52.2996E-03
            5952            5945     51.2495E-03     52.2996E-03
            5934            5945     51.2495E-03     52.2996E-03
            5953            5945     51.2495E-03     52.2996E-03
            5936            5946     54.7011E-03     55.3876E-03
            5935            5946     54.7011E-03     55.3876E-03
            5953            5946     54.7011E-03     55.3876E-03
            5954            5946     54.7011E-03     55.3876E-03
            5956            5947     3.63909E-03     4.56601E-03
            5938            5947     3.63909E-03     4.56601E-03
            5937            5947     3.63909E-03     4.56601E-03
            5955            5947     3.63909E-03     4.56601E-03
            5939            5948     6.27498E-03     7.36315E-03
            5957            5948     6.27498E-03     7.36315E-03
            5938            5948     6.27498E-03     7.36315E-03
            5956            5948     6.27498E-03     7.36315E-03
            5957            5949     9.22650E-03     10.2955E-03
            5958            5949     9.22650E-03     10.2955E-03
            5939            5949     9.22650E-03     10.2955E-03
            5940            5949     9.22650E-03     10.2955E-03
            5958            5950     12.2603E-03     13.2680E-03
            5959            5950     12.2603E-03     13.2680E-03
            5940            5950     12.2603E-03     13.2680E-03
            5941            5950     12.2603E-03     13.2680E-03
            5960            5951     15.3272E-03     16.2739E-03
            5959            5951     15.3272E-03     16.2739E-03
            5941            5951     15.3272E-03     16.2739E-03
            5942            5951     15.3272E-03     16.2739E-03
            5960            5952     18.4090E-03     19.3119E-03
            5961            5952     18.4090E-03     19.3119E-03
            5943            5952     18.4090E-03     19.3119E-03
            5942            5952     18.4090E-03     19.3119E-03
            5962            5953     21.5014E-03     22.3892E-03
            5943            5953     21.5014E-03     22.3892E-03
            5961            5953     21.5014E-03     22.3892E-03
            5944            5953     21.5014E-03     22.3892E-03
            5962            5954     24.6073E-03     25.5030E-03
            5945            5954     24.6073E-03     25.5030E-03
            5963            5954     24.6073E-03     25.5030E-03
            5944            5954     24.6073E-03     25.5030E-03
            5963            5955     27.7344E-03     28.6599E-03
            5946            5955     27.7344E-03     28.6599E-03
            5964            5955     27.7344E-03     28.6599E-03
            5945            5955     27.7344E-03     28.6599E-03
            5964            5956     30.8887E-03     31.8612E-03
            5946            5956     30.8887E-03     31.8612E-03
            5947            5956     30.8887E-03     31.8612E-03
            5965            5956     30.8887E-03     31.8612E-03
            5947            5957     34.0869E-03     35.1201E-03
            5948            5957     34.0869E-03     35.1201E-03
            5966            5957     34.0869E-03     35.1201E-03
            5965            5957     34.0869E-03     35.1201E-03
            5949            5958     37.3267E-03     38.4312E-03
            5966            5958     37.3267E-03     38.4312E-03
            5967            5958     37.3267E-03     38.4312E-03
            5948            5958     37.3267E-03     38.4312E-03
            5968            5959     40.6454E-03     41.7954E-03
            5949            5959     40.6454E-03     41.7954E-03
            5950            5959     40.6454E-03     41.7954E-03
            5967            5959     40.6454E-03     41.7954E-03
            5969            5960     43.9852E-03     45.1684E-03
            5951            5960     43.9852E-03     45.1684E-03
            5968            5960     43.9852E-03     45.1684E-03
            5950            5960     43.9852E-03     45.1684E-03
            5969            5961     47.2859E-03     48.4237E-03
            5970            5961     47.2859E-03     48.4237E-03
            5952            5961     47.2859E-03     48.4237E-03
            5951            5961     47.2859E-03     48.4237E-03
            5971            5962     50.4610E-03     51.4121E-03
            5952            5962     50.4610E-03     51.4121E-03
            5953            5962     50.4610E-03     51.4121E-03
            5970            5962     50.4610E-03     51.4121E-03
            5953            5963     53.3527E-03     54.1077E-03
            5972            5963     53.3527E-03     54.1077E-03
            5971            5963     53.3527E-03     54.1077E-03
            5954            5963     53.3527E-03     54.1077E-03
            5973            5964     4.63336E-03     5.32108E-03
            5955            5964     4.63336E-03     5.32108E-03
            5974            5964     4.63336E-03     5.32108E-03
            5956            5964     4.63336E-03     5.32108E-03
            5974            5965     6.87018E-03     7.86527E-03
            5956            5965     6.87018E-03     7.86527E-03
            5975            5965     6.87018E-03     7.86527E-03
            5957            5965     6.87018E-03     7.86527E-03
            5957            5966     9.63810E-03     10.6265E-03
            5975            5966     9.63810E-03     10.6265E-03
            5958            5966     9.63810E-03     10.6265E-03
            5976            5966     9.63810E-03     10.6265E-03
            5977            5967     12.5821E-03     13.5111E-03
            5959            5967     12.5821E-03     13.5111E-03
            5958            5967     12.5821E-03     13.5111E-03
            5976            5967     12.5821E-03     13.5111E-03
            5959            5968     15.5953E-03     16.4474E-03
            5960            5968     15.5953E-03     16.4474E-03
            5977            5968     15.5953E-03     16.4474E-03
            5978            5968     15.5953E-03     16.4474E-03
            5979            5969     18.6461E-03     19.4383E-03
            5960            5969     18.6461E-03     19.4383E-03
            5978            5969     18.6461E-03     19.4383E-03
            5961            5969     18.6461E-03     19.4383E-03
            5961            5970     21.7129E-03     22.4834E-03
            5980            5970     21.7129E-03     22.4834E-03
            5979            5970     21.7129E-03     22.4834E-03
            5962            5970     21.7129E-03     22.4834E-03
            5962            5971     24.7992E-03     25.5727E-03
            5980            5971     24.7992E-03     25.5727E-03
            5981            5971     24.7992E-03     25.5727E-03
            5963            5971     24.7992E-03     25.5727E-03
            5981            5972     27.9040E-03     28.7051E-03
            5982            5972     27.9040E-03     28.7051E-03
            5964            5972     27.9040E-03     28.7051E-03
            5963            5972     27.9040E-03     28.7051E-03
            5964            5973     31.0347E-03     31.8806E-03
            5982            5973     31.0347E-03     31.8806E-03
            5983            5973     31.0347E-03     31.8806E-03
            5965            5973     31.0347E-03     31.8806E-03
            5965            5974     34.1832E-03     35.0954E-03
            5966            5974     34.1832E-03     35.0954E-03
            5984            5974     34.1832E-03     35.0954E-03
            5983            5974     34.1832E-03     35.0954E-03
            5967            5975     37.3556E-03     38.3397E-03
            5985            5975     37.3556E-03     38.3397E-03
            5966            5975     37.3556E-03     38.3397E-03
            5984            5975     37.3556E-03     38.3397E-03
            5967            5976     40.5215E-03     41.5824E-03
            5986            5976     40.5215E-03     41.5824E-03
            5985            5976     40.5215E-03     41.5824E-03
            5968            5976     40.5215E-03     41.5824E-03
            5986            5977     43.6283E-03     44.7452E-03
            5968            5977     43.6283E-03     44.7452E-03
            5969            5977     43.6283E-03     44.7452E-03
            5987            5977     43.6283E-03     44.7452E-03
            5987            5978     46.6194E-03     47.7039E-03
            5988            5978     46.6194E-03     47.7039E-03
            5969            5978     46.6194E-03     47.7039E-03
            5970            5978     46.6194E-03     47.7039E-03
            5989            5979     49.3894E-03     50.3440E-03
            5988            5979     49.3894E-03     50.3440E-03
            5971            5979     49.3894E-03     50.3440E-03
            5970            5979     49.3894E-03     50.3440E-03
            5972            5980     51.9705E-03     52.6512E-03
            5990            5980     51.9705E-03     52.6512E-03
            5989            5980     51.9705E-03     52.6512E-03
            5971            5980     51.9705E-03     52.6512E-03
            5974            5981     5.72593E-03     6.38320E-03
            5973            5981     5.72593E-03     6.38320E-03
            5992            5981     5.72593E-03     6.38320E-03
            5991            5981     5.72593E-03     6.38320E-03
            5993            5982     7.63592E-03     8.52154E-03
            5975            5982     7.63592E-03     8.52154E-03
            5974            5982     7.63592E-03     8.52154E-03
            5992            5982     7.63592E-03     8.52154E-03
            5993            5983     10.1660E-03     11.0959E-03
            5994            5983     10.1660E-03     11.0959E-03
            5976            5983     10.1660E-03     11.0959E-03
            5975            5983     10.1660E-03     11.0959E-03
            5977            5984     12.9617E-03     13.7868E-03
            5994            5984     12.9617E-03     13.7868E-03
            5995            5984     12.9617E-03     13.7868E-03
            5976            5984     12.9617E-03     13.7868E-03
            5977            5985     15.8812E-03     16.5907E-03
            5978            5985     15.8812E-03     16.5907E-03
            5995            5985     15.8812E-03     16.5907E-03
            5996            5985     15.8812E-03     16.5907E-03
            5978            5986     18.8397E-03     19.4952E-03
            5996            5986     18.8397E-03     19.4952E-03
            5997            5986     18.8397E-03     19.4952E-03
            5979            5986     18.8397E-03     19.4952E-03
            5979            5987     21.8298E-03     22.4577E-03
            5980            5987     21.8298E-03     22.4577E-03
            5998            5987     21.8298E-03     22.4577E-03
            5997            5987     21.8298E-03     22.4577E-03
            5998            5988     24.8418E-03     25.4708E-03
            5981            5988     24.8418E-03     25.4708E-03
            5999            5988     24.8418E-03     25.4708E-03
            5980            5988     24.8418E-03     25.4708E-03
            6000            5989     27.8762E-03     28.5222E-03
            5999            5989     27.8762E-03     28.5222E-03
            5981            5989     27.8762E-03     28.5222E-03
            5982            5989     27.8762E-03     28.5222E-03
            5983            5990     30.9226E-03     31.6076E-03
            5982            5990     30.9226E-03     31.6076E-03
            6001            5990     30.9226E-03     31.6076E-03
            6000            5990     30.9226E-03     31.6076E-03
            6001            5991     33.9799E-03     34.7150E-03
            5983            5991     33.9799E-03     34.7150E-03
            6002            5991     33.9799E-03     34.7150E-03
            5984            5991     33.9799E-03     34.7150E-03
            5985            5992     37.0227E-03     37.8312E-03
            5984            5992     37.0227E-03     37.8312E-03
            6002            5992     37.0227E-03     37.8312E-03
            6003            5992     37.0227E-03     37.8312E-03
            6003            5993     40.0143E-03     40.9103E-03
            5985            5993     40.0143E-03     40.9103E-03
            5986            5993     40.0143E-03     40.9103E-03
            6004            5993     40.0143E-03     40.9103E-03
            5987            5994     42.9268E-03     43.8861E-03
            6004            5994     42.9268E-03     43.8861E-03
            5986            5994     42.9268E-03     43.8861E-03
            6005            5994     42.9268E-03     43.8861E-03
            6005            5995     45.6346E-03     46.6512E-03
            5988            5995     45.6346E-03     46.6512E-03
            6006            5995     45.6346E-03     46.6512E-03
            5987            5995     45.6346E-03     46.6512E-03
            6006            5996     48.1334E-03     49.0585E-03
            5988            5996     48.1334E-03     49.0585E-03
            5989            5996     48.1334E-03     49.0585E-03
            6007            5996     48.1334E-03     49.0585E-03
            6008            5997     50.4336E-03     51.0416E-03
            6007            5997     50.4336E-03     51.0416E-03
            5989            5997     50.4336E-03     51.0416E-03
            5990            5997     50.4336E-03     51.0416E-03
            6010            5998     6.95686E-03     7.52750E-03
            5991            5998     6.95686E-03     7.52750E-03
            5992            5998     6.95686E-03     7.52750E-03
            6009            5998     6.95686E-03     7.52750E-03
            6011            5999     8.53717E-03     9.46934E-03
            6010            5999     8.53717E-03     9.46934E-03
            5992            5999     8.53717E-03     9.46934E-03
            5993            5999     8.53717E-03     9.46934E-03
            6012            6000     10.8096E-03     11.6625E-03
            6011            6000     10.8096E-03     11.6625E-03
            5993            6000     10.8096E-03     11.6625E-03
            5994            6000     10.8096E-03     11.6625E-03
            6013            6001     13.4484E-03     14.0891E-03
            6012            6001     13.4484E-03     14.0891E-03
            5994            6001     13.4484E-03     14.0891E-03
            5995            6001     13.4484E-03     14.0891E-03
            5995            6002     16.1973E-03     16.7413E-03
            6014            6002     16.1973E-03     16.7413E-03
            5996            6002     16.1973E-03     16.7413E-03
            6013            6002     16.1973E-03     16.7413E-03
            5996            6003     19.0103E-03     19.5039E-03
            6014            6003     19.0103E-03     19.5039E-03
            6015            6003     19.0103E-03     19.5039E-03
            5997            6003     19.0103E-03     19.5039E-03
            5998            6004     21.8656E-03     22.3406E-03
            6016            6004     21.8656E-03     22.3406E-03
            5997            6004     21.8656E-03     22.3406E-03
            6015            6004     21.8656E-03     22.3406E-03
            6017            6005     24.7524E-03     25.2212E-03
            6016            6005     24.7524E-03     25.2212E-03
            5998            6005     24.7524E-03     25.2212E-03
            5999            6005     24.7524E-03     25.2212E-03
            6017            6006     27.6568E-03     28.1332E-03
            5999            6006     27.6568E-03     28.1332E-03
            6000            6006     27.6568E-03     28.1332E-03
            6018            6006     27.6568E-03     28.1332E-03
            6019            6007     30.5741E-03     31.0618E-03
            6000            6007     30.5741E-03     31.0618E-03
            6018            6007     30.5741E-03     31.0618E-03
            6001            6007     30.5741E-03     31.0618E-03
            6020            6008     33.4797E-03     33.9985E-03
            6019            6008     33.4797E-03     33.9985E-03
            6002            6008     33.4797E-03     33.9985E-03
            6001            6008     33.4797E-03     33.9985E-03
            6020            6009     36.3567E-03     36.9159E-03
            6002            6009     36.3567E-03     36.9159E-03
            6021            6009     36.3567E-03     36.9159E-03
            6003            6009     36.3567E-03     36.9159E-03
            6021            6010     39.1679E-03     39.7922E-03
            6022            6010     39.1679E-03     39.7922E-03
            6003            6010     39.1679E-03     39.7922E-03
            6004            6010     39.1679E-03     39.7922E-03
            6004            6011     41.8435E-03     42.5660E-03
            6022            6011     41.8435E-03     42.5660E-03
            6023            6011     41.8435E-03     42.5660E-03
            6005            6011     41.8435E-03     42.5660E-03
            6024            6012     44.3888E-03     45.1602E-03
            6023            6012     44.3888E-03     45.1602E-03
            6006            6012     44.3888E-03     45.1602E-03
            6005            6012     44.3888E-03     45.1602E-03
            6024            6013     46.6351E-03     47.4351E-03
            6025            6013     46.6351E-03     47.4351E-03
            6006            6013     46.6351E-03     47.4351E-03
            6007            6013     46.6351E-03     47.4351E-03
            6025            6014     48.6529E-03     49.3157E-03
            6008            6014     48.6529E-03     49.3157E-03
            6026            6014     48.6529E-03     49.3157E-03
            6007            6014     48.6529E-03     49.3157E-03
            6009            6015     8.26214E-03     9.18766E-03
            6027            6015     8.26214E-03     9.18766E-03
            6028            6015     8.26214E-03     9.18766E-03
            6010            6015     8.26214E-03     9.18766E-03
            6010            6016     9.54859E-03     10.5513E-03
            6029            6016     9.54859E-03     10.5513E-03
            6028            6016     9.54859E-03     10.5513E-03
            6011            6016     9.54859E-03     10.5513E-03
            6029            6017     11.6791E-03     12.2728E-03
            6030            6017     11.6791E-03     12.2728E-03
            6012            6017     11.6791E-03     12.2728E-03
            6011            6017     11.6791E-03     12.2728E-03
            6012            6018     14.0696E-03     14.4849E-03
            6030            6018     14.0696E-03     14.4849E-03
            6031            6018     14.0696E-03     14.4849E-03
            6013            6018     14.0696E-03     14.4849E-03
            6032            6019     16.5862E-03     16.9455E-03
            6031            6019     16.5862E-03     16.9455E-03
            6014            6019     16.5862E-03     16.9455E-03
            6013            6019     16.5862E-03     16.9455E-03
            6014            6020     19.1952E-03     19.5336E-03
            6032            6020     19.1952E-03     19.5336E-03
            6033            6020     19.1952E-03     19.5336E-03
            6015            6020     19.1952E-03     19.5336E-03
            6015            6021     21.8646E-03     22.1927E-03
            6033            6021     21.8646E-03     22.1927E-03
            6034            6021     21.8646E-03     22.1927E-03
            6016            6021     21.8646E-03     22.1927E-03
            6017            6022     24.5702E-03     24.8890E-03
            6016            6022     24.5702E-03     24.8890E-03
            6035            6022     24.5702E-03     24.8890E-03
            6034            6022     24.5702E-03     24.8890E-03
            6035            6023     27.2986E-03     27.6004E-03
            6036            6023     27.2986E-03     27.6004E-03
            6017            6023     27.2986E-03     27.6004E-03
            6018            6023     27.2986E-03     27.6004E-03
            6019            6024     30.0247E-03     30.3117E-03
            6018            6024     30.0247E-03     30.3117E-03
            6037            6024     30.0247E-03     30.3117E-03
            6036            6024     30.0247E-03     30.3117E-03
            6020            6025     32.7376E-03     33.0019E-03
            6019            6025     32.7376E-03     33.0019E-03
            6037            6025     32.7376E-03     33.0019E-03
            6038            6025     32.7376E-03     33.0019E-03
            6021            6026     35.4010E-03     35.6566E-03
            6020            6026     35.4010E-03     35.6566E-03
            6039            6026     35.4010E-03     35.6566E-03
            6038            6026     35.4010E-03     35.6566E-03
            6040            6027     37.9907E-03     38.2450E-03
            6021            6027     37.9907E-03     38.2450E-03
            6022            6027     37.9907E-03     38.2450E-03
            6039            6027     37.9907E-03     38.2450E-03
            6041            6028     40.4563E-03     40.7446E-03
            6040            6028     40.4563E-03     40.7446E-03
            6023            6028     40.4563E-03     40.7446E-03
            6022            6028     40.4563E-03     40.7446E-03
            6041            6029     42.7373E-03     43.1071E-03
            6024            6029     42.7373E-03     43.1071E-03
            6023            6029     42.7373E-03     43.1071E-03
            6042            6029     42.7373E-03     43.1071E-03
            6043            6030     44.8684E-03     45.2583E-03
            6042            6030     44.8684E-03     45.2583E-03
            6024            6030     44.8684E-03     45.2583E-03
            6025            6030     44.8684E-03     45.2583E-03
            6026            6031     46.6883E-03     46.9078E-03
            6025            6031     46.6883E-03     46.9078E-03
            6044            6031     46.6883E-03     46.9078E-03
            6043            6031     46.6883E-03     46.9078E-03
            6046            6032     9.54434E-03     10.7952E-03
            6045            6032     9.54434E-03     10.7952E-03
            6028            6032     9.54434E-03     10.7952E-03
            6027            6032     9.54434E-03     10.7952E-03
            6047            6033     10.9696E-03     11.4736E-03
            6028            6033     10.9696E-03     11.4736E-03
            6029            6033     10.9696E-03     11.4736E-03
            6046            6033     10.9696E-03     11.4736E-03
            6047            6034     12.8024E-03     13.0094E-03
            6048            6034     12.8024E-03     13.0094E-03
            6030            6034     12.8024E-03     13.0094E-03
            6029            6034     12.8024E-03     13.0094E-03
            6048            6035     14.8613E-03     15.0429E-03
            6049            6035     14.8613E-03     15.0429E-03
            6031            6035     14.8613E-03     15.0429E-03
            6030            6035     14.8613E-03     15.0429E-03
            6050            6036     17.0928E-03     17.2958E-03
            6049            6036     17.0928E-03     17.2958E-03
            6032            6036     17.0928E-03     17.2958E-03
            6031            6036     17.0928E-03     17.2958E-03
            6033            6037     19.4570E-03     19.6736E-03
            6051            6037     19.4570E-03     19.6736E-03
            6050            6037     19.4570E-03     19.6736E-03
            6032            6037     19.4570E-03     19.6736E-03
            6051            6038     21.8943E-03     22.1127E-03
            6033            6038     21.8943E-03     22.1127E-03
            6034            6038     21.8943E-03     22.1127E-03
            6052            6038     21.8943E-03     22.1127E-03
            6053            6039     24.3804E-03     24.5765E-03
            6052            6039     24.3804E-03     24.5765E-03
            6034            6039     24.3804E-03     24.5765E-03
            6035            6039     24.3804E-03     24.5765E-03
            6053            6040     26.8784E-03     27.0381E-03
            6036            6040     26.8784E-03     27.0381E-03
            6054            6040     26.8784E-03     27.0381E-03
            6035            6040     26.8784E-03     27.0381E-03
            6054            6041     29.3732E-03     29.4719E-03
            6036            6041     29.3732E-03     29.4719E-03
            6055            6041     29.3732E-03     29.4719E-03
            6037            6041     29.3732E-03     29.4719E-03
            6055            6042     31.8330E-03     31.8561E-03
            6056            6042     31.8330E-03     31.8561E-03
            6037            6042     31.8330E-03     31.8561E-03
            6038            6042     31.8330E-03     31.8561E-03
            6039            6043     34.2424E-03     34.1679E-03
            6057            6043     34.2424E-03     34.1679E-03
            6056            6043     34.2424E-03     34.1679E-03
            6038            6043     34.2424E-03     34.1679E-03
            6057            6044     36.5624E-03     36.3777E-03
            6058            6044     36.5624E-03     36.3777E-03
            6039            6044     36.5624E-03     36.3777E-03
            6040            6044     36.5624E-03     36.3777E-03
            6059            6045     38.7772E-03     38.4806E-03
            6040            6045     38.7772E-03     38.4806E-03
            6058            6045     38.7772E-03     38.4806E-03
            6041            6045     38.7772E-03     38.4806E-03
            6059            6046     40.8110E-03     40.4234E-03
            6042            6046     40.8110E-03     40.4234E-03
            6060            6046     40.8110E-03     40.4234E-03
            6041            6046     40.8110E-03     40.4234E-03
            6060            6047     42.6734E-03     42.2790E-03
            6061            6047     42.6734E-03     42.2790E-03
            6043            6047     42.6734E-03     42.2790E-03
            6042            6047     42.6734E-03     42.2790E-03
            6061            6048     44.2839E-03     43.7139E-03
            6062            6048     44.2839E-03     43.7139E-03
            6044            6048     44.2839E-03     43.7139E-03
            6043            6048     44.2839E-03     43.7139E-03
            6063            6049     6.46538E-03     7.31029E-03
            6045            6049     6.46538E-03     7.31029E-03
            6046            6049     6.46538E-03     7.31029E-03
            6064            6049     6.46538E-03     7.31029E-03
            6065            6050     8.06366E-03     8.48345E-03
            6046            6050     8.06366E-03     8.48345E-03
            6064            6050     8.06366E-03     8.48345E-03
            6047            6050     8.06366E-03     8.48345E-03
            6065            6051     9.73062E-03     10.2097E-03
            6066            6051     9.73062E-03     10.2097E-03
            6047            6051     9.73062E-03     10.2097E-03
            6048            6051     9.73062E-03     10.2097E-03
            6049            6052     11.5886E-03     12.1739E-03
            6067            6052     11.5886E-03     12.1739E-03
            6066            6052     11.5886E-03     12.1739E-03
            6048            6052     11.5886E-03     12.1739E-03
            6068            6053     13.5775E-03     14.2302E-03
            6067            6053     13.5775E-03     14.2302E-03
            6049            6053     13.5775E-03     14.2302E-03
            6050            6053     13.5775E-03     14.2302E-03
            6068            6054     15.6500E-03     16.3419E-03
            6051            6054     15.6500E-03     16.3419E-03
            6050            6054     15.6500E-03     16.3419E-03
            6069            6054     15.6500E-03     16.3419E-03
            6051            6055     17.7804E-03     18.4795E-03
            6069            6055     17.7804E-03     18.4795E-03
            6070            6055     17.7804E-03     18.4795E-03
            6052            6055     17.7804E-03     18.4795E-03
            6070            6056     19.9399E-03     20.6254E-03
            6071            6056     19.9399E-03     20.6254E-03
            6052            6056     19.9399E-03     20.6254E-03
            6053            6056     19.9399E-03     20.6254E-03
            6071            6057     22.1263E-03     22.7682E-03
            6054            6057     22.1263E-03     22.7682E-03
            6072            6057     22.1263E-03     22.7682E-03
            6053            6057     22.1263E-03     22.7682E-03
            6055            6058     24.3191E-03     24.9059E-03
            6073            6058     24.3191E-03     24.9059E-03
            6054            6058     24.3191E-03     24.9059E-03
            6072            6058     24.3191E-03     24.9059E-03
            6056            6059     26.5383E-03     27.0306E-03
            6055            6059     26.5383E-03     27.0306E-03
            6073            6059     26.5383E-03     27.0306E-03
            6074            6059     26.5383E-03     27.0306E-03
            6074            6060     28.7643E-03     29.1640E-03
            6056            6060     28.7643E-03     29.1640E-03
            6075            6060     28.7643E-03     29.1640E-03
            6057            6060     28.7643E-03     29.1640E-03
            6075            6061     31.0571E-03     31.3135E-03
            6076            6061     31.0571E-03     31.3135E-03
            6057            6061     31.0571E-03     31.3135E-03
            6058            6061     31.0571E-03     31.3135E-03
            6058            6062     33.3913E-03     33.5464E-03
            6077            6062     33.3913E-03     33.5464E-03
            6059            6062     33.3913E-03     33.5464E-03
            6076            6062     33.3913E-03     33.5464E-03
            6060            6063     35.9463E-03     35.9793E-03
            6077            6063     35.9463E-03     35.9793E-03
            6059            6063     35.9463E-03     35.9793E-03
            6078            6063     35.9463E-03     35.9793E-03
            6079            6064     38.6792E-03     38.7738E-03
            6061            6064     38.6792E-03     38.7738E-03
            6078            6064     38.6792E-03     38.7738E-03
            6060            6064     38.6792E-03     38.7738E-03
            6061            6065     42.6329E-03     43.5293E-03
            6079            6065     42.6329E-03     43.5293E-03
            6080            6065     42.6329E-03     43.5293E-03
            6062            6065     42.6329E-03     43.5293E-03
            6081            6066     2.34224E-03     3.20384E-03
            6082            6066     2.34224E-03     3.20384E-03
            6064            6066     2.34224E-03     3.20384E-03
            6063            6066     2.34224E-03     3.20384E-03
            6082            6067     4.15425E-03     4.95647E-03
            6064            6067     4.15425E-03     4.95647E-03
            6083            6067     4.15425E-03     4.95647E-03
            6065            6067     4.15425E-03     4.95647E-03
            6083            6068     6.00796E-03     6.95196E-03
            6065            6068     6.00796E-03     6.95196E-03
            6084            6068     6.00796E-03     6.95196E-03
            6066            6068     6.00796E-03     6.95196E-03
            6084            6069     7.92212E-03     8.96145E-03
            6066            6069     7.92212E-03     8.96145E-03
            6067            6069     7.92212E-03     8.96145E-03
            6085            6069     7.92212E-03     8.96145E-03
            6086            6070     9.86301E-03     10.9668E-03
            6067            6070     9.86301E-03     10.9668E-03
            6068            6070     9.86301E-03     10.9668E-03
            6085            6070     9.86301E-03     10.9668E-03
            6086            6071     11.8238E-03     12.9654E-03
            6087            6071     11.8238E-03     12.9654E-03
            6068            6071     11.8238E-03     12.9654E-03
            6069            6071     11.8238E-03     12.9654E-03
            6088            6072     13.7996E-03     14.9569E-03
            6069            6072     13.7996E-03     14.9569E-03
            6070            6072     13.7996E-03     14.9569E-03
            6087            6072     13.7996E-03     14.9569E-03
            6089            6073     15.7957E-03     16.9515E-03
            6088            6073     15.7957E-03     16.9515E-03
            6071            6073     15.7957E-03     16.9515E-03
            6070            6073     15.7957E-03     16.9515E-03
            6071            6074     17.8150E-03     18.9539E-03
            6072            6074     17.8150E-03     18.9539E-03
            6089            6074     17.8150E-03     18.9539E-03
            6090            6074     17.8150E-03     18.9539E-03
            6091            6075     19.8818E-03     20.9904E-03
            6072            6075     19.8818E-03     20.9904E-03
            6073            6075     19.8818E-03     20.9904E-03
            6090            6075     19.8818E-03     20.9904E-03
            6092            6076     22.0092E-03     23.0780E-03
            6073            6076     22.0092E-03     23.0780E-03
            6074            6076     22.0092E-03     23.0780E-03
            6091            6076     22.0092E-03     23.0780E-03
            6093            6077     24.2628E-03     25.2829E-03
            6075            6077     24.2628E-03     25.2829E-03
            6092            6077     24.2628E-03     25.2829E-03
            6074            6077     24.2628E-03     25.2829E-03
            6076            6078     26.6750E-03     27.6546E-03
            6075            6078     26.6750E-03     27.6546E-03
            6093            6078     26.6750E-03     27.6546E-03
            6094            6078     26.6750E-03     27.6546E-03
            6095            6079     29.4297E-03     30.3762E-03
            6077            6079     29.4297E-03     30.3762E-03
            6076            6079     29.4297E-03     30.3762E-03
            6094            6079     29.4297E-03     30.3762E-03
            6077            6080     32.6115E-03     33.5862E-03
            6096            6080     32.6115E-03     33.5862E-03
            6078            6080     32.6115E-03     33.5862E-03
            6095            6080     32.6115E-03     33.5862E-03
            6096            6081     36.9265E-03     37.9952E-03
            6097            6081     36.9265E-03     37.9952E-03
            6078            6081     36.9265E-03     37.9952E-03
            6079            6081     36.9265E-03     37.9952E-03
            6079            6082     43.4595E-03     44.2785E-03
            6097            6082     43.4595E-03     44.2785E-03
            6080            6082     43.4595E-03     44.2785E-03
            6098            6082     43.4595E-03     44.2785E-03
            6081            6083     2.00115E-03     2.98808E-03
            6082            6083     2.00115E-03     2.98808E-03
            6100            6083     2.00115E-03     2.98808E-03
            6099            6083     2.00115E-03     2.98808E-03
            6083            6084     4.03082E-03     4.91639E-03
            6100            6084     4.03082E-03     4.91639E-03
            6101            6084     4.03082E-03     4.91639E-03
            6082            6084     4.03082E-03     4.91639E-03
            6102            6085     6.06443E-03     6.94627E-03
            6083            6085     6.06443E-03     6.94627E-03
            6084            6085     6.06443E-03     6.94627E-03
            6101            6085     6.06443E-03     6.94627E-03
            6085            6086     8.07913E-03     9.01887E-03
            6102            6086     8.07913E-03     9.01887E-03
            6103            6086     8.07913E-03     9.01887E-03
            6084            6086     8.07913E-03     9.01887E-03
            6104            6087     10.1020E-03     11.0838E-03
            6086            6087     10.1020E-03     11.0838E-03
            6103            6087     10.1020E-03     11.0838E-03
            6085            6087     10.1020E-03     11.0838E-03
            6105            6088     12.1328E-03     13.1443E-03
            6087            6088     12.1328E-03     13.1443E-03
            6086            6088     12.1328E-03     13.1443E-03
            6104            6088     12.1328E-03     13.1443E-03
            6105            6089     14.1747E-03     15.2045E-03
            6087            6089     14.1747E-03     15.2045E-03
            6088            6089     14.1747E-03     15.2045E-03
            6106            6089     14.1747E-03     15.2045E-03
            6088            6090     16.2303E-03     17.2686E-03
            6089            6090     16.2303E-03     17.2686E-03
            6107            6090     16.2303E-03     17.2686E-03
            6106            6090     16.2303E-03     17.2686E-03
            6089            6091     18.3142E-03     19.3523E-03
            6108            6091     18.3142E-03     19.3523E-03
            6090            6091     18.3142E-03     19.3523E-03
            6107            6091     18.3142E-03     19.3523E-03
            6091            6092     20.4358E-03     21.4712E-03
            6108            6092     20.4358E-03     21.4712E-03
            6109            6092     20.4358E-03     21.4712E-03
            6090            6092     20.4358E-03     21.4712E-03
            6092            6093     22.6373E-03     23.6604E-03
            6091            6093     22.6373E-03     23.6604E-03
            6110            6093     22.6373E-03     23.6604E-03
            6109            6093     22.6373E-03     23.6604E-03
            6110            6094     24.9481E-03     25.9667E-03
            6093            6094     24.9481E-03     25.9667E-03
            6111            6094     24.9481E-03     25.9667E-03
            6092            6094     24.9481E-03     25.9667E-03
            6111            6095     27.4749E-03     28.4718E-03
            6094            6095     27.4749E-03     28.4718E-03
            6093            6095     27.4749E-03     28.4718E-03
            6112            6095     27.4749E-03     28.4718E-03
            6094            6096     30.3197E-03     31.3117E-03
            6112            6096     30.3197E-03     31.3117E-03
            6113            6096     30.3197E-03     31.3117E-03
            6095            6096     30.3197E-03     31.3117E-03
            6113            6097     33.7194E-03     34.6653E-03
            6096            6097     33.7194E-03     34.6653E-03
            6095            6097     33.7194E-03     34.6653E-03
            6114            6097     33.7194E-03     34.6653E-03
            6096            6098     38.3798E-03     39.0223E-03
            6115            6098     38.3798E-03     39.0223E-03
            6097            6098     38.3798E-03     39.0223E-03
            6114            6098     38.3798E-03     39.0223E-03
            6115            6099     43.3945E-03     43.5809E-03
            6098            6099     43.3945E-03     43.5809E-03
            6116            6099     43.3945E-03     43.5809E-03
            6097            6099     43.3945E-03     43.5809E-03
            6099            6100     2.35841E-03     3.04283E-03
            6117            6100     2.35841E-03     3.04283E-03
            6118            6100     2.35841E-03     3.04283E-03
            6100            6100     2.35841E-03     3.04283E-03
            6119            6101     4.24103E-03     5.08263E-03
            6118            6101     4.24103E-03     5.08263E-03
            6100            6101     4.24103E-03     5.08263E-03
            6101            6101     4.24103E-03     5.08263E-03
            6102            6102     6.29039E-03     7.12341E-03
            6119            6102     6.29039E-03     7.12341E-03
            6120            6102     6.29039E-03     7.12341E-03
            6101            6102     6.29039E-03     7.12341E-03
            6102            6103     8.35097E-03     9.20319E-03
            6120            6103     8.35097E-03     9.20319E-03
            6121            6103     8.35097E-03     9.20319E-03
            6103            6103     8.35097E-03     9.20319E-03
            6103            6104     10.4184E-03     11.2988E-03
            6122            6104     10.4184E-03     11.2988E-03
            6121            6104     10.4184E-03     11.2988E-03
            6104            6104     10.4184E-03     11.2988E-03
            6123            6105     12.4972E-03     13.3991E-03
            6104            6105     12.4972E-03     13.3991E-03
            6105            6105     12.4972E-03     13.3991E-03
            6122            6105     12.4972E-03     13.3991E-03
            6106            6106     14.5870E-03     15.5067E-03
            6123            6106     14.5870E-03     15.5067E-03
            6105            6106     14.5870E-03     15.5067E-03
            6124            6106     14.5870E-03     15.5067E-03
            6106            6107     16.6948E-03     17.6286E-03
            6124            6107     16.6948E-03     17.6286E-03
            6107            6107     16.6948E-03     17.6286E-03
            6125            6107     16.6948E-03     17.6286E-03
            6108            6108     18.8266E-03     19.7755E-03
            6125            6108     18.8266E-03     19.7755E-03
            6107            6108     18.8266E-03     19.7755E-03
            6126            6108     18.8266E-03     19.7755E-03
            6108            6109     21.0042E-03     21.9644E-03
            6126            6109     21.0042E-03     21.9644E-03
            6109            6109     21.0042E-03     21.9644E-03
            6127            6109     21.0042E-03     21.9644E-03
            6109            6110     23.2502E-03     24.2262E-03
            6127            6110     23.2502E-03     24.2262E-03
            6110            6110     23.2502E-03     24.2262E-03
            6128            6110     23.2502E-03     24.2262E-03
            6110            6111     25.6159E-03     26.5964E-03
            6128            6111     25.6159E-03     26.5964E-03
            6111            6111     25.6159E-03     26.5964E-03
            6129            6111     25.6159E-03     26.5964E-03
            6111            6112     28.1790E-03     29.1579E-03
            6112            6112     28.1790E-03     29.1579E-03
            6129            6112     28.1790E-03     29.1579E-03
            6130            6112     28.1790E-03     29.1579E-03
            6130            6113     31.0201E-03     31.9738E-03
            6131            6113     31.0201E-03     31.9738E-03
            6112            6113     31.0201E-03     31.9738E-03
            6113            6113     31.0201E-03     31.9738E-03
            6113            6114     34.4550E-03     35.2494E-03
            6132            6114     34.4550E-03     35.2494E-03
            6131            6114     34.4550E-03     35.2494E-03
            6114            6114     34.4550E-03     35.2494E-03
            6114            6115     38.2432E-03     38.8999E-03
            6133            6115     38.2432E-03     38.8999E-03
            6115            6115     38.2432E-03     38.8999E-03
            6132            6115     38.2432E-03     38.8999E-03
            6134            6116     41.7992E-03     42.5633E-03
            6133            6116     41.7992E-03     42.5633E-03
            6115            6116     41.7992E-03     42.5633E-03
            6116            6116     41.7992E-03     42.5633E-03
            6118            6117     3.01125E-03     3.48102E-03
            6117            6117     3.01125E-03     3.48102E-03
            6136            6117     3.01125E-03     3.48102E-03
            6135            6117     3.01125E-03     3.48102E-03
            6136            6118     4.69073E-03     5.37458E-03
            6118            6118     4.69073E-03     5.37458E-03
            6119            6118     4.69073E-03     5.37458E-03
            6137            6118     4.69073E-03     5.37458E-03
            6120            6119     6.63895E-03     7.40447E-03
            6119            6119     6.63895E-03     7.40447E-03
            6138            6119     6.63895E-03     7.40447E-03
            6137            6119     6.63895E-03     7.40447E-03
            6139            6120     8.68809E-03     9.46538E-03
            6138            6120     8.68809E-03     9.46538E-03
            6120            6120     8.68809E-03     9.46538E-03
            6121            6120     8.68809E-03     9.46538E-03
            6140            6121     10.7701E-03     11.5622E-03
            6121            6121     10.7701E-03     11.5622E-03
            6122            6121     10.7701E-03     11.5622E-03
            6139            6121     10.7701E-03     11.5622E-03
            6122            6122     12.8730E-03     13.6774E-03
            6141            6122     12.8730E-03     13.6774E-03
            6140            6122     12.8730E-03     13.6774E-03
            6123            6122     12.8730E-03     13.6774E-03
            6141            6123     14.9952E-03     15.8123E-03
            6123            6123     14.9952E-03     15.8123E-03
            6142            6123     14.9952E-03     15.8123E-03
            6124            6123     14.9952E-03     15.8123E-03
            6125            6124     17.1360E-03     17.9703E-03
            6142            6124     17.1360E-03     17.9703E-03
            6124            6124     17.1360E-03     17.9703E-03
            6143            6124     17.1360E-03     17.9703E-03
            6144            6125     19.3037E-03     20.1578E-03
            6126            6125     19.3037E-03     20.1578E-03
            6143            6125     19.3037E-03     20.1578E-03
            6125            6125     19.3037E-03     20.1578E-03
            6145            6126     21.5110E-03     22.3911E-03
            6127            6126     21.5110E-03     22.3911E-03
            6126            6126     21.5110E-03     22.3911E-03
            6144            6126     21.5110E-03     22.3911E-03
            6127            6127     23.7763E-03     24.6821E-03
            6145            6127     23.7763E-03     24.6821E-03
            6128            6127     23.7763E-03     24.6821E-03
            6146            6127     23.7763E-03     24.6821E-03
            6128            6128     26.1456E-03     27.0695E-03
            6146            6128     26.1456E-03     27.0695E-03
            6129            6128     26.1456E-03     27.0695E-03
            6147            6128     26.1456E-03     27.0695E-03
            6148            6129     28.6397E-03     29.5736E-03
            6130            6129     28.6397E-03     29.5736E-03
            6129            6129     28.6397E-03     29.5736E-03
            6147            6129     28.6397E-03     29.5736E-03
            6148            6130     31.3961E-03     32.2659E-03
            6130            6130     31.3961E-03     32.2659E-03
            6131            6130     31.3961E-03     32.2659E-03
            6149            6130     31.3961E-03     32.2659E-03
            6149            6131     34.3408E-03     35.1478E-03
            6150            6131     34.3408E-03     35.1478E-03
            6131            6131     34.3408E-03     35.1478E-03
            6132            6131     34.3408E-03     35.1478E-03
            6133            6132     37.3363E-03     38.0925E-03
            6132            6132     37.3363E-03     38.0925E-03
            6150            6132     37.3363E-03     38.0925E-03
            6151            6132     37.3363E-03     38.0925E-03
            6151            6133     40.3654E-03     40.8595E-03
            6152            6133     40.3654E-03     40.8595E-03
            6134            6133     40.3654E-03     40.8595E-03
            6133            6133     40.3654E-03     40.8595E-03
            6136            6134     3.76303E-03     4.08671E-03
            6153            6134     3.76303E-03     4.08671E-03
            6135            6134     3.76303E-03     4.08671E-03
            6154            6134     3.76303E-03     4.08671E-03
            6136            6135     5.21858E-03     5.80420E-03
            6154            6135     5.21858E-03     5.80420E-03
            6137            6135     5.21858E-03     5.80420E-03
            6155            6135     5.21858E-03     5.80420E-03
            6138            6136     7.06578E-03     7.73475E-03
            6156            6136     7.06578E-03     7.73475E-03
            6155            6136     7.06578E-03     7.73475E-03
            6137            6136     7.06578E-03     7.73475E-03
            6139            6137     9.05591E-03     9.76391E-03
            6157            6137     9.05591E-03     9.76391E-03
            6138            6137     9.05591E-03     9.76391E-03
            6156            6137     9.05591E-03     9.76391E-03
            6140            6138     11.1226E-03     11.8298E-03
            6158            6138     11.1226E-03     11.8298E-03
            6157            6138     11.1226E-03     11.8298E-03
            6139            6138     11.1226E-03     11.8298E-03
            6140            6139     13.2281E-03     13.9363E-03
            6158            6139     13.2281E-03     13.9363E-03
            6159            6139     13.2281E-03     13.9363E-03
            6141            6139     13.2281E-03     13.9363E-03
            6159            6140     15.3592E-03     16.0727E-03
            6160            6140     15.3592E-03     16.0727E-03
            6141            6140     15.3592E-03     16.0727E-03
            6142            6140     15.3592E-03     16.0727E-03
            6160            6141     17.5134E-03     18.2396E-03
            6142            6141     17.5134E-03     18.2396E-03
            6161            6141     17.5134E-03     18.2396E-03
            6143            6141     17.5134E-03     18.2396E-03
            6143            6142     19.6930E-03     20.4425E-03
            6144            6142     19.6930E-03     20.4425E-03
            6162            6142     19.6930E-03     20.4425E-03
            6161            6142     19.6930E-03     20.4425E-03
            6145            6143     21.8996E-03     22.6811E-03
            6144            6143     21.8996E-03     22.6811E-03
            6162            6143     21.8996E-03     22.6811E-03
            6163            6143     21.8996E-03     22.6811E-03
            6145            6144     24.1539E-03     24.9683E-03
            6146            6144     24.1539E-03     24.9683E-03
            6163            6144     24.1539E-03     24.9683E-03
            6164            6144     24.1539E-03     24.9683E-03
            6165            6145     26.4494E-03     27.3025E-03
            6164            6145     26.4494E-03     27.3025E-03
            6147            6145     26.4494E-03     27.3025E-03
            6146            6145     26.4494E-03     27.3025E-03
            6147            6146     28.8421E-03     29.6964E-03
            6165            6146     28.8421E-03     29.6964E-03
            6148            6146     28.8421E-03     29.6964E-03
            6166            6146     28.8421E-03     29.6964E-03
            6148            6147     31.2920E-03     32.1398E-03
            6167            6147     31.2920E-03     32.1398E-03
            6149            6147     31.2920E-03     32.1398E-03
            6166            6147     31.2920E-03     32.1398E-03
            6149            6148     33.7834E-03     34.5780E-03
            6167            6148     33.7834E-03     34.5780E-03
            6150            6148     33.7834E-03     34.5780E-03
            6168            6148     33.7834E-03     34.5780E-03
            6151            6149     36.3045E-03     36.9381E-03
            6150            6149     36.3045E-03     36.9381E-03
            6168            6149     36.3045E-03     36.9381E-03
            6169            6149     36.3045E-03     36.9381E-03
            6169            6150     38.7224E-03     39.2735E-03
            6170            6150     38.7224E-03     39.2735E-03
            6151            6150     38.7224E-03     39.2735E-03
            6152            6150     38.7224E-03     39.2735E-03
            6171            6151     4.52963E-03     4.76770E-03
            6153            6151     4.52963E-03     4.76770E-03
            6154            6151     4.52963E-03     4.76770E-03
            6172            6151     4.52963E-03     4.76770E-03
            6154            6152     5.80978E-03     6.30126E-03
            6172            6152     5.80978E-03     6.30126E-03
            6155            6152     5.80978E-03     6.30126E-03
            6173            6152     5.80978E-03     6.30126E-03
            6174            6153     7.51378E-03     8.12463E-03
            6155            6153     7.51378E-03     8.12463E-03
            6156            6153     7.51378E-03     8.12463E-03
            6173            6153     7.51378E-03     8.12463E-03
            6175            6154     9.43431E-03     10.0598E-03
            6174            6154     9.43431E-03     10.0598E-03
            6157            6154     9.43431E-03     10.0598E-03
            6156            6154     9.43431E-03     10.0598E-03
            6158            6155     11.4567E-03     12.0776E-03
            6175            6155     11.4567E-03     12.0776E-03
            6157            6155     11.4567E-03     12.0776E-03
            6176            6155     11.4567E-03     12.0776E-03
            6159            6156     13.5372E-03     14.1414E-03
            6158            6156     13.5372E-03     14.1414E-03
            6177            6156     13.5372E-03     14.1414E-03
            6176            6156     13.5372E-03     14.1414E-03
            6159            6157     15.6534E-03     16.2501E-03
            6160            6157     15.6534E-03     16.2501E-03
            6177            6157     15.6534E-03     16.2501E-03
            6178            6157     15.6534E-03     16.2501E-03
            6178            6158     17.7947E-03     18.3992E-03
            6161            6158     17.7947E-03     18.3992E-03
            6179            6158     17.7947E-03     18.3992E-03
            6160            6158     17.7947E-03     18.3992E-03
            6161            6159     19.9543E-03     20.5809E-03
            6179            6159     19.9543E-03     20.5809E-03
            6180            6159     19.9543E-03     20.5809E-03
            6162            6159     19.9543E-03     20.5809E-03
            6162            6160     22.1374E-03     22.7955E-03
            6180            6160     22.1374E-03     22.7955E-03
            6181            6160     22.1374E-03     22.7955E-03
            6163            6160     22.1374E-03     22.7955E-03
            6163            6161     24.3266E-03     25.0321E-03
            6182            6161     24.3266E-03     25.0321E-03
            6181            6161     24.3266E-03     25.0321E-03
            6164            6161     24.3266E-03     25.0321E-03
            6164            6162     26.5373E-03     27.2802E-03
            6182            6162     26.5373E-03     27.2802E-03
            6183            6162     26.5373E-03     27.2802E-03
            6165            6162     26.5373E-03     27.2802E-03
            6166            6163     28.7274E-03     29.5156E-03
            6183            6163     28.7274E-03     29.5156E-03
            6184            6163     28.7274E-03     29.5156E-03
            6165            6163     28.7274E-03     29.5156E-03
            6185            6164     30.8928E-03     31.6867E-03
            6166            6164     30.8928E-03     31.6867E-03
            6184            6164     30.8928E-03     31.6867E-03
            6167            6164     30.8928E-03     31.6867E-03
            6185            6165     33.0120E-03     33.7440E-03
            6186            6165     33.0120E-03     33.7440E-03
            6167            6165     33.0120E-03     33.7440E-03
            6168            6165     33.0120E-03     33.7440E-03
            6169            6166     35.0473E-03     35.6955E-03
            6187            6166     35.0473E-03     35.6955E-03
            6168            6166     35.0473E-03     35.6955E-03
            6186            6166     35.0473E-03     35.6955E-03
            6169            6167     37.1333E-03     37.5700E-03
            6188            6167     37.1333E-03     37.5700E-03
            6187            6167     37.1333E-03     37.5700E-03
            6170            6167     37.1333E-03     37.5700E-03
            6189            6168     5.31499E-03     5.50601E-03
            6172            6168     5.31499E-03     5.50601E-03
            6171            6168     5.31499E-03     5.50601E-03
            6190            6168     5.31499E-03     5.50601E-03
            6173            6169     6.41681E-03     6.87986E-03
            6190            6169     6.41681E-03     6.87986E-03
            6191            6169     6.41681E-03     6.87986E-03
            6172            6169     6.41681E-03     6.87986E-03
            6174            6170     7.98856E-03     8.53383E-03
            6173            6170     7.98856E-03     8.53383E-03
            6191            6170     7.98856E-03     8.53383E-03
            6192            6170     7.98856E-03     8.53383E-03
            6193            6171     9.80893E-03     10.3665E-03
            6174            6171     9.80893E-03     10.3665E-03
            6192            6171     9.80893E-03     10.3665E-03
            6175            6171     9.80893E-03     10.3665E-03
            6194            6172     11.7642E-03     12.2833E-03
            6176            6172     11.7642E-03     12.2833E-03
            6193            6172     11.7642E-03     12.2833E-03
            6175            6172     11.7642E-03     12.2833E-03
            6194            6173     13.7937E-03     14.2746E-03
            6177            6173     13.7937E-03     14.2746E-03
            6195            6173     13.7937E-03     14.2746E-03
            6176            6173     13.7937E-03     14.2746E-03
            6178            6174     15.8634E-03     16.3267E-03
            6195            6174     15.8634E-03     16.3267E-03
            6196            6174     15.8634E-03     16.3267E-03
            6177            6174     15.8634E-03     16.3267E-03
            6196            6175     17.9578E-03     18.4218E-03
            6179            6175     17.9578E-03     18.4218E-03
            6178            6175     17.9578E-03     18.4218E-03
            6197            6175     17.9578E-03     18.4218E-03
            6179            6176     20.0724E-03     20.5522E-03
            6180            6176     20.0724E-03     20.5522E-03
            6198            6176     20.0724E-03     20.5522E-03
            6197            6176     20.0724E-03     20.5522E-03
            6180            6177     22.1883E-03     22.7024E-03
            6181            6177     22.1883E-03     22.7024E-03
            6198            6177     22.1883E-03     22.7024E-03
            6199            6177     22.1883E-03     22.7024E-03
            6181            6178     24.3028E-03     24.8578E-03
            6200            6178     24.3028E-03     24.8578E-03
            6199            6178     24.3028E-03     24.8578E-03
            6182            6178     24.3028E-03     24.8578E-03
            6183            6179     26.3754E-03     26.9917E-03
            6200            6179     26.3754E-03     26.9917E-03
            6201            6179     26.3754E-03     26.9917E-03
            6182            6179     26.3754E-03     26.9917E-03
            6202            6180     28.3845E-03     29.0548E-03
            6183            6180     28.3845E-03     29.0548E-03
            6201            6180     28.3845E-03     29.0548E-03
            6184            6180     28.3845E-03     29.0548E-03
            6185            6181     30.2778E-03     30.9909E-03
            6203            6181     30.2778E-03     30.9909E-03
            6202            6181     30.2778E-03     30.9909E-03
            6184            6181     30.2778E-03     30.9909E-03
            6203            6182     32.0337E-03     32.7450E-03
            6204            6182     32.0337E-03     32.7450E-03
            6186            6182     32.0337E-03     32.7450E-03
            6185            6182     32.0337E-03     32.7450E-03
            6186            6183     33.7195E-03     34.3004E-03
            6205            6183     33.7195E-03     34.3004E-03
            6204            6183     33.7195E-03     34.3004E-03
            6187            6183     33.7195E-03     34.3004E-03
            6187            6184     35.3861E-03     35.8156E-03
            6206            6184     35.3861E-03     35.8156E-03
            6205            6184     35.3861E-03     35.8156E-03
            6188            6184     35.3861E-03     35.8156E-03
            6190            6185     6.10108E-03     6.34437E-03
            6208            6185     6.10108E-03     6.34437E-03
            6189            6185     6.10108E-03     6.34437E-03
            6207            6185     6.10108E-03     6.34437E-03
            6209            6186     7.06198E-03     7.49773E-03
            6191            6186     7.06198E-03     7.49773E-03
            6190            6186     7.06198E-03     7.49773E-03
            6208            6186     7.06198E-03     7.49773E-03
            6192            6187     8.48548E-03     9.01182E-03
            6191            6187     8.48548E-03     9.01182E-03
            6209            6187     8.48548E-03     9.01182E-03
            6210            6187     8.48548E-03     9.01182E-03
            6193            6188     10.1910E-03     10.6680E-03
            6192            6188     10.1910E-03     10.6680E-03
            6210            6188     10.1910E-03     10.6680E-03
            6211            6188     10.1910E-03     10.6680E-03
            6212            6189     12.0593E-03     12.4483E-03
            6211            6189     12.0593E-03     12.4483E-03
            6193            6189     12.0593E-03     12.4483E-03
            6194            6189     12.0593E-03     12.4483E-03
            6194            6190     14.0019E-03     14.3396E-03
            6195            6190     14.0019E-03     14.3396E-03
            6212            6190     14.0019E-03     14.3396E-03
            6213            6190     14.0019E-03     14.3396E-03
            6196            6191     15.9874E-03     16.2994E-03
            6213            6191     15.9874E-03     16.2994E-03
            6214            6191     15.9874E-03     16.2994E-03
            6195            6191     15.9874E-03     16.2994E-03
            6197            6192     18.0039E-03     18.3089E-03
            6214            6192     18.0039E-03     18.3089E-03
            6196            6192     18.0039E-03     18.3089E-03
            6215            6192     18.0039E-03     18.3089E-03
            6215            6193     20.0311E-03     20.3474E-03
            6216            6193     20.0311E-03     20.3474E-03
            6197            6193     20.0311E-03     20.3474E-03
            6198            6193     20.0311E-03     20.3474E-03
            6217            6194     22.0605E-03     22.3981E-03
            6199            6194     22.0605E-03     22.3981E-03
            6198            6194     22.0605E-03     22.3981E-03
            6216            6194     22.0605E-03     22.3981E-03
            6200            6195     24.0593E-03     24.4381E-03
            6217            6195     24.0593E-03     24.4381E-03
            6218            6195     24.0593E-03     24.4381E-03
            6199            6195     24.0593E-03     24.4381E-03
            6201            6196     26.0013E-03     26.4320E-03
            6218            6196     26.0013E-03     26.4320E-03
            6200            6196     26.0013E-03     26.4320E-03
            6219            6196     26.0013E-03     26.4320E-03
            6202            6197     27.8295E-03     28.3332E-03
            6220            6197     27.8295E-03     28.3332E-03
            6201            6197     27.8295E-03     28.3332E-03
            6219            6197     27.8295E-03     28.3332E-03
            6221            6198     29.4844E-03     30.0658E-03
            6220            6198     29.4844E-03     30.0658E-03
            6203            6198     29.4844E-03     30.0658E-03
            6202            6198     29.4844E-03     30.0658E-03
            6222            6199     30.9311E-03     31.5566E-03
            6221            6199     30.9311E-03     31.5566E-03
            6203            6199     30.9311E-03     31.5566E-03
            6204            6199     30.9311E-03     31.5566E-03
            6222            6200     32.2239E-03     32.8089E-03
            6204            6200     32.2239E-03     32.8089E-03
            6205            6200     32.2239E-03     32.8089E-03
            6223            6200     32.2239E-03     32.8089E-03
            6224            6201     33.5808E-03     33.9276E-03
            6206            6201     33.5808E-03     33.9276E-03
            6223            6201     33.5808E-03     33.9276E-03
            6205            6201     33.5808E-03     33.9276E-03
            6207            6202     6.94640E-03     7.18981E-03
            6208            6202     6.94640E-03     7.18981E-03
            6226            6202     6.94640E-03     7.18981E-03
            6225            6202     6.94640E-03     7.18981E-03
            6226            6203     7.74944E-03     8.28610E-03
            6208            6203     7.74944E-03     8.28610E-03
            6227            6203     7.74944E-03     8.28610E-03
            6209            6203     7.74944E-03     8.28610E-03
            6209            6204     9.01867E-03     9.53877E-03
            6227            6204     9.01867E-03     9.53877E-03
            6228            6204     9.01867E-03     9.53877E-03
            6210            6204     9.01867E-03     9.53877E-03
            6228            6205     10.6259E-03     10.9631E-03
            6210            6205     10.6259E-03     10.9631E-03
            6211            6205     10.6259E-03     10.9631E-03
            6229            6205     10.6259E-03     10.9631E-03
            6211            6206     12.3668E-03     12.5995E-03
            6212            6206     12.3668E-03     12.5995E-03
            6230            6206     12.3668E-03     12.5995E-03
            6229            6206     12.3668E-03     12.5995E-03
            6212            6207     14.1793E-03     14.3583E-03
            6231            6207     14.1793E-03     14.3583E-03
            6213            6207     14.1793E-03     14.3583E-03
            6230            6207     14.1793E-03     14.3583E-03
            6213            6208     16.0460E-03     16.1961E-03
            6231            6208     16.0460E-03     16.1961E-03
            6214            6208     16.0460E-03     16.1961E-03
            6232            6208     16.0460E-03     16.1961E-03
            6215            6209     17.9401E-03     18.0806E-03
            6232            6209     17.9401E-03     18.0806E-03
            6233            6209     17.9401E-03     18.0806E-03
            6214            6209     17.9401E-03     18.0806E-03
            6234            6210     19.8506E-03     19.9880E-03
            6233            6210     19.8506E-03     19.9880E-03
            6215            6210     19.8506E-03     19.9880E-03
            6216            6210     19.8506E-03     19.9880E-03
            6216            6211     21.7511E-03     21.8972E-03
            6235            6211     21.7511E-03     21.8972E-03
            6217            6211     21.7511E-03     21.8972E-03
            6234            6211     21.7511E-03     21.8972E-03
            6218            6212     23.6185E-03     23.7817E-03
            6217            6212     23.6185E-03     23.7817E-03
            6235            6212     23.6185E-03     23.7817E-03
            6236            6212     23.6185E-03     23.7817E-03
            6219            6213     25.4114E-03     25.6086E-03
            6236            6213     25.4114E-03     25.6086E-03
            6218            6213     25.4114E-03     25.6086E-03
            6237            6213     25.4114E-03     25.6086E-03
            6219            6214     27.0737E-03     27.3293E-03
            6237            6214     27.0737E-03     27.3293E-03
            6220            6214     27.0737E-03     27.3293E-03
            6238            6214     27.0737E-03     27.3293E-03
            6238            6215     28.5387E-03     28.8784E-03
            6220            6215     28.5387E-03     28.8784E-03
            6221            6215     28.5387E-03     28.8784E-03
            6239            6215     28.5387E-03     28.8784E-03
            6221            6216     29.7123E-03     30.1570E-03
            6239            6216     29.7123E-03     30.1570E-03
            6240            6216     29.7123E-03     30.1570E-03
            6222            6216     29.7123E-03     30.1570E-03
            6241            6217     30.6165E-03     31.1051E-03
            6222            6217     30.6165E-03     31.1051E-03
            6240            6217     30.6165E-03     31.1051E-03
            6223            6217     30.6165E-03     31.1051E-03
            6242            6218     31.5928E-03     31.9445E-03
            6223            6218     31.5928E-03     31.9445E-03
            6224            6218     31.5928E-03     31.9445E-03
            6241            6218     31.5928E-03     31.9445E-03
            6244            6219     7.81940E-03     8.44291E-03
            6226            6219     7.81940E-03     8.44291E-03
            6243            6219     7.81940E-03     8.44291E-03
            6225            6219     7.81940E-03     8.44291E-03
            6227            6220     8.44968E-03     9.16903E-03
            6226            6220     8.44968E-03     9.16903E-03
            6244            6220     8.44968E-03     9.16903E-03
            6245            6220     8.44968E-03     9.16903E-03
            6245            6221     9.69812E-03     10.0482E-03
            6228            6221     9.69812E-03     10.0482E-03
            6227            6221     9.69812E-03     10.0482E-03
            6246            6221     9.69812E-03     10.0482E-03
            6229            6222     11.1572E-03     11.2998E-03
            6247            6222     11.1572E-03     11.2998E-03
            6228            6222     11.1572E-03     11.2998E-03
            6246            6222     11.1572E-03     11.2998E-03
            6248            6223     12.7176E-03     12.7797E-03
            6229            6223     12.7176E-03     12.7797E-03
            6247            6223     12.7176E-03     12.7797E-03
            6230            6223     12.7176E-03     12.7797E-03
            6249            6224     14.3667E-03     14.3859E-03
            6230            6224     14.3667E-03     14.3859E-03
            6231            6224     14.3667E-03     14.3859E-03
            6248            6224     14.3667E-03     14.3859E-03
            6231            6225     16.0695E-03     16.0692E-03
            6232            6225     16.0695E-03     16.0692E-03
            6250            6225     16.0695E-03     16.0692E-03
            6249            6225     16.0695E-03     16.0692E-03
            6250            6226     17.8088E-03     17.7901E-03
            6251            6226     17.8088E-03     17.7901E-03
            6232            6226     17.8088E-03     17.7901E-03
            6233            6226     17.8088E-03     17.7901E-03
            6251            6227     19.5591E-03     19.5246E-03
            6252            6227     19.5591E-03     19.5246E-03
            6233            6227     19.5591E-03     19.5246E-03
            6234            6227     19.5591E-03     19.5246E-03
            6234            6228     21.2988E-03     21.2456E-03
            6235            6228     21.2988E-03     21.2456E-03
            6253            6228     21.2988E-03     21.2456E-03
            6252            6228     21.2988E-03     21.2456E-03
            6253            6229     22.9992E-03     22.9289E-03
            6236            6229     22.9992E-03     22.9289E-03
            6235            6229     22.9992E-03     22.9289E-03
            6254            6229     22.9992E-03     22.9289E-03
            6237            6230     24.6204E-03     24.5408E-03
            6254            6230     24.6204E-03     24.5408E-03
            6255            6230     24.6204E-03     24.5408E-03
            6236            6230     24.6204E-03     24.5408E-03
            6255            6231     26.1186E-03     26.0396E-03
            6237            6231     26.1186E-03     26.0396E-03
            6238            6231     26.1186E-03     26.0396E-03
            6256            6231     26.1186E-03     26.0396E-03
            6238            6232     27.4100E-03     27.3713E-03
            6256            6232     27.4100E-03     27.3713E-03
            6239            6232     27.4100E-03     27.3713E-03
            6257            6232     27.4100E-03     27.3713E-03
            6257            6233     28.4104E-03     28.4503E-03
            6258            6233     28.4104E-03     28.4503E-03
            6240            6233     28.4104E-03     28.4503E-03
            6239            6233     28.4104E-03     28.4503E-03
            6258            6234     28.9675E-03     29.1292E-03
            6241            6234     28.9675E-03     29.1292E-03
            6259            6234     28.9675E-03     29.1292E-03
            6240            6234     28.9675E-03     29.1292E-03
            6242            6235     29.4076E-03     29.5182E-03
            6260            6235     29.4076E-03     29.5182E-03
            6241            6235     29.4076E-03     29.5182E-03
            6259            6235     29.4076E-03     29.5182E-03
            6261            6236     8.61443E-03     9.66416E-03
            6262            6236     8.61443E-03     9.66416E-03
            6244            6236     8.61443E-03     9.66416E-03
            6243            6236     8.61443E-03     9.66416E-03
            6244            6237     9.47548E-03     9.84465E-03
            6245            6237     9.47548E-03     9.84465E-03
            6262            6237     9.47548E-03     9.84465E-03
            6263            6237     9.47548E-03     9.84465E-03
            6245            6238     10.5795E-03     10.5972E-03
            6246            6238     10.5795E-03     10.5972E-03
            6263            6238     10.5795E-03     10.5972E-03
            6264            6238     10.5795E-03     10.5972E-03
            6247            6239     11.8078E-03     11.7370E-03
            6246            6239     11.8078E-03     11.7370E-03
            6264            6239     11.8078E-03     11.7370E-03
            6265            6239     11.8078E-03     11.7370E-03
            6265            6240     13.1570E-03     13.0614E-03
            6266            6240     13.1570E-03     13.0614E-03
            6247            6240     13.1570E-03     13.0614E-03
            6248            6240     13.1570E-03     13.0614E-03
            6266            6241     14.6081E-03     14.5000E-03
            6249            6241     14.6081E-03     14.5000E-03
            6267            6241     14.6081E-03     14.5000E-03
            6248            6241     14.6081E-03     14.5000E-03
            6250            6242     16.1210E-03     15.9990E-03
            6267            6242     16.1210E-03     15.9990E-03
            6249            6242     16.1210E-03     15.9990E-03
            6268            6242     16.1210E-03     15.9990E-03
            6251            6243     17.6709E-03     17.5245E-03
            6268            6243     17.6709E-03     17.5245E-03
            6250            6243     17.6709E-03     17.5245E-03
            6269            6243     17.6709E-03     17.5245E-03
            6252            6244     19.2278E-03     19.0450E-03
            6251            6244     19.2278E-03     19.0450E-03
            6270            6244     19.2278E-03     19.0450E-03
            6269            6244     19.2278E-03     19.0450E-03
            6271            6245     20.7683E-03     20.5366E-03
            6253            6245     20.7683E-03     20.5366E-03
            6270            6245     20.7683E-03     20.5366E-03
            6252            6245     20.7683E-03     20.5366E-03
            6272            6246     22.2608E-03     21.9667E-03
            6254            6246     22.2608E-03     21.9667E-03
            6271            6246     22.2608E-03     21.9667E-03
            6253            6246     22.2608E-03     21.9667E-03
            6273            6247     23.6785E-03     23.3079E-03
            6255            6247     23.6785E-03     23.3079E-03
            6254            6247     23.6785E-03     23.3079E-03
            6272            6247     23.6785E-03     23.3079E-03
            6256            6248     24.9728E-03     24.5182E-03
            6274            6248     24.9728E-03     24.5182E-03
            6273            6248     24.9728E-03     24.5182E-03
            6255            6248     24.9728E-03     24.5182E-03
            6256            6249     26.0986E-03     25.5516E-03
            6275            6249     26.0986E-03     25.5516E-03
            6257            6249     26.0986E-03     25.5516E-03
            6274            6249     26.0986E-03     25.5516E-03
            6276            6250     26.9606E-03     26.3421E-03
            6275            6250     26.9606E-03     26.3421E-03
            6258            6250     26.9606E-03     26.3421E-03
            6257            6250     26.9606E-03     26.3421E-03
            6277            6251     27.3981E-03     26.7621E-03
            6258            6251     27.3981E-03     26.7621E-03
            6259            6251     27.3981E-03     26.7621E-03
            6276            6251     27.3981E-03     26.7621E-03
            6259            6252     27.2310E-03     26.5294E-03
            6260            6252     27.2310E-03     26.5294E-03
            6278            6252     27.2310E-03     26.5294E-03
            6277            6252     27.2310E-03     26.5294E-03
            6279            6253     5.43338E-03     6.31456E-03
            6261            6253     5.43338E-03     6.31456E-03
            6262            6253     5.43338E-03     6.31456E-03
            6280            6253     5.43338E-03     6.31456E-03
            6281            6254     6.32022E-03     6.74592E-03
            6262            6254     6.32022E-03     6.74592E-03
            6280            6254     6.32022E-03     6.74592E-03
            6263            6254     6.32022E-03     6.74592E-03
            6264            6255     7.17578E-03     7.55771E-03
            6282            6255     7.17578E-03     7.55771E-03
            6263            6255     7.17578E-03     7.55771E-03
            6281            6255     7.17578E-03     7.55771E-03
            6264            6256     8.15155E-03     8.57453E-03
            6283            6256     8.15155E-03     8.57453E-03
            6265            6256     8.15155E-03     8.57453E-03
            6282            6256     8.15155E-03     8.57453E-03
            6283            6257     9.21704E-03     9.66468E-03
            6284            6257     9.21704E-03     9.66468E-03
            6265            6257     9.21704E-03     9.66468E-03
            6266            6257     9.21704E-03     9.66468E-03
            6285            6258     10.3478E-03     10.8174E-03
            6284            6258     10.3478E-03     10.8174E-03
            6266            6258     10.3478E-03     10.8174E-03
            6267            6258     10.3478E-03     10.8174E-03
            6286            6259     11.5221E-03     11.9936E-03
            6285            6259     11.5221E-03     11.9936E-03
            6267            6259     11.5221E-03     11.9936E-03
            6268            6259     11.5221E-03     11.9936E-03
            6286            6260     12.7220E-03     13.1843E-03
            6268            6260     12.7220E-03     13.1843E-03
            6269            6260     12.7220E-03     13.1843E-03
            6287            6260     12.7220E-03     13.1843E-03
            6269            6261     13.9386E-03     14.3738E-03
            6287            6261     13.9386E-03     14.3738E-03
            6270            6261     13.9386E-03     14.3738E-03
            6288            6261     13.9386E-03     14.3738E-03
            6270            6262     15.1585E-03     15.5575E-03
            6289            6262     15.1585E-03     15.5575E-03
            6271            6262     15.1585E-03     15.5575E-03
            6288            6262     15.1585E-03     15.5575E-03
            6272            6263     16.3918E-03     16.7320E-03
            6271            6263     16.3918E-03     16.7320E-03
            6290            6263     16.3918E-03     16.7320E-03
            6289            6263     16.3918E-03     16.7320E-03
            6272            6264     17.6261E-03     17.9058E-03
            6290            6264     17.6261E-03     17.9058E-03
            6273            6264     17.6261E-03     17.9058E-03
            6291            6264     17.6261E-03     17.9058E-03
            6273            6265     18.9069E-03     19.0950E-03
            6291            6265     18.9069E-03     19.0950E-03
            6292            6265     18.9069E-03     19.0950E-03
            6274            6265     18.9069E-03     19.0950E-03
            6274            6266     20.2201E-03     20.3449E-03
            6292            6266     20.2201E-03     20.3449E-03
            6275            6266     20.2201E-03     20.3449E-03
            6293            6266     20.2201E-03     20.3449E-03
            6276            6267     21.7026E-03     21.7484E-03
            6275            6267     21.7026E-03     21.7484E-03
            6293            6267     21.7026E-03     21.7484E-03
            6294            6267     21.7026E-03     21.7484E-03
            6295            6268     23.3252E-03     23.4291E-03
            6277            6268     23.3252E-03     23.4291E-03
            6276            6268     23.3252E-03     23.4291E-03
            6294            6268     23.3252E-03     23.4291E-03
            6277            6269     25.8804E-03     26.5135E-03
            6278            6269     25.8804E-03     26.5135E-03
            6296            6269     25.8804E-03     26.5135E-03
            6295            6269     25.8804E-03     26.5135E-03
            6298            6270     2.27884E-03     2.76188E-03
            6279            6270     2.27884E-03     2.76188E-03
            6297            6270     2.27884E-03     2.76188E-03
            6280            6270     2.27884E-03     2.76188E-03
            6280            6271     2.80951E-03     3.52164E-03
            6281            6271     2.80951E-03     3.52164E-03
            6298            6271     2.80951E-03     3.52164E-03
            6299            6271     2.80951E-03     3.52164E-03
            6281            6272     3.54717E-03     4.36328E-03
            6299            6272     3.54717E-03     4.36328E-03
            6300            6272     3.54717E-03     4.36328E-03
            6282            6272     3.54717E-03     4.36328E-03
            6300            6273     4.37289E-03     5.26944E-03
            6283            6273     4.37289E-03     5.26944E-03
            6282            6273     4.37289E-03     5.26944E-03
            6301            6273     4.37289E-03     5.26944E-03
            6301            6274     5.24695E-03     6.20074E-03
            6283            6274     5.24695E-03     6.20074E-03
            6284            6274     5.24695E-03     6.20074E-03
            6302            6274     5.24695E-03     6.20074E-03
            6284            6275     6.15453E-03     7.14582E-03
            6285            6275     6.15453E-03     7.14582E-03
            6303            6275     6.15453E-03     7.14582E-03
            6302            6275     6.15453E-03     7.14582E-03
            6303            6276     7.08268E-03     8.09788E-03
            6304            6276     7.08268E-03     8.09788E-03
            6286            6276     7.08268E-03     8.09788E-03
            6285            6276     7.08268E-03     8.09788E-03
            6305            6277     8.03281E-03     9.06031E-03
            6304            6277     8.03281E-03     9.06031E-03
            6287            6277     8.03281E-03     9.06031E-03
            6286            6277     8.03281E-03     9.06031E-03
            6287            6278     9.00506E-03     10.0348E-03
            6288            6278     9.00506E-03     10.0348E-03
            6305            6278     9.00506E-03     10.0348E-03
            6306            6278     9.00506E-03     10.0348E-03
            6307            6279     10.0179E-03     11.0430E-03
            6289            6279     10.0179E-03     11.0430E-03
            6288            6279     10.0179E-03     11.0430E-03
            6306            6279     10.0179E-03     11.0430E-03
            6290            6280     11.0866E-03     12.1001E-03
            6289            6280     11.0866E-03     12.1001E-03
            6308            6280     11.0866E-03     12.1001E-03
            6307            6280     11.0866E-03     12.1001E-03
            6290            6281     12.2704E-03     13.2681E-03
            6291            6281     12.2704E-03     13.2681E-03
            6308            6281     12.2704E-03     13.2681E-03
            6309            6281     12.2704E-03     13.2681E-03
            6309            6282     13.6126E-03     14.5989E-03
            6310            6282     13.6126E-03     14.5989E-03
            6291            6282     13.6126E-03     14.5989E-03
            6292            6282     13.6126E-03     14.5989E-03
            6311            6283     15.2854E-03     16.2666E-03
            6292            6283     15.2854E-03     16.2666E-03
            6293            6283     15.2854E-03     16.2666E-03
            6310            6283     15.2854E-03     16.2666E-03
            6294            6284     17.4006E-03     18.4213E-03
            6293            6284     17.4006E-03     18.4213E-03
            6312            6284     17.4006E-03     18.4213E-03
            6311            6284     17.4006E-03     18.4213E-03
            6313            6285     20.6095E-03     21.7122E-03
            6294            6285     20.6095E-03     21.7122E-03
            6295            6285     20.6095E-03     21.7122E-03
            6312            6285     20.6095E-03     21.7122E-03
            6314            6286     26.0586E-03     26.9803E-03
            6295            6286     26.0586E-03     26.9803E-03
            6313            6286     26.0586E-03     26.9803E-03
            6296            6286     26.0586E-03     26.9803E-03
            6297            6287     3.03612E-03     3.09170E-03
            6316            6287     3.03612E-03     3.09170E-03
            6315            6287     3.03612E-03     3.09170E-03
            6298            6287     3.03612E-03     3.09170E-03
            6298            6288     3.43991E-03     3.82543E-03
            6316            6288     3.43991E-03     3.82543E-03
            6299            6288     3.43991E-03     3.82543E-03
            6317            6288     3.43991E-03     3.82543E-03
            6317            6289     4.07420E-03     4.64288E-03
            6299            6289     4.07420E-03     4.64288E-03
            6318            6289     4.07420E-03     4.64288E-03
            6300            6289     4.07420E-03     4.64288E-03
            6318            6290     4.84443E-03     5.51540E-03
            6319            6290     4.84443E-03     5.51540E-03
            6301            6290     4.84443E-03     5.51540E-03
            6300            6290     4.84443E-03     5.51540E-03
            6301            6291     5.68638E-03     6.42920E-03
            6319            6291     5.68638E-03     6.42920E-03
            6320            6291     5.68638E-03     6.42920E-03
            6302            6291     5.68638E-03     6.42920E-03
            6303            6292     6.57405E-03     7.36437E-03
            6302            6292     6.57405E-03     7.36437E-03
            6320            6292     6.57405E-03     7.36437E-03
            6321            6292     6.57405E-03     7.36437E-03
            6322            6293     7.49431E-03     8.31561E-03
            6321            6293     7.49431E-03     8.31561E-03
            6303            6293     7.49431E-03     8.31561E-03
            6304            6293     7.49431E-03     8.31561E-03
            6322            6294     8.43786E-03     9.28011E-03
            6304            6294     8.43786E-03     9.28011E-03
            6323            6294     8.43786E-03     9.28011E-03
            6305            6294     8.43786E-03     9.28011E-03
            6323            6295     9.41034E-03     10.2654E-03
            6324            6295     9.41034E-03     10.2654E-03
            6306            6295     9.41034E-03     10.2654E-03
            6305            6295     9.41034E-03     10.2654E-03
            6325            6296     10.4152E-03     11.2797E-03
            6307            6296     10.4152E-03     11.2797E-03
            6306            6296     10.4152E-03     11.2797E-03
            6324            6296     10.4152E-03     11.2797E-03
            6308            6297     11.4859E-03     12.3523E-03
            6326            6297     11.4859E-03     12.3523E-03
            6325            6297     11.4859E-03     12.3523E-03
            6307            6297     11.4859E-03     12.3523E-03
            6327            6298     12.6494E-03     13.5192E-03
            6308            6298     12.6494E-03     13.5192E-03
            6326            6298     12.6494E-03     13.5192E-03
            6309            6298     12.6494E-03     13.5192E-03
            6327            6299     14.0053E-03     14.8597E-03
            6310            6299     14.0053E-03     14.8597E-03
            6328            6299     14.0053E-03     14.8597E-03
            6309            6299     14.0053E-03     14.8597E-03
            6310            6300     15.6546E-03     16.4954E-03
            6328            6300     15.6546E-03     16.4954E-03
            6311            6300     15.6546E-03     16.4954E-03
            6329            6300     15.6546E-03     16.4954E-03
            6312            6301     17.8433E-03     18.6167E-03
            6311            6301     17.8433E-03     18.6167E-03
            6330            6301     17.8433E-03     18.6167E-03
            6329            6301     17.8433E-03     18.6167E-03
            6331            6302     21.2365E-03     21.7194E-03
            6330            6302     21.2365E-03     21.7194E-03
            6312            6302     21.2365E-03     21.7194E-03
            6313            6302     21.2365E-03     21.7194E-03
            6331            6303     25.2765E-03     25.3652E-03
            6313            6303     25.2765E-03     25.3652E-03
            6314            6303     25.2765E-03     25.3652E-03
            6332            6303     25.2765E-03     25.3652E-03
            6316            6304     3.61717E-03     3.51848E-03
            6334            6304     3.61717E-03     3.51848E-03
            6315            6304     3.61717E-03     3.51848E-03
            6333            6304     3.61717E-03     3.51848E-03
            6316            6305     4.02434E-03     4.15563E-03
            6334            6305     4.02434E-03     4.15563E-03
            6317            6305     4.02434E-03     4.15563E-03
            6335            6305     4.02434E-03     4.15563E-03
            6317            6306     4.59193E-03     4.93999E-03
            6318            6306     4.59193E-03     4.93999E-03
            6335            6306     4.59193E-03     4.93999E-03
            6336            6306     4.59193E-03     4.93999E-03
            6337            6307     5.30900E-03     5.78627E-03
            6318            6307     5.30900E-03     5.78627E-03
            6319            6307     5.30900E-03     5.78627E-03
            6336            6307     5.30900E-03     5.78627E-03
            6319            6308     6.12160E-03     6.67903E-03
            6338            6308     6.12160E-03     6.67903E-03
            6320            6308     6.12160E-03     6.67903E-03
            6337            6308     6.12160E-03     6.67903E-03
            6321            6309     6.99371E-03     7.60320E-03
            6339            6309     6.99371E-03     7.60320E-03
            6338            6309     6.99371E-03     7.60320E-03
            6320            6309     6.99371E-03     7.60320E-03
            6322            6310     7.90701E-03     8.55106E-03
            6340            6310     7.90701E-03     8.55106E-03
            6339            6310     7.90701E-03     8.55106E-03
            6321            6310     7.90701E-03     8.55106E-03
            6341            6311     8.85240E-03     9.52072E-03
            6340            6311     8.85240E-03     9.52072E-03
            6323            6311     8.85240E-03     9.52072E-03
            6322            6311     8.85240E-03     9.52072E-03
            6342            6312     9.82463E-03     10.5138E-03
            6341            6312     9.82463E-03     10.5138E-03
            6323            6312     9.82463E-03     10.5138E-03
            6324            6312     9.82463E-03     10.5138E-03
            6324            6313     10.8345E-03     11.5391E-03
            6325            6313     10.8345E-03     11.5391E-03
            6343            6313     10.8345E-03     11.5391E-03
            6342            6313     10.8345E-03     11.5391E-03
            6325            6314     11.8922E-03     12.6143E-03
            6326            6314     11.8922E-03     12.6143E-03
            6343            6314     11.8922E-03     12.6143E-03
            6344            6314     11.8922E-03     12.6143E-03
            6345            6315     13.0413E-03     13.7671E-03
            6326            6315     13.0413E-03     13.7671E-03
            6327            6315     13.0413E-03     13.7671E-03
            6344            6315     13.0413E-03     13.7671E-03
            6345            6316     14.3421E-03     15.0640E-03
            6346            6316     14.3421E-03     15.0640E-03
            6328            6316     14.3421E-03     15.0640E-03
            6327            6316     14.3421E-03     15.0640E-03
            6329            6317     15.8894E-03     16.5722E-03
            6328            6317     15.8894E-03     16.5722E-03
            6347            6317     15.8894E-03     16.5722E-03
            6346            6317     15.8894E-03     16.5722E-03
            6348            6318     17.9827E-03     18.5104E-03
            6347            6318     17.9827E-03     18.5104E-03
            6329            6318     17.9827E-03     18.5104E-03
            6330            6318     17.9827E-03     18.5104E-03
            6331            6319     20.5328E-03     20.9188E-03
            6348            6319     20.5328E-03     20.9188E-03
            6349            6319     20.5328E-03     20.9188E-03
            6330            6319     20.5328E-03     20.9188E-03
            6350            6320     23.2336E-03     23.7045E-03
            6349            6320     23.2336E-03     23.7045E-03
            6332            6320     23.2336E-03     23.7045E-03
            6331            6320     23.2336E-03     23.7045E-03
            6351            6321     4.14867E-03     3.98521E-03
            6333            6321     4.14867E-03     3.98521E-03
            6334            6321     4.14867E-03     3.98521E-03
            6352            6321     4.14867E-03     3.98521E-03
            6352            6322     4.51655E-03     4.54369E-03
            6353            6322     4.51655E-03     4.54369E-03
            6334            6322     4.51655E-03     4.54369E-03
            6335            6322     4.51655E-03     4.54369E-03
            6335            6323     5.06695E-03     5.25598E-03
            6353            6323     5.06695E-03     5.25598E-03
            6336            6323     5.06695E-03     5.25598E-03
            6354            6323     5.06695E-03     5.25598E-03
            6336            6324     5.74694E-03     6.06989E-03
            6355            6324     5.74694E-03     6.06989E-03
            6354            6324     5.74694E-03     6.06989E-03
            6337            6324     5.74694E-03     6.06989E-03
            6356            6325     6.53246E-03     6.93323E-03
            6355            6325     6.53246E-03     6.93323E-03
            6338            6325     6.53246E-03     6.93323E-03
            6337            6325     6.53246E-03     6.93323E-03
            6356            6326     7.39110E-03     7.83929E-03
            6338            6326     7.39110E-03     7.83929E-03
            6339            6326     7.39110E-03     7.83929E-03
            6357            6326     7.39110E-03     7.83929E-03
            6339            6327     8.29829E-03     8.77755E-03
            6340            6327     8.29829E-03     8.77755E-03
            6358            6327     8.29829E-03     8.77755E-03
            6357            6327     8.29829E-03     8.77755E-03
            6358            6328     9.24196E-03     9.74474E-03
            6340            6328     9.24196E-03     9.74474E-03
            6359            6328     9.24196E-03     9.74474E-03
            6341            6328     9.24196E-03     9.74474E-03
            6341            6329     10.2154E-03     10.7392E-03
            6342            6329     10.2154E-03     10.7392E-03
            6360            6329     10.2154E-03     10.7392E-03
            6359            6329     10.2154E-03     10.7392E-03
            6361            6330     11.2175E-03     11.7645E-03
            6342            6330     11.2175E-03     11.7645E-03
            6343            6330     11.2175E-03     11.7645E-03
            6360            6330     11.2175E-03     11.7645E-03
            6362            6331     12.2543E-03     12.8223E-03
            6344            6331     12.2543E-03     12.8223E-03
            6361            6331     12.2543E-03     12.8223E-03
            6343            6331     12.2543E-03     12.8223E-03
            6345            6332     13.3477E-03     13.9337E-03
            6363            6332     13.3477E-03     13.9337E-03
            6362            6332     13.3477E-03     13.9337E-03
            6344            6332     13.3477E-03     13.9337E-03
            6363            6333     14.5170E-03     15.1102E-03
            6364            6333     14.5170E-03     15.1102E-03
            6346            6333     14.5170E-03     15.1102E-03
            6345            6333     14.5170E-03     15.1102E-03
            6346            6334     15.8823E-03     16.4246E-03
            6365            6334     15.8823E-03     16.4246E-03
            6364            6334     15.8823E-03     16.4246E-03
            6347            6334     15.8823E-03     16.4246E-03
            6347            6335     17.4420E-03     17.9275E-03
            6365            6335     17.4420E-03     17.9275E-03
            6348            6335     17.4420E-03     17.9275E-03
            6366            6335     17.4420E-03     17.9275E-03
            6348            6336     19.2219E-03     19.6542E-03
            6349            6336     19.2219E-03     19.6542E-03
            6367            6336     19.2219E-03     19.6542E-03
            6366            6336     19.2219E-03     19.6542E-03
            6367            6337     21.3944E-03     21.6448E-03
            6349            6337     21.3944E-03     21.6448E-03
            6350            6337     21.3944E-03     21.6448E-03
            6368            6337     21.3944E-03     21.6448E-03
            6370            6338     4.63756E-03     4.44317E-03
            6351            6338     4.63756E-03     4.44317E-03
            6369            6338     4.63756E-03     4.44317E-03
            6352            6338     4.63756E-03     4.44317E-03
            6353            6339     4.98055E-03     4.94229E-03
            6370            6339     4.98055E-03     4.94229E-03
            6352            6339     4.98055E-03     4.94229E-03
            6371            6339     4.98055E-03     4.94229E-03
            6371            6340     5.48856E-03     5.60281E-03
            6353            6340     5.48856E-03     5.60281E-03
            6354            6340     5.48856E-03     5.60281E-03
            6372            6340     5.48856E-03     5.60281E-03
            6355            6341     6.14445E-03     6.35382E-03
            6372            6341     6.14445E-03     6.35382E-03
            6373            6341     6.14445E-03     6.35382E-03
            6354            6341     6.14445E-03     6.35382E-03
            6355            6342     6.90759E-03     7.17929E-03
            6374            6342     6.90759E-03     7.17929E-03
            6373            6342     6.90759E-03     7.17929E-03
            6356            6342     6.90759E-03     7.17929E-03
            6374            6343     7.74795E-03     8.05192E-03
            6375            6343     7.74795E-03     8.05192E-03
            6356            6343     7.74795E-03     8.05192E-03
            6357            6343     7.74795E-03     8.05192E-03
            6375            6344     8.64485E-03     8.96709E-03
            6357            6344     8.64485E-03     8.96709E-03
            6376            6344     8.64485E-03     8.96709E-03
            6358            6344     8.64485E-03     8.96709E-03
            6377            6345     9.57904E-03     9.91829E-03
            6358            6345     9.57904E-03     9.91829E-03
            6359            6345     9.57904E-03     9.91829E-03
            6376            6345     9.57904E-03     9.91829E-03
            6377            6346     10.5424E-03     10.9006E-03
            6378            6346     10.5424E-03     10.9006E-03
            6360            6346     10.5424E-03     10.9006E-03
            6359            6346     10.5424E-03     10.9006E-03
            6379            6347     11.5231E-03     11.9046E-03
            6360            6347     11.5231E-03     11.9046E-03
            6378            6347     11.5231E-03     11.9046E-03
            6361            6347     11.5231E-03     11.9046E-03
            6362            6348     12.5210E-03     12.9290E-03
            6380            6348     12.5210E-03     12.9290E-03
            6379            6348     12.5210E-03     12.9290E-03
            6361            6348     12.5210E-03     12.9290E-03
            6363            6349     13.5139E-03     13.9562E-03
            6380            6349     13.5139E-03     13.9562E-03
            6362            6349     13.5139E-03     13.9562E-03
            6381            6349     13.5139E-03     13.9562E-03
            6381            6350     14.5265E-03     14.9849E-03
            6364            6350     14.5265E-03     14.9849E-03
            6382            6350     14.5265E-03     14.9849E-03
            6363            6350     14.5265E-03     14.9849E-03
            6382            6351     15.5353E-03     16.0090E-03
            6383            6351     15.5353E-03     16.0090E-03
            6364            6351     15.5353E-03     16.0090E-03
            6365            6351     15.5353E-03     16.0090E-03
            6366            6352     16.5923E-03     17.0394E-03
            6384            6352     16.5923E-03     17.0394E-03
            6365            6352     16.5923E-03     17.0394E-03
            6383            6352     16.5923E-03     17.0394E-03
            6367            6353     17.8521E-03     18.1798E-03
            6384            6353     17.8521E-03     18.1798E-03
            6366            6353     17.8521E-03     18.1798E-03
            6385            6353     17.8521E-03     18.1798E-03
            6367            6354     19.4380E-03     19.7079E-03
            6386            6354     19.4380E-03     19.7079E-03
            6368            6354     19.4380E-03     19.7079E-03
            6385            6354     19.4380E-03     19.7079E-03
            6369            6355     5.10846E-03     4.90675E-03
            6387            6355     5.10846E-03     4.90675E-03
            6388            6355     5.10846E-03     4.90675E-03
            6370            6355     5.10846E-03     4.90675E-03
            6371            6356     5.40395E-03     5.36782E-03
            6389            6356     5.40395E-03     5.36782E-03
            6370            6356     5.40395E-03     5.36782E-03
            6388            6356     5.40395E-03     5.36782E-03
            6372            6357     5.87954E-03     5.95068E-03
            6390            6357     5.87954E-03     5.95068E-03
            6389            6357     5.87954E-03     5.95068E-03
            6371            6357     5.87954E-03     5.95068E-03
            6390            6358     6.50380E-03     6.64473E-03
            6372            6358     6.50380E-03     6.64473E-03
            6391            6358     6.50380E-03     6.64473E-03
            6373            6358     6.50380E-03     6.64473E-03
            6391            6359     7.23961E-03     7.40472E-03
            6373            6359     7.23961E-03     7.40472E-03
            6392            6359     7.23961E-03     7.40472E-03
            6374            6359     7.23961E-03     7.40472E-03
            6393            6360     8.05859E-03     8.22503E-03
            6392            6360     8.05859E-03     8.22503E-03
            6374            6360     8.05859E-03     8.22503E-03
            6375            6360     8.05859E-03     8.22503E-03
            6393            6361     8.93080E-03     9.09967E-03
            6375            6361     8.93080E-03     9.09967E-03
            6376            6361     8.93080E-03     9.09967E-03
            6394            6361     8.93080E-03     9.09967E-03
            6377            6362     9.84219E-03     10.0167E-03
            6394            6362     9.84219E-03     10.0167E-03
            6395            6362     9.84219E-03     10.0167E-03
            6376            6362     9.84219E-03     10.0167E-03
            6395            6363     10.7760E-03     10.9633E-03
            6377            6363     10.7760E-03     10.9633E-03
            6396            6363     10.7760E-03     10.9633E-03
            6378            6363     10.7760E-03     10.9633E-03
            6396            6364     11.7232E-03     11.9290E-03
            6397            6364     11.7232E-03     11.9290E-03
            6378            6364     11.7232E-03     11.9290E-03
            6379            6364     11.7232E-03     11.9290E-03
            6379            6365     12.6517E-03     12.8896E-03
            6380            6365     12.6517E-03     12.8896E-03
            6398            6365     12.6517E-03     12.8896E-03
            6397            6365     12.6517E-03     12.8896E-03
            6399            6366     13.5499E-03     13.8214E-03
            6380            6366     13.5499E-03     13.8214E-03
            6398            6366     13.5499E-03     13.8214E-03
            6381            6366     13.5499E-03     13.8214E-03
            6382            6367     14.3481E-03     14.6780E-03
            6381            6367     14.3481E-03     14.6780E-03
            6400            6367     14.3481E-03     14.6780E-03
            6399            6367     14.3481E-03     14.6780E-03
            6383            6368     15.0270E-03     15.4031E-03
            6401            6368     15.0270E-03     15.4031E-03
            6400            6368     15.0270E-03     15.4031E-03
            6382            6368     15.0270E-03     15.4031E-03
            6383            6369     15.6378E-03     16.0090E-03
            6401            6369     15.6378E-03     16.0090E-03
            6384            6369     15.6378E-03     16.0090E-03
            6402            6369     15.6378E-03     16.0090E-03
            6384            6370     16.3314E-03     16.6606E-03
            6403            6370     16.3314E-03     16.6606E-03
            6385            6370     16.3314E-03     16.6606E-03
            6402            6370     16.3314E-03     16.6606E-03
            6385            6371     17.5341E-03     17.6985E-03
            6403            6371     17.5341E-03     17.6985E-03
            6404            6371     17.5341E-03     17.6985E-03
            6386            6371     17.5341E-03     17.6985E-03
            6405            6372     5.54317E-03     5.42058E-03
            6406            6372     5.54317E-03     5.42058E-03
            6388            6372     5.54317E-03     5.42058E-03
            6387            6372     5.54317E-03     5.42058E-03
            6388            6373     5.80868E-03     5.79463E-03
            6389            6373     5.80868E-03     5.79463E-03
            6407            6373     5.80868E-03     5.79463E-03
            6406            6373     5.80868E-03     5.79463E-03
            6389            6374     6.24709E-03     6.33087E-03
            6407            6374     6.24709E-03     6.33087E-03
            6408            6374     6.24709E-03     6.33087E-03
            6390            6374     6.24709E-03     6.33087E-03
            6409            6375     6.83308E-03     6.93231E-03
            6391            6375     6.83308E-03     6.93231E-03
            6390            6375     6.83308E-03     6.93231E-03
            6408            6375     6.83308E-03     6.93231E-03
            6409            6376     7.54274E-03     7.60193E-03
            6392            6376     7.54274E-03     7.60193E-03
            6410            6376     7.54274E-03     7.60193E-03
            6391            6376     7.54274E-03     7.60193E-03
            6410            6377     8.32367E-03     8.35425E-03
            6393            6377     8.32367E-03     8.35425E-03
            6392            6377     8.32367E-03     8.35425E-03
            6411            6377     8.32367E-03     8.35425E-03
            6411            6378     9.15387E-03     9.16779E-03
            6394            6378     9.15387E-03     9.16779E-03
            6412            6378     9.15387E-03     9.16779E-03
            6393            6378     9.15387E-03     9.16779E-03
            6412            6379     10.0187E-03     10.0263E-03
            6394            6379     10.0187E-03     10.0263E-03
            6395            6379     10.0187E-03     10.0263E-03
            6413            6379     10.0187E-03     10.0263E-03
            6396            6380     10.9055E-03     10.9149E-03
            6413            6380     10.9055E-03     10.9149E-03
            6395            6380     10.9055E-03     10.9149E-03
            6414            6380     10.9055E-03     10.9149E-03
            6397            6381     11.7888E-03     11.8110E-03
            6415            6381     11.7888E-03     11.8110E-03
            6414            6381     11.7888E-03     11.8110E-03
            6396            6381     11.7888E-03     11.8110E-03
            6416            6382     12.6491E-03     12.6908E-03
            6415            6382     12.6491E-03     12.6908E-03
            6398            6382     12.6491E-03     12.6908E-03
            6397            6382     12.6491E-03     12.6908E-03
            6399            6383     13.4236E-03     13.5082E-03
            6398            6383     13.4236E-03     13.5082E-03
            6417            6383     13.4236E-03     13.5082E-03
            6416            6383     13.4236E-03     13.5082E-03
            6417            6384     14.0620E-03     14.2025E-03
            6418            6384     14.0620E-03     14.2025E-03
            6400            6384     14.0620E-03     14.2025E-03
            6399            6384     14.0620E-03     14.2025E-03
            6419            6385     14.4575E-03     14.6854E-03
            6401            6385     14.4575E-03     14.6854E-03
            6418            6385     14.4575E-03     14.6854E-03
            6400            6385     14.4575E-03     14.6854E-03
            6420            6386     14.5973E-03     14.9063E-03
            6402            6386     14.5973E-03     14.9063E-03
            6401            6386     14.5973E-03     14.9063E-03
            6419            6386     14.5973E-03     14.9063E-03
            6402            6387     14.7887E-03     15.0414E-03
            6421            6387     14.7887E-03     15.0414E-03
            6420            6387     14.7887E-03     15.0414E-03
            6403            6387     14.7887E-03     15.0414E-03
            6403            6388     15.5179E-03     15.6478E-03
            6421            6388     15.5179E-03     15.6478E-03
            6404            6388     15.5179E-03     15.6478E-03
            6422            6388     15.5179E-03     15.6478E-03
            6406            6389     5.99196E-03     5.90561E-03
            6424            6389     5.99196E-03     5.90561E-03
            6423            6389     5.99196E-03     5.90561E-03
            6405            6389     5.99196E-03     5.90561E-03
            6425            6390     6.20391E-03     6.31946E-03
            6407            6390     6.20391E-03     6.31946E-03
            6424            6390     6.20391E-03     6.31946E-03
            6406            6390     6.20391E-03     6.31946E-03
            6408            6391     6.58952E-03     6.74000E-03
            6426            6391     6.58952E-03     6.74000E-03
            6407            6391     6.58952E-03     6.74000E-03
            6425            6391     6.58952E-03     6.74000E-03
            6408            6392     7.16946E-03     7.19915E-03
            6409            6392     7.16946E-03     7.19915E-03
            6427            6392     7.16946E-03     7.19915E-03
            6426            6392     7.16946E-03     7.19915E-03
            6427            6393     7.83718E-03     7.77933E-03
            6428            6393     7.83718E-03     7.77933E-03
            6409            6393     7.83718E-03     7.77933E-03
            6410            6393     7.83718E-03     7.77933E-03
            6428            6394     8.55700E-03     8.44816E-03
            6429            6394     8.55700E-03     8.44816E-03
            6411            6394     8.55700E-03     8.44816E-03
            6410            6394     8.55700E-03     8.44816E-03
            6411            6395     9.32198E-03     9.18031E-03
            6430            6395     9.32198E-03     9.18031E-03
            6429            6395     9.32198E-03     9.18031E-03
            6412            6395     9.32198E-03     9.18031E-03
            6430            6396     10.1166E-03     9.95686E-03
            6412            6396     10.1166E-03     9.95686E-03
            6413            6396     10.1166E-03     9.95686E-03
            6431            6396     10.1166E-03     9.95686E-03
            6414            6397     10.9245E-03     10.7552E-03
            6432            6397     10.9245E-03     10.7552E-03
            6431            6397     10.9245E-03     10.7552E-03
            6413            6397     10.9245E-03     10.7552E-03
            6415            6398     11.7279E-03     11.5543E-03
            6414            6398     11.7279E-03     11.5543E-03
            6432            6398     11.7279E-03     11.5543E-03
            6433            6398     11.7279E-03     11.5543E-03
            6416            6399     12.4865E-03     12.3209E-03
            6433            6399     12.4865E-03     12.3209E-03
            6415            6399     12.4865E-03     12.3209E-03
            6434            6399     12.4865E-03     12.3209E-03
            6417            6400     13.1579E-03     13.0104E-03
            6434            6400     13.1579E-03     13.0104E-03
            6435            6400     13.1579E-03     13.0104E-03
            6416            6400     13.1579E-03     13.0104E-03
            6435            6401     13.6499E-03     13.5495E-03
            6418            6401     13.6499E-03     13.5495E-03
            6436            6401     13.6499E-03     13.5495E-03
            6417            6401     13.6499E-03     13.5495E-03
            6436            6402     13.8670E-03     13.8489E-03
            6419            6402     13.8670E-03     13.8489E-03
            6437            6402     13.8670E-03     13.8489E-03
            6418            6402     13.8670E-03     13.8489E-03
            6438            6403     13.6405E-03     13.7589E-03
            6420            6403     13.6405E-03     13.7589E-03
            6437            6403     13.6405E-03     13.7589E-03
            6419            6403     13.6405E-03     13.7589E-03
            6439            6404     13.1534E-03     13.3683E-03
            6420            6404     13.1534E-03     13.3683E-03
            6438            6404     13.1534E-03     13.3683E-03
            6421            6404     13.1534E-03     13.3683E-03
            6440            6405     13.4272E-03     13.4499E-03
            6439            6405     13.4272E-03     13.4499E-03
            6421            6405     13.4272E-03     13.4499E-03
            6422            6405     13.4272E-03     13.4499E-03
            6442            6406     6.41327E-03     6.67987E-03
            6423            6406     6.41327E-03     6.67987E-03
            6424            6406     6.41327E-03     6.67987E-03
            6441            6406     6.41327E-03     6.67987E-03
            6442            6407     6.54038E-03     6.91267E-03
            6443            6407     6.54038E-03     6.91267E-03
            6425            6407     6.54038E-03     6.91267E-03
            6424            6407     6.54038E-03     6.91267E-03
            6425            6408     6.99636E-03     7.10073E-03
            6426            6408     6.99636E-03     7.10073E-03
            6444            6408     6.99636E-03     7.10073E-03
            6443            6408     6.99636E-03     7.10073E-03
            6445            6409     7.55163E-03     7.46103E-03
            6426            6409     7.55163E-03     7.46103E-03
            6444            6409     7.55163E-03     7.46103E-03
            6427            6409     7.55163E-03     7.46103E-03
            6445            6410     8.14389E-03     7.95746E-03
            6428            6410     8.14389E-03     7.95746E-03
            6427            6410     8.14389E-03     7.95746E-03
            6446            6410     8.14389E-03     7.95746E-03
            6429            6411     8.78462E-03     8.53456E-03
            6428            6411     8.78462E-03     8.53456E-03
            6446            6411     8.78462E-03     8.53456E-03
            6447            6411     8.78462E-03     8.53456E-03
            6430            6412     9.45927E-03     9.17064E-03
            6429            6412     9.45927E-03     9.17064E-03
            6447            6412     9.45927E-03     9.17064E-03
            6448            6412     9.45927E-03     9.17064E-03
            6448            6413     10.1565E-03     9.83851E-03
            6431            6413     10.1565E-03     9.83851E-03
            6449            6413     10.1565E-03     9.83851E-03
            6430            6413     10.1565E-03     9.83851E-03
            6431            6414     10.8609E-03     10.5176E-03
            6449            6414     10.8609E-03     10.5176E-03
            6450            6414     10.8609E-03     10.5176E-03
            6432            6414     10.8609E-03     10.5176E-03
            6433            6415     11.5475E-03     11.1828E-03
            6450            6415     11.5475E-03     11.1828E-03
            6451            6415     11.5475E-03     11.1828E-03
            6432            6415     11.5475E-03     11.1828E-03
            6433            6416     12.1863E-03     11.8012E-03
            6451            6416     12.1863E-03     11.8012E-03
            6452            6416     12.1863E-03     11.8012E-03
            6434            6416     12.1863E-03     11.8012E-03
            6434            6417     12.7281E-03     12.3288E-03
            6435            6417     12.7281E-03     12.3288E-03
            6453            6417     12.7281E-03     12.3288E-03
            6452            6417     12.7281E-03     12.3288E-03
            6453            6418     13.0986E-03     12.7003E-03
            6436            6418     13.0986E-03     12.7003E-03
            6454            6418     13.0986E-03     12.7003E-03
            6435            6418     13.0986E-03     12.7003E-03
            6454            6419     13.1873E-03     12.8143E-03
            6436            6419     13.1873E-03     12.8143E-03
            6455            6419     13.1873E-03     12.8143E-03
            6437            6419     13.1873E-03     12.8143E-03
            6437            6420     12.8301E-03     12.5501E-03
            6438            6420     12.8301E-03     12.5501E-03
            6456            6420     12.8301E-03     12.5501E-03
            6455            6420     12.8301E-03     12.5501E-03
            6457            6421     11.7348E-03     11.6584E-03
            6439            6421     11.7348E-03     11.6584E-03
            6456            6421     11.7348E-03     11.6584E-03
            6438            6421     11.7348E-03     11.6584E-03
            6457            6422     11.1633E-03     11.1207E-03
            6458            6422     11.1633E-03     11.1207E-03
            6439            6422     11.1633E-03     11.1207E-03
            6440            6422     11.1633E-03     11.1207E-03
            6460            6423     6.71274E-03     7.44286E-03
            6459            6423     6.71274E-03     7.44286E-03
            6442            6423     6.71274E-03     7.44286E-03
            6441            6423     6.71274E-03     7.44286E-03
            6460            6424     7.07781E-03     7.30187E-03
            6442            6424     7.07781E-03     7.30187E-03
            6461            6424     7.07781E-03     7.30187E-03
            6443            6424     7.07781E-03     7.30187E-03
            6461            6425     7.52840E-03     7.42011E-03
            6443            6425     7.52840E-03     7.42011E-03
            6444            6425     7.52840E-03     7.42011E-03
            6462            6425     7.52840E-03     7.42011E-03
            6445            6426     7.99032E-03     7.74929E-03
            6463            6426     7.99032E-03     7.74929E-03
            6462            6426     7.99032E-03     7.74929E-03
            6444            6426     7.99032E-03     7.74929E-03
            6445            6427     8.49050E-03     8.17241E-03
            6446            6427     8.49050E-03     8.17241E-03
            6463            6427     8.49050E-03     8.17241E-03
            6464            6427     8.49050E-03     8.17241E-03
            6465            6428     9.03496E-03     8.66204E-03
            6464            6428     9.03496E-03     8.66204E-03
            6446            6428     9.03496E-03     8.66204E-03
            6447            6428     9.03496E-03     8.66204E-03
            6466            6429     9.60420E-03     9.18988E-03
            6465            6429     9.60420E-03     9.18988E-03
            6448            6429     9.60420E-03     9.18988E-03
            6447            6429     9.60420E-03     9.18988E-03
            6448            6430     10.1877E-03     9.73194E-03
            6466            6430     10.1877E-03     9.73194E-03
            6467            6430     10.1877E-03     9.73194E-03
            6449            6430     10.1877E-03     9.73194E-03
            6468            6431     10.7619E-03     10.2670E-03
            6449            6431     10.7619E-03     10.2670E-03
            6450            6431     10.7619E-03     10.2670E-03
            6467            6431     10.7619E-03     10.2670E-03
            6451            6432     11.3050E-03     10.7649E-03
            6468            6432     11.3050E-03     10.7649E-03
            6450            6432     11.3050E-03     10.7649E-03
            6469            6432     11.3050E-03     10.7649E-03
            6470            6433     11.7866E-03     11.1976E-03
            6452            6433     11.7866E-03     11.1976E-03
            6469            6433     11.7866E-03     11.1976E-03
            6451            6433     11.7866E-03     11.1976E-03
            6453            6434     12.1616E-03     11.5153E-03
            6452            6434     12.1616E-03     11.5153E-03
            6470            6434     12.1616E-03     11.5153E-03
            6471            6434     12.1616E-03     11.5153E-03
            6453            6435     12.3846E-03     11.6693E-03
            6471            6435     12.3846E-03     11.6693E-03
            6454            6435     12.3846E-03     11.6693E-03
            6472            6435     12.3846E-03     11.6693E-03
            6473            6436     12.3465E-03     11.5625E-03
            6455            6436     12.3465E-03     11.5625E-03
            6472            6436     12.3465E-03     11.5625E-03
            6454            6436     12.3465E-03     11.5625E-03
            6455            6437     11.9590E-03     11.0982E-03
            6474            6437     11.9590E-03     11.0982E-03
            6473            6437     11.9590E-03     11.0982E-03
            6456            6437     11.9590E-03     11.0982E-03
            6474            6438     10.8481E-03     9.99500E-03
            6475            6438     10.8481E-03     9.99500E-03
            6456            6438     10.8481E-03     9.99500E-03
            6457            6438     10.8481E-03     9.99500E-03
            6458            6439     9.29738E-03     8.69710E-03
            6457            6439     9.29738E-03     8.69710E-03
            6475            6439     9.29738E-03     8.69710E-03
            6476            6439     9.29738E-03     8.69710E-03
            6460            6440     5.40168E-03     6.08349E-03
            6459            6440     5.40168E-03     6.08349E-03
            6478            6440     5.40168E-03     6.08349E-03
            6477            6440     5.40168E-03     6.08349E-03
            6478            6441     5.82428E-03     5.97152E-03
            6479            6441     5.82428E-03     5.97152E-03
            6460            6441     5.82428E-03     5.97152E-03
            6461            6441     5.82428E-03     5.97152E-03
            6461            6442     6.03136E-03     6.05816E-03
            6462            6442     6.03136E-03     6.05816E-03
            6479            6442     6.03136E-03     6.05816E-03
            6480            6442     6.03136E-03     6.05816E-03
            6480            6443     6.24897E-03     6.28365E-03
            6463            6443     6.24897E-03     6.28365E-03
            6481            6443     6.24897E-03     6.28365E-03
            6462            6443     6.24897E-03     6.28365E-03
            6464            6444     6.47855E-03     6.51449E-03
            6463            6444     6.47855E-03     6.51449E-03
            6481            6444     6.47855E-03     6.51449E-03
            6482            6444     6.47855E-03     6.51449E-03
            6465            6445     6.73652E-03     6.77907E-03
            6464            6445     6.73652E-03     6.77907E-03
            6483            6445     6.73652E-03     6.77907E-03
            6482            6445     6.73652E-03     6.77907E-03
            6465            6446     7.00665E-03     7.05472E-03
            6466            6446     7.00665E-03     7.05472E-03
            6483            6446     7.00665E-03     7.05472E-03
            6484            6446     7.00665E-03     7.05472E-03
            6466            6447     7.28389E-03     7.33656E-03
            6467            6447     7.28389E-03     7.33656E-03
            6484            6447     7.28389E-03     7.33656E-03
            6485            6447     7.28389E-03     7.33656E-03
            6485            6448     7.55475E-03     7.60936E-03
            6486            6448     7.55475E-03     7.60936E-03
            6468            6448     7.55475E-03     7.60936E-03
            6467            6448     7.55475E-03     7.60936E-03
            6468            6449     7.81190E-03     7.86280E-03
            6487            6449     7.81190E-03     7.86280E-03
            6469            6449     7.81190E-03     7.86280E-03
            6486            6449     7.81190E-03     7.86280E-03
            6469            6450     8.03191E-03     8.07313E-03
            6487            6450     8.03191E-03     8.07313E-03
            6470            6450     8.03191E-03     8.07313E-03
            6488            6450     8.03191E-03     8.07313E-03
            6471            6451     8.20249E-03     8.22297E-03
            6489            6451     8.20249E-03     8.22297E-03
            6470            6451     8.20249E-03     8.22297E-03
            6488            6451     8.20249E-03     8.22297E-03
            6489            6452     8.27153E-03     8.26389E-03
            6490            6452     8.27153E-03     8.26389E-03
            6471            6452     8.27153E-03     8.26389E-03
            6472            6452     8.27153E-03     8.26389E-03
            6473            6453     8.20167E-03     8.16631E-03
            6491            6453     8.20167E-03     8.16631E-03
            6490            6453     8.20167E-03     8.16631E-03
            6472            6453     8.20167E-03     8.16631E-03
            6473            6454     7.89187E-03     7.85493E-03
            6492            6454     7.89187E-03     7.85493E-03
            6474            6454     7.89187E-03     7.85493E-03
            6491            6454     7.89187E-03     7.85493E-03
            6493            6455     7.52162E-03     7.55823E-03
            6475            6455     7.52162E-03     7.55823E-03
            6492            6455     7.52162E-03     7.55823E-03
            6474            6455     7.52162E-03     7.55823E-03
            6494            6456     8.01344E-03     8.51395E-03
            6493            6456     8.01344E-03     8.51395E-03
            6476            6456     8.01344E-03     8.51395E-03
            6475            6456     8.01344E-03     8.51395E-03
            6477            6457     4.24364E-03     4.52123E-03
            6496            6457     4.24364E-03     4.52123E-03
            6478            6457     4.24364E-03     4.52123E-03
            6495            6457     4.24364E-03     4.52123E-03
            6479            6458     4.28343E-03     4.50363E-03
            6497            6458     4.28343E-03     4.50363E-03
            6478            6458     4.28343E-03     4.50363E-03
            6496            6458     4.28343E-03     4.50363E-03
            6480            6459     4.32735E-03     4.55946E-03
            6479            6459     4.32735E-03     4.55946E-03
            6498            6459     4.32735E-03     4.55946E-03
            6497            6459     4.32735E-03     4.55946E-03
            6480            6460     4.34288E-03     4.63951E-03
            6499            6460     4.34288E-03     4.63951E-03
            6498            6460     4.34288E-03     4.63951E-03
            6481            6460     4.34288E-03     4.63951E-03
            6500            6461     4.36018E-03     4.70166E-03
            6481            6461     4.36018E-03     4.70166E-03
            6482            6461     4.36018E-03     4.70166E-03
            6499            6461     4.36018E-03     4.70166E-03
            6500            6462     4.38625E-03     4.77374E-03
            6482            6462     4.38625E-03     4.77374E-03
            6501            6462     4.38625E-03     4.77374E-03
            6483            6462     4.38625E-03     4.77374E-03
            6502            6463     4.41705E-03     4.84485E-03
            6501            6463     4.41705E-03     4.84485E-03
            6484            6463     4.41705E-03     4.84485E-03
            6483            6463     4.41705E-03     4.84485E-03
            6485            6464     4.45255E-03     4.92435E-03
            6484            6464     4.45255E-03     4.92435E-03
            6502            6464     4.45255E-03     4.92435E-03
            6503            6464     4.45255E-03     4.92435E-03
            6503            6465     4.49756E-03     5.00559E-03
            6485            6465     4.49756E-03     5.00559E-03
            6486            6465     4.49756E-03     5.00559E-03
            6504            6465     4.49756E-03     5.00559E-03
            6504            6466     4.54764E-03     5.09644E-03
            6487            6466     4.54764E-03     5.09644E-03
            6505            6466     4.54764E-03     5.09644E-03
            6486            6466     4.54764E-03     5.09644E-03
            6488            6467     4.61017E-03     5.18879E-03
            6487            6467     4.61017E-03     5.18879E-03
            6505            6467     4.61017E-03     5.18879E-03
            6506            6467     4.61017E-03     5.18879E-03
            6506            6468     4.67743E-03     5.28899E-03
            6488            6468     4.67743E-03     5.28899E-03
            6489            6468     4.67743E-03     5.28899E-03
            6507            6468     4.67743E-03     5.28899E-03
            6490            6469     4.73180E-03     5.37394E-03
            6489            6469     4.73180E-03     5.37394E-03
            6508            6469     4.73180E-03     5.37394E-03
            6507            6469     4.73180E-03     5.37394E-03
            6508            6470     4.77936E-03     5.46542E-03
            6491            6470     4.77936E-03     5.46542E-03
            6509            6470     4.77936E-03     5.46542E-03
            6490            6470     4.77936E-03     5.46542E-03
            6509            6471     4.63595E-03     5.46856E-03
            6510            6471     4.63595E-03     5.46856E-03
            6492            6471     4.63595E-03     5.46856E-03
            6491            6471     4.63595E-03     5.46856E-03
            6493            6472     4.87780E-03     5.83295E-03
            6511            6472     4.87780E-03     5.83295E-03
            6510            6472     4.87780E-03     5.83295E-03
            6492            6472     4.87780E-03     5.83295E-03
            6494            6473     7.11467E-03     8.04912E-03
            6512            6473     7.11467E-03     8.04912E-03
            6511            6473     7.11467E-03     8.04912E-03
            6493            6473     7.11467E-03     8.04912E-03
            6514            6474     4.72956E-03     4.29619E-03
            6513            6474     4.72956E-03     4.29619E-03
            6495            6474     4.72956E-03     4.29619E-03
            6496            6474     4.72956E-03     4.29619E-03
            6496            6475     4.55506E-03     4.53505E-03
            6515            6475     4.55506E-03     4.53505E-03
            6497            6475     4.55506E-03     4.53505E-03
            6514            6475     4.55506E-03     4.53505E-03
            6515            6476     4.48769E-03     4.60312E-03
            6498            6476     4.48769E-03     4.60312E-03
            6516            6476     4.48769E-03     4.60312E-03
            6497            6476     4.48769E-03     4.60312E-03
            6516            6477     4.50854E-03     4.61671E-03
            6498            6477     4.50854E-03     4.61671E-03
            6499            6477     4.50854E-03     4.61671E-03
            6517            6477     4.50854E-03     4.61671E-03
            6518            6478     4.53818E-03     4.65909E-03
            6517            6478     4.53818E-03     4.65909E-03
            6499            6478     4.53818E-03     4.65909E-03
            6500            6478     4.53818E-03     4.65909E-03
            6519            6479     4.57007E-03     4.70757E-03
            6518            6479     4.57007E-03     4.70757E-03
            6500            6479     4.57007E-03     4.70757E-03
            6501            6479     4.57007E-03     4.70757E-03
            6520            6480     4.61000E-03     4.76424E-03
            6501            6480     4.61000E-03     4.76424E-03
            6502            6480     4.61000E-03     4.76424E-03
            6519            6480     4.61000E-03     4.76424E-03
            6503            6481     4.65585E-03     4.82394E-03
            6520            6481     4.65585E-03     4.82394E-03
            6502            6481     4.65585E-03     4.82394E-03
            6521            6481     4.65585E-03     4.82394E-03
            6521            6482     4.70745E-03     4.89145E-03
            6522            6482     4.70745E-03     4.89145E-03
            6503            6482     4.70745E-03     4.89145E-03
            6504            6482     4.70745E-03     4.89145E-03
            6522            6483     4.76850E-03     4.96433E-03
            6523            6483     4.76850E-03     4.96433E-03
            6504            6483     4.76850E-03     4.96433E-03
            6505            6483     4.76850E-03     4.96433E-03
            6523            6484     4.84203E-03     5.05213E-03
            6505            6484     4.84203E-03     5.05213E-03
            6506            6484     4.84203E-03     5.05213E-03
            6524            6484     4.84203E-03     5.05213E-03
            6524            6485     4.93698E-03     5.15667E-03
            6525            6485     4.93698E-03     5.15667E-03
            6506            6485     4.93698E-03     5.15667E-03
            6507            6485     4.93698E-03     5.15667E-03
            6507            6486     5.06745E-03     5.29732E-03
            6525            6486     5.06745E-03     5.29732E-03
            6508            6486     5.06745E-03     5.29732E-03
            6526            6486     5.06745E-03     5.29732E-03
            6526            6487     5.21311E-03     5.44958E-03
            6508            6487     5.21311E-03     5.44958E-03
            6527            6487     5.21311E-03     5.44958E-03
            6509            6487     5.21311E-03     5.44958E-03
            6528            6488     5.30249E-03     5.55937E-03
            6527            6488     5.30249E-03     5.55937E-03
            6510            6488     5.30249E-03     5.55937E-03
            6509            6488     5.30249E-03     5.55937E-03
            6528            6489     4.94978E-03     5.33188E-03
            6529            6489     4.94978E-03     5.33188E-03
            6510            6489     4.94978E-03     5.33188E-03
            6511            6489     4.94978E-03     5.33188E-03
            6529            6490     5.37682E-03     5.34148E-03
            6512            6490     5.37682E-03     5.34148E-03
            6511            6490     5.37682E-03     5.34148E-03
            6530            6490     5.37682E-03     5.34148E-03
            6514            6491     4.87471E-03     4.45974E-03
            6532            6491     4.87471E-03     4.45974E-03
            6531            6491     4.87471E-03     4.45974E-03
            6513            6491     4.87471E-03     4.45974E-03
            6514            6492     4.73477E-03     4.62788E-03
            6532            6492     4.73477E-03     4.62788E-03
            6533            6492     4.73477E-03     4.62788E-03
            6515            6492     4.73477E-03     4.62788E-03
            6516            6493     4.68657E-03     4.64740E-03
            6533            6493     4.68657E-03     4.64740E-03
            6515            6493     4.68657E-03     4.64740E-03
            6534            6493     4.68657E-03     4.64740E-03
            6534            6494     4.71346E-03     4.63641E-03
            6517            6494     4.71346E-03     4.63641E-03
            6535            6494     4.71346E-03     4.63641E-03
            6516            6494     4.71346E-03     4.63641E-03
            6535            6495     4.74856E-03     4.65652E-03
            6518            6495     4.74856E-03     4.65652E-03
            6517            6495     4.74856E-03     4.65652E-03
            6536            6495     4.74856E-03     4.65652E-03
            6537            6496     4.78886E-03     4.68454E-03
            6519            6496     4.78886E-03     4.68454E-03
            6536            6496     4.78886E-03     4.68454E-03
            6518            6496     4.78886E-03     4.68454E-03
            6520            6497     4.83595E-03     4.72138E-03
            6537            6497     4.83595E-03     4.72138E-03
            6538            6497     4.83595E-03     4.72138E-03
            6519            6497     4.83595E-03     4.72138E-03
            6520            6498     4.88871E-03     4.76240E-03
            6521            6498     4.88871E-03     4.76240E-03
            6539            6498     4.88871E-03     4.76240E-03
            6538            6498     4.88871E-03     4.76240E-03
            6521            6499     4.94600E-03     4.80906E-03
            6522            6499     4.94600E-03     4.80906E-03
            6539            6499     4.94600E-03     4.80906E-03
            6540            6499     4.94600E-03     4.80906E-03
            6522            6500     5.01132E-03     4.86299E-03
            6540            6500     5.01132E-03     4.86299E-03
            6523            6500     5.01132E-03     4.86299E-03
            6541            6500     5.01132E-03     4.86299E-03
            6541            6501     5.08694E-03     4.92785E-03
            6523            6501     5.08694E-03     4.92785E-03
            6542            6501     5.08694E-03     4.92785E-03
            6524            6501     5.08694E-03     4.92785E-03
            6525            6502     5.18452E-03     5.01464E-03
            6542            6502     5.18452E-03     5.01464E-03
            6524            6502     5.18452E-03     5.01464E-03
            6543            6502     5.18452E-03     5.01464E-03
            6526            6503     5.31930E-03     5.13973E-03
            6543            6503     5.31930E-03     5.13973E-03
            6544            6503     5.31930E-03     5.13973E-03
            6525            6503     5.31930E-03     5.13973E-03
            6545            6504     5.45208E-03     5.25025E-03
            6526            6504     5.45208E-03     5.25025E-03
            6544            6504     5.45208E-03     5.25025E-03
            6527            6504     5.45208E-03     5.25025E-03
            6545            6505     5.55078E-03     5.30534E-03
            6546            6505     5.55078E-03     5.30534E-03
            6528            6505     5.55078E-03     5.30534E-03
            6527            6505     5.55078E-03     5.30534E-03
            6546            6506     4.48957E-03     4.45889E-03
            6547            6506     4.48957E-03     4.45889E-03
            6528            6506     4.48957E-03     4.45889E-03
            6529            6506     4.48957E-03     4.45889E-03
            6530            6507     3.63624E-03     3.54480E-03
            6529            6507     3.63624E-03     3.54480E-03
            6548            6507     3.63624E-03     3.54480E-03
            6547            6507     3.63624E-03     3.54480E-03
            6531            6508     4.76574E-03     4.90336E-03
            6549            6508     4.76574E-03     4.90336E-03
            6532            6508     4.76574E-03     4.90336E-03
            6550            6508     4.76574E-03     4.90336E-03
            6551            6509     4.84023E-03     4.74371E-03
            6550            6509     4.84023E-03     4.74371E-03
            6532            6509     4.84023E-03     4.74371E-03
            6533            6509     4.84023E-03     4.74371E-03
            6534            6510     4.90785E-03     4.69009E-03
            6533            6510     4.90785E-03     4.69009E-03
            6552            6510     4.90785E-03     4.69009E-03
            6551            6510     4.90785E-03     4.69009E-03
            6535            6511     4.94411E-03     4.69530E-03
            6534            6511     4.94411E-03     4.69530E-03
            6552            6511     4.94411E-03     4.69530E-03
            6553            6511     4.94411E-03     4.69530E-03
            6536            6512     4.98360E-03     4.69192E-03
            6535            6512     4.98360E-03     4.69192E-03
            6554            6512     4.98360E-03     4.69192E-03
            6553            6512     4.98360E-03     4.69192E-03
            6537            6513     5.03475E-03     4.70501E-03
            6536            6513     5.03475E-03     4.70501E-03
            6554            6513     5.03475E-03     4.70501E-03
            6555            6513     5.03475E-03     4.70501E-03
            6538            6514     5.08935E-03     4.71969E-03
            6537            6514     5.08935E-03     4.71969E-03
            6556            6514     5.08935E-03     4.71969E-03
            6555            6514     5.08935E-03     4.71969E-03
            6556            6515     5.14793E-03     4.74277E-03
            6557            6515     5.14793E-03     4.74277E-03
            6538            6515     5.14793E-03     4.74277E-03
            6539            6515     5.14793E-03     4.74277E-03
            6557            6516     5.21133E-03     4.76765E-03
            6539            6516     5.21133E-03     4.76765E-03
            6558            6516     5.21133E-03     4.76765E-03
            6540            6516     5.21133E-03     4.76765E-03
            6541            6517     5.27584E-03     4.79811E-03
            6540            6517     5.27584E-03     4.79811E-03
            6558            6517     5.27584E-03     4.79811E-03
            6559            6517     5.27584E-03     4.79811E-03
            6560            6518     5.34514E-03     4.82974E-03
            6559            6518     5.34514E-03     4.82974E-03
            6541            6518     5.34514E-03     4.82974E-03
            6542            6518     5.34514E-03     4.82974E-03
            6543            6519     5.41506E-03     4.86059E-03
            6542            6519     5.41506E-03     4.86059E-03
            6561            6519     5.41506E-03     4.86059E-03
            6560            6519     5.41506E-03     4.86059E-03
            6544            6520     5.46302E-03     4.87161E-03
            6543            6520     5.46302E-03     4.87161E-03
            6561            6520     5.46302E-03     4.87161E-03
            6562            6520     5.46302E-03     4.87161E-03
            6545            6521     5.46044E-03     4.81536E-03
            6544            6521     5.46044E-03     4.81536E-03
            6563            6521     5.46044E-03     4.81536E-03
            6562            6521     5.46044E-03     4.81536E-03
            6546            6522     5.09712E-03     4.43306E-03
            6545            6522     5.09712E-03     4.43306E-03
            6563            6522     5.09712E-03     4.43306E-03
            6564            6522     5.09712E-03     4.43306E-03
            6547            6523     4.02059E-03     3.42861E-03
            6546            6523     4.02059E-03     3.42861E-03
            6565            6523     4.02059E-03     3.42861E-03
            6564            6523     4.02059E-03     3.42861E-03
            6547            6524     3.53986E-03     3.75093E-03
            6565            6524     3.53986E-03     3.75093E-03
            6548            6524     3.53986E-03     3.75093E-03
            6566            6524     3.53986E-03     3.75093E-03


  Minimum                            89.9879E-06     206.395E-06
      At Element                            2325            5156
            Node                              40             768

  Maximum                            94.4030E-03     137.233E-03
      At Element                            3411            4049
            Node                             608              23

           Total                         156.225         159.614


Field Output reported at element nodes for region: A320-1.Region_2
   Computation algorithm: EXTRAPOLATE_COMPUTE_AVERAGE
   Averaged at nodes
   Averaging regions: ODB_REGIONS

   Element Label      Node Label         S.Mises         S.Mises
                                          @Loc 1          @Loc 2
-----------------------------------------------------------------
            2235               3     6.70793E-03     6.74367E-03
            1793               3     6.70793E-03     6.74367E-03
            2262               4     799.683E-06     798.528E-06
            3913               6     62.3816E-03     59.6351E-03
            2234               6     62.3816E-03     59.6351E-03
            3958               8     78.0303E-03     67.1103E-03
            3859               8     78.0303E-03     67.1103E-03
            3904              10     55.6626E-03     56.0368E-03
            5387              10     55.6626E-03     56.0368E-03
            5325              13     6.70568E-03     6.69446E-03
            5730              13     6.70568E-03     6.69446E-03
            5370              14     801.015E-06     806.412E-06
            5738              15     7.51610E-03     7.48925E-03
            5333              15     7.51610E-03     7.48925E-03
            1785              17     6.01148E-03     6.05347E-03
            2243              17     6.01148E-03     6.05347E-03
            2270              18     799.683E-06     798.528E-06
            2226              21     62.5579E-03     59.7702E-03
            3905              21     62.5579E-03     59.7702E-03
            3851              22     38.4172E-03     71.8823E-03
            3950              22     38.4172E-03     71.8823E-03
            3896              25     60.5724E-03     38.4329E-03
            5379              25     60.5724E-03     38.4329E-03
            5378              27     801.015E-06     806.412E-06
            2235              38     943.637E-06     934.977E-06
            2244              38     943.637E-06     934.977E-06
            2244              39     775.008E-06     783.984E-06
            2253              39     775.008E-06     783.984E-06
            2262              40     763.122E-06     767.976E-06
            2253              40     763.122E-06     767.976E-06
            2225             102     61.4926E-03     59.2811E-03
            2234             102     61.4926E-03     59.2811E-03
            2225             103     59.2463E-03     59.2643E-03
            2216             103     59.2463E-03     59.2643E-03
            2207             104     57.9278E-03     57.3386E-03
            2216             104     57.9278E-03     57.3386E-03
            2207             105     57.0413E-03     56.4287E-03
            2198             105     57.0413E-03     56.4287E-03
            2198             106     55.9203E-03     55.2095E-03
            2189             106     55.9203E-03     55.2095E-03
            2189             107     54.7298E-03     54.2430E-03
            2180             107     54.7298E-03     54.2430E-03
            2180             108     53.3201E-03     52.8841E-03
            2171             108     53.3201E-03     52.8841E-03
            2162             109     51.7795E-03     52.1975E-03
            2171             109     51.7795E-03     52.1975E-03
            2162             110     50.2863E-03     48.2528E-03
            2153             110     50.2863E-03     48.2528E-03
            2153             111     53.0393E-03     48.1082E-03
            2144             111     53.0393E-03     48.1082E-03
            2144             112     54.9470E-03     53.0165E-03
            2135             112     54.9470E-03     53.0165E-03
            2126             113     52.1233E-03     52.0467E-03
            2135             113     52.1233E-03     52.0467E-03
            2117             114     50.3413E-03     49.8077E-03
            2126             114     50.3413E-03     49.8077E-03
            2117             115     49.0730E-03     48.4413E-03
            2108             115     49.0730E-03     48.4413E-03
            2108             116     47.5879E-03     46.9539E-03
            2099             116     47.5879E-03     46.9539E-03
            2090             117     46.1553E-03     45.5475E-03
            2099             117     46.1553E-03     45.5475E-03
            2081             118     44.6188E-03     44.1701E-03
            2090             118     44.6188E-03     44.1701E-03
            2081             119     42.9060E-03     42.5939E-03
            2072             119     42.9060E-03     42.5939E-03
            2072             120     40.9484E-03     41.3711E-03
            2063             120     40.9484E-03     41.3711E-03
            2063             121     38.8170E-03     37.2009E-03
            2054             121     38.8170E-03     37.2009E-03
            2054             122     42.2050E-03     38.2900E-03
            2045             122     42.2050E-03     38.2900E-03
            2045             123     44.8075E-03     43.3095E-03
            2036             123     44.8075E-03     43.3095E-03
            2036             124     41.4563E-03     41.3239E-03
            2027             124     41.4563E-03     41.3239E-03
            2027             125     39.2113E-03     38.7806E-03
            2018             125     39.2113E-03     38.7806E-03
            2018             126     37.5306E-03     37.0337E-03
            2009             126     37.5306E-03     37.0337E-03
            2009             127     35.6852E-03     35.2171E-03
            2000             127     35.6852E-03     35.2171E-03
            1991             128     33.9175E-03     33.4860E-03
            2000             128     33.9175E-03     33.4860E-03
            1982             129     32.0451E-03     31.7693E-03
            1991             129     32.0451E-03     31.7693E-03
            1982             130     30.0469E-03     29.9051E-03
            1973             130     30.0469E-03     29.9051E-03
            1973             131     27.7131E-03     28.1910E-03
            1964             131     27.7131E-03     28.1910E-03
            1955             132     24.9648E-03     23.9384E-03
            1964             132     24.9648E-03     23.9384E-03
            1955             133     28.9204E-03     26.3504E-03
            1946             133     28.9204E-03     26.3504E-03
            1946             134     32.2338E-03     31.2920E-03
            1937             134     32.2338E-03     31.2920E-03
            1928             135     28.4322E-03     28.2793E-03
            1937             135     28.4322E-03     28.2793E-03
            1919             136     25.7847E-03     25.5086E-03
            1928             136     25.7847E-03     25.5086E-03
            1919             137     23.7537E-03     23.4400E-03
            1910             137     23.7537E-03     23.4400E-03
            1910             138     21.6370E-03     21.3806E-03
            1901             138     21.6370E-03     21.3806E-03
            1892             139     19.6448E-03     19.4375E-03
            1901             139     19.6448E-03     19.4375E-03
            1883             140     17.5998E-03     17.5389E-03
            1892             140     17.5998E-03     17.5389E-03
            1883             141     15.5298E-03     15.6276E-03
            1874             141     15.5298E-03     15.6276E-03
            1865             142     13.2597E-03     13.8291E-03
            1874             142     13.2597E-03     13.8291E-03
            1856             143     10.8722E-03     10.8594E-03
            1865             143     10.8722E-03     10.8594E-03
            1847             144     14.4454E-03     13.6572E-03
            1856             144     14.4454E-03     13.6572E-03
            1838             145     17.0973E-03     16.7800E-03
            1847             145     17.0973E-03     16.7800E-03
            1829             146     13.3515E-03     13.3136E-03
            1838             146     13.3515E-03     13.3136E-03
            1820             147     11.0663E-03     11.0842E-03
            1829             147     11.0663E-03     11.0842E-03
            1811             148     9.79992E-03     9.89971E-03
            1820             148     9.79992E-03     9.89971E-03
            1811             149     9.56880E-03     9.79580E-03
            1802             149     9.56880E-03     9.79580E-03
            1802             150     11.1756E-03     11.3324E-03
            1793             150     11.1756E-03     11.3324E-03
            3958             162     75.4933E-03     70.3399E-03
            3949             162     75.4933E-03     70.3399E-03
            3940             163     71.7097E-03     71.9097E-03
            3949             163     71.7097E-03     71.9097E-03
            3940             164     70.2197E-03     70.8302E-03
            3931             164     70.2197E-03     70.8302E-03
            3922             165     68.2822E-03     69.5195E-03
            3931             165     68.2822E-03     69.5195E-03
            3922             166     64.2059E-03     64.5923E-03
            3913             166     64.2059E-03     64.5923E-03
            3904             178     62.8593E-03     63.6660E-03
            3895             178     62.8593E-03     63.6660E-03
            3886             179     66.0494E-03     66.7915E-03
            3895             179     66.0494E-03     66.7915E-03
            3886             180     68.1108E-03     67.6721E-03
            3877             180     68.1108E-03     67.6721E-03
            3868             181     71.1248E-03     70.3654E-03
            3877             181     71.1248E-03     70.3654E-03
            3859             182     75.4422E-03     69.9238E-03
            3868             182     75.4422E-03     69.9238E-03
            5325             194     1.18535E-03     1.16306E-03
            5334             194     1.18535E-03     1.16306E-03
            5334             195     915.744E-06     919.222E-06
            5343             195     915.744E-06     919.222E-06
            5343             196     755.343E-06     763.642E-06
            5352             196     755.343E-06     763.642E-06
            5352             197     693.453E-06     710.381E-06
            5361             197     693.453E-06     710.381E-06
            5370             198     741.516E-06     755.317E-06
            5361             198     741.516E-06     755.317E-06
            5738             250     12.6021E-03     12.6380E-03
            5729             250     12.6021E-03     12.6380E-03
            5720             251     11.0831E-03     11.2473E-03
            5729             251     11.0831E-03     11.2473E-03
            5720             252     12.0523E-03     12.1358E-03
            5711             252     12.0523E-03     12.1358E-03
            5711             253     15.3224E-03     15.1405E-03
            5702             253     15.3224E-03     15.1405E-03
            5702             254     13.4482E-03     13.1338E-03
            5693             254     13.4482E-03     13.1338E-03
            5693             255     10.2489E-03     10.5899E-03
            5684             255     10.2489E-03     10.5899E-03
            5684             256     11.8028E-03     12.4327E-03
            5675             256     11.8028E-03     12.4327E-03
            5666             257     13.8443E-03     14.0425E-03
            5675             257     13.8443E-03     14.0425E-03
            5666             258     15.9387E-03     15.9403E-03
            5657             258     15.9387E-03     15.9403E-03
            5657             259     18.0829E-03     17.9278E-03
            5648             259     18.0829E-03     17.9278E-03
            5648             260     20.2321E-03     20.0129E-03
            5639             260     20.2321E-03     20.0129E-03
            5639             261     22.5473E-03     22.2602E-03
            5630             261     22.5473E-03     22.2602E-03
            5630             262     24.8082E-03     24.5599E-03
            5621             262     24.8082E-03     24.5599E-03
            5621             263     27.7776E-03     27.6141E-03
            5612             263     27.7776E-03     27.6141E-03
            5603             264     32.0130E-03     31.1227E-03
            5612             264     32.0130E-03     31.1227E-03
            5594             265     28.0828E-03     25.5785E-03
            5603             265     28.0828E-03     25.5785E-03
            5585             266     23.4932E-03     22.4943E-03
            5594             266     23.4932E-03     22.4943E-03
            5576             267     26.6154E-03     27.1861E-03
            5585             267     26.6154E-03     27.1861E-03
            5567             268     29.2561E-03     29.1511E-03
            5576             268     29.2561E-03     29.1511E-03
            5567             269     31.5068E-03     31.2762E-03
            5558             269     31.5068E-03     31.2762E-03
            5549             270     33.6240E-03     33.1607E-03
            5558             270     33.6240E-03     33.1607E-03
            5549             271     35.6365E-03     35.1693E-03
            5540             271     35.6365E-03     35.1693E-03
            5531             272     37.6414E-03     37.1007E-03
            5540             272     37.6414E-03     37.1007E-03
            5522             273     39.7246E-03     39.2092E-03
            5531             273     39.7246E-03     39.2092E-03
            5522             274     41.6644E-03     41.2103E-03
            5513             274     41.6644E-03     41.2103E-03
            5504             275     44.2741E-03     44.1161E-03
            5513             275     44.2741E-03     44.1161E-03
            5504             276     48.1272E-03     46.5369E-03
            5495             276     48.1272E-03     46.5369E-03
            5486             277     44.6774E-03     40.5208E-03
            5495             277     44.6774E-03     40.5208E-03
            5486             278     40.4255E-03     38.7052E-03
            5477             278     40.4255E-03     38.7052E-03
            5468             279     43.0327E-03     43.5392E-03
            5477             279     43.0327E-03     43.5392E-03
            5468             280     45.3764E-03     45.0943E-03
            5459             280     45.3764E-03     45.0943E-03
            5459             281     47.4130E-03     46.9706E-03
            5450             281     47.4130E-03     46.9706E-03
            5450             282     49.2600E-03     48.6346E-03
            5441             282     49.2600E-03     48.6346E-03
            5441             283     50.9836E-03     50.3196E-03
            5432             283     50.9836E-03     50.3196E-03
            5423             284     52.7652E-03     52.0954E-03
            5432             284     52.7652E-03     52.0954E-03
            5414             285     54.3198E-03     53.7553E-03
            5423             285     54.3198E-03     53.7553E-03
            5414             286     56.4867E-03     56.3808E-03
            5405             286     56.4867E-03     56.3808E-03
            5396             287     59.8618E-03     57.7385E-03
            5405             287     59.8618E-03     57.7385E-03
            5387             288     56.4059E-03     54.0486E-03
            5396             288     56.4059E-03     54.0486E-03
            2243             306     943.637E-06     934.977E-06
            2252             306     943.637E-06     934.977E-06
            2252             307     775.008E-06     783.984E-06
            2261             307     775.008E-06     783.984E-06
            2261             308     763.122E-06     767.976E-06
            2270             308     763.122E-06     767.976E-06
            1786             424     6.76344E-03     6.75751E-03
            2242             424     6.76344E-03     6.75751E-03
            2243             424     6.76344E-03     6.75751E-03
            1785             424     6.76344E-03     6.75751E-03
            1787             425     7.74764E-03     7.69108E-03
            2242             425     7.74764E-03     7.69108E-03
            2241             425     7.74764E-03     7.69108E-03
            1786             425     7.74764E-03     7.69108E-03
            2241             426     8.25801E-03     8.20199E-03
            2240             426     8.25801E-03     8.20199E-03
            1787             426     8.25801E-03     8.20199E-03
            1788             426     8.25801E-03     8.20199E-03
            2239             427     8.57573E-03     8.53109E-03
            2240             427     8.57573E-03     8.53109E-03
            1789             427     8.57573E-03     8.53109E-03
            1788             427     8.57573E-03     8.53109E-03
            2238             428     8.59625E-03     8.55811E-03
            1790             428     8.59625E-03     8.55811E-03
            2239             428     8.59625E-03     8.55811E-03
            1789             428     8.59625E-03     8.55811E-03
            1790             429     8.32951E-03     8.29133E-03
            2238             429     8.32951E-03     8.29133E-03
            2237             429     8.32951E-03     8.29133E-03
            1791             429     8.32951E-03     8.29133E-03
            1791             430     7.91922E-03     7.89433E-03
            1792             430     7.91922E-03     7.89433E-03
            2237             430     7.91922E-03     7.89433E-03
            2236             430     7.91922E-03     7.89433E-03
            1793             431     7.23228E-03     7.24355E-03
            2235             431     7.23228E-03     7.24355E-03
            2236             431     7.23228E-03     7.24355E-03
            1792             431     7.23228E-03     7.24355E-03
            2233             432     54.1873E-03     51.6508E-03
            3913             432     54.1873E-03     51.6508E-03
            3912             432     54.1873E-03     51.6508E-03
            2234             432     54.1873E-03     51.6508E-03
            2233             433     39.5745E-03     37.5807E-03
            2232             433     39.5745E-03     37.5807E-03
            3912             433     39.5745E-03     37.5807E-03
            3911             433     39.5745E-03     37.5807E-03
            3910             434     27.5398E-03     26.2481E-03
            3911             434     27.5398E-03     26.2481E-03
            2232             434     27.5398E-03     26.2481E-03
            2231             434     27.5398E-03     26.2481E-03
            3910             435     18.1510E-03     17.7053E-03
            2231             435     18.1510E-03     17.7053E-03
            3909             435     18.1510E-03     17.7053E-03
            2230             435     18.1510E-03     17.7053E-03
            2229             436     18.3598E-03     17.8861E-03
            2230             436     18.3598E-03     17.8861E-03
            3908             436     18.3598E-03     17.8861E-03
            3909             436     18.3598E-03     17.8861E-03
            2229             437     27.8438E-03     26.5058E-03
            3908             437     27.8438E-03     26.5058E-03
            2228             437     27.8438E-03     26.5058E-03
            3907             437     27.8438E-03     26.5058E-03
            2228             438     39.7190E-03     37.6883E-03
            2227             438     39.7190E-03     37.6883E-03
            3906             438     39.7190E-03     37.6883E-03
            3907             438     39.7190E-03     37.6883E-03
            2226             439     54.3248E-03     51.7490E-03
            2227             439     54.3248E-03     51.7490E-03
            3906             439     54.3248E-03     51.7490E-03
            3905             439     54.3248E-03     51.7490E-03
            2217             440     63.5157E-03     61.2355E-03
            2226             440     63.5157E-03     61.2355E-03
            2208             441     61.1612E-03     61.1700E-03
            2217             441     61.1612E-03     61.1700E-03
            2199             442     59.8119E-03     59.2022E-03
            2208             442     59.8119E-03     59.2022E-03
            2190             443     58.9251E-03     58.2931E-03
            2199             443     58.9251E-03     58.2931E-03
            2190             444     57.8028E-03     57.0712E-03
            2181             444     57.8028E-03     57.0712E-03
            2172             445     56.6096E-03     56.1036E-03
            2181             445     56.6096E-03     56.1036E-03
            2163             446     55.1948E-03     54.7379E-03
            2172             446     55.1948E-03     54.7379E-03
            2154             447     53.6757E-03     54.0815E-03
            2163             447     53.6757E-03     54.0815E-03
            2145             448     52.2745E-03     50.1698E-03
            2154             448     52.2745E-03     50.1698E-03
            2145             449     55.1205E-03     50.0460E-03
            2136             449     55.1205E-03     50.0460E-03
            2127             450     56.9745E-03     54.9738E-03
            2136             450     56.9745E-03     54.9738E-03
            2118             451     54.0424E-03     53.9551E-03
            2127             451     54.0424E-03     53.9551E-03
            2118             452     52.2279E-03     51.6729E-03
            2109             452     52.2279E-03     51.6729E-03
            2100             453     50.9620E-03     50.3082E-03
            2109             453     50.9620E-03     50.3082E-03
            2091             454     49.4746E-03     48.8198E-03
            2100             454     49.4746E-03     48.8198E-03
            2082             455     48.0397E-03     47.4117E-03
            2091             455     48.0397E-03     47.4117E-03
            2073             456     46.4992E-03     46.0301E-03
            2082             456     46.4992E-03     46.0301E-03
            2064             457     44.7754E-03     44.4421E-03
            2073             457     44.7754E-03     44.4421E-03
            2064             458     42.8342E-03     43.2423E-03
            2055             458     42.8342E-03     43.2423E-03
            2055             459     40.7830E-03     39.0922E-03
            2046             459     40.7830E-03     39.0922E-03
            2046             460     44.2727E-03     40.2117E-03
            2037             460     44.2727E-03     40.2117E-03
            2037             461     46.8330E-03     45.2648E-03
            2028             461     46.8330E-03     45.2648E-03
            2028             462     43.3680E-03     43.2243E-03
            2019             462     43.3680E-03     43.2243E-03
            2019             463     41.0859E-03     40.6328E-03
            2010             463     41.0859E-03     40.6328E-03
            2010             464     39.4038E-03     38.8837E-03
            2001             464     39.4038E-03     38.8837E-03
            2001             465     37.5524E-03     37.0631E-03
            1992             465     37.5524E-03     37.0631E-03
            1983             466     35.7787E-03     35.3268E-03
            1992             466     35.7787E-03     35.3268E-03
            1983             467     33.8972E-03     33.6011E-03
            1974             467     33.8972E-03     33.6011E-03
            1974             468     31.8808E-03     31.7167E-03
            1965             468     31.8808E-03     31.7167E-03
            1956             469     29.5483E-03     30.0083E-03
            1965             469     29.5483E-03     30.0083E-03
            1956             470     26.8486E-03     25.7383E-03
            1947             470     26.8486E-03     25.7383E-03
            1947             471     30.9312E-03     28.2082E-03
            1938             471     30.9312E-03     28.2082E-03
            1929             472     34.2398E-03     33.2267E-03
            1938             472     34.2398E-03     33.2267E-03
            1929             473     30.3087E-03     30.1406E-03
            1920             473     30.3087E-03     30.1406E-03
            1911             474     27.6075E-03     27.3050E-03
            1920             474     27.6075E-03     27.3050E-03
            1902             475     25.5573E-03     25.2171E-03
            1911             475     25.5573E-03     25.2171E-03
            1902             476     23.4140E-03     23.1345E-03
            1893             476     23.4140E-03     23.1345E-03
            1884             477     21.3902E-03     21.1611E-03
            1893             477     21.3902E-03     21.1611E-03
            1875             478     19.2958E-03     19.2156E-03
            1884             478     19.2958E-03     19.2156E-03
            1866             479     17.1507E-03     17.2207E-03
            1875             479     17.1507E-03     17.2207E-03
            1866             480     14.7452E-03     15.2967E-03
            1857             480     14.7452E-03     15.2967E-03
            1848             481     12.0567E-03     11.8695E-03
            1857             481     12.0567E-03     11.8695E-03
            1839             482     15.9122E-03     14.8873E-03
            1848             482     15.9122E-03     14.8873E-03
            1839             483     18.8771E-03     18.4980E-03
            1830             483     18.8771E-03     18.4980E-03
            1830             484     14.8151E-03     14.7577E-03
            1821             484     14.8151E-03     14.7577E-03
            1812             485     12.1944E-03     12.1983E-03
            1821             485     12.1944E-03     12.1983E-03
            1812             486     10.4927E-03     10.5823E-03
            1803             486     10.4927E-03     10.5823E-03
            1794             487     9.57074E-03     9.83972E-03
            1803             487     9.57074E-03     9.83972E-03
            1794             488     10.2571E-03     10.4735E-03
            1785             488     10.2571E-03     10.4735E-03
            2269             489     920.464E-06     923.293E-06
            2270             489     920.464E-06     923.293E-06
            2269             490     1.05995E-03     1.06241E-03
            2268             490     1.05995E-03     1.06241E-03
            2267             491     1.11366E-03     1.11550E-03
            2268             491     1.11366E-03     1.11550E-03
            2267             492     1.13145E-03     1.13604E-03
            2266             492     1.13145E-03     1.13604E-03
            2266             493     1.13145E-03     1.13604E-03
            2265             493     1.13145E-03     1.13604E-03
            2265             494     1.11366E-03     1.11550E-03
            2264             494     1.11366E-03     1.11550E-03
            2264             495     1.05995E-03     1.06241E-03
            2263             495     1.05995E-03     1.06241E-03
            2262             496     920.464E-06     923.293E-06
            2263             496     920.464E-06     923.293E-06
            3905             520     64.8211E-03     43.4227E-03
            3914             520     64.8211E-03     43.4227E-03
            3914             521     56.8351E-03     41.9066E-03
            3923             521     56.8351E-03     41.9066E-03
            3932             522     47.3675E-03     54.0592E-03
            3923             522     47.3675E-03     54.0592E-03
            3932             523     53.9786E-03     50.0080E-03
            3941             523     53.9786E-03     50.0080E-03
            3941             524     46.8204E-03     59.7293E-03
            3950             524     46.8204E-03     59.7293E-03
            3951             609     30.1507E-03     58.7323E-03
            3851             609     30.1507E-03     58.7323E-03
            3852             609     30.1507E-03     58.7323E-03
            3950             609     30.1507E-03     58.7323E-03
            3951             610     15.1303E-03     37.3951E-03
            3952             610     15.1303E-03     37.3951E-03
            3853             610     15.1303E-03     37.3951E-03
            3852             610     15.1303E-03     37.3951E-03
            3952             611     7.55865E-03     22.1219E-03
            3854             611     7.55865E-03     22.1219E-03
            3953             611     7.55865E-03     22.1219E-03
            3853             611     7.55865E-03     22.1219E-03
            3953             612     12.1478E-03     9.03787E-03
            3855             612     12.1478E-03     9.03787E-03
            3954             612     12.1478E-03     9.03787E-03
            3854             612     12.1478E-03     9.03787E-03
            3955             613     23.7281E-03     8.83205E-03
            3855             613     23.7281E-03     8.83205E-03
            3856             613     23.7281E-03     8.83205E-03
            3954             613     23.7281E-03     8.83205E-03
            3856             614     36.2670E-03     22.1523E-03
            3955             614     36.2670E-03     22.1523E-03
            3857             614     36.2670E-03     22.1523E-03
            3956             614     36.2670E-03     22.1523E-03
            3956             615     49.5442E-03     37.0673E-03
            3858             615     49.5442E-03     37.0673E-03
            3857             615     49.5442E-03     37.0673E-03
            3957             615     49.5442E-03     37.0673E-03
            3957             616     67.2431E-03     55.7822E-03
            3859             616     67.2431E-03     55.7822E-03
            3958             616     67.2431E-03     55.7822E-03
            3858             616     67.2431E-03     55.7822E-03
            5386             617     48.2791E-03     49.2419E-03
            3904             617     48.2791E-03     49.2419E-03
            3903             617     48.2791E-03     49.2419E-03
            5387             617     48.2791E-03     49.2419E-03
            3903             618     34.6703E-03     37.1099E-03
            5385             618     34.6703E-03     37.1099E-03
            5386             618     34.6703E-03     37.1099E-03
            3902             618     34.6703E-03     37.1099E-03
            5384             619     22.4763E-03     26.2940E-03
            3901             619     22.4763E-03     26.2940E-03
            3902             619     22.4763E-03     26.2940E-03
            5385             619     22.4763E-03     26.2940E-03
            5383             620     13.2251E-03     16.7758E-03
            5384             620     13.2251E-03     16.7758E-03
            3901             620     13.2251E-03     16.7758E-03
            3900             620     13.2251E-03     16.7758E-03
            5383             621     14.1127E-03     13.3454E-03
            3900             621     14.1127E-03     13.3454E-03
            5382             621     14.1127E-03     13.3454E-03
            3899             621     14.1127E-03     13.3454E-03
            5381             622     24.0245E-03     17.0004E-03
            5382             622     24.0245E-03     17.0004E-03
            3898             622     24.0245E-03     17.0004E-03
            3899             622     24.0245E-03     17.0004E-03
            3898             623     36.8224E-03     23.9924E-03
            5380             623     36.8224E-03     23.9924E-03
            3897             623     36.8224E-03     23.9924E-03
            5381             623     36.8224E-03     23.9924E-03
            3896             624     52.2256E-03     33.1856E-03
            5379             624     52.2256E-03     33.1856E-03
            5380             624     52.2256E-03     33.1856E-03
            3897             624     52.2256E-03     33.1856E-03
            3887             625     54.7795E-03     40.7616E-03
            3896             625     54.7795E-03     40.7616E-03
            3887             626     48.5214E-03     52.1444E-03
            3878             626     48.5214E-03     52.1444E-03
            3869             627     51.2173E-03     52.0304E-03
            3878             627     51.2173E-03     52.0304E-03
            3860             628     54.2263E-03     53.1354E-03
            3869             628     54.2263E-03     53.1354E-03
            3860             629     51.0642E-03     60.8830E-03
            3851             629     51.0642E-03     60.8830E-03
            5388             636     58.8100E-03     56.3525E-03
            5379             636     58.8100E-03     56.3525E-03
            5397             637     62.4110E-03     60.1985E-03
            5388             637     62.4110E-03     60.1985E-03
            5406             638     58.8970E-03     58.7776E-03
            5397             638     58.8970E-03     58.7776E-03
            5415             639     56.6863E-03     56.0954E-03
            5406             639     56.6863E-03     56.0954E-03
            5424             640     55.1327E-03     54.4353E-03
            5415             640     55.1327E-03     54.4353E-03
            5433             641     53.3469E-03     52.6570E-03
            5424             641     53.3469E-03     52.6570E-03
            5442             642     51.6195E-03     50.9688E-03
            5433             642     51.6195E-03     50.9688E-03
            5451             643     49.7668E-03     49.2988E-03
            5442             643     49.7668E-03     49.2988E-03
            5460             644     47.7158E-03     47.4072E-03
            5451             644     47.7158E-03     47.4072E-03
            5460             645     45.3916E-03     45.8785E-03
            5469             645     45.3916E-03     45.8785E-03
            5478             646     42.8812E-03     41.0641E-03
            5469             646     42.8812E-03     41.0641E-03
            5487             647     47.2676E-03     42.9241E-03
            5478             647     47.2676E-03     42.9241E-03
            5496             648     50.6741E-03     48.9927E-03
            5487             648     50.6741E-03     48.9927E-03
            5496             649     46.6761E-03     46.5019E-03
            5505             649     46.6761E-03     46.5019E-03
            5514             650     44.0192E-03     43.5345E-03
            5505             650     44.0192E-03     43.5345E-03
            5514             651     42.0748E-03     41.5291E-03
            5523             651     42.0748E-03     41.5291E-03
            5523             652     39.9880E-03     39.4167E-03
            5532             652     39.9880E-03     39.4167E-03
            5541             653     37.9734E-03     37.4811E-03
            5532             653     37.9734E-03     37.4811E-03
            5550             654     35.9526E-03     35.4625E-03
            5541             654     35.9526E-03     35.4625E-03
            5550             655     33.8151E-03     33.5606E-03
            5559             655     33.8151E-03     33.5606E-03
            5559             656     31.5368E-03     31.4026E-03
            5568             656     31.5368E-03     31.4026E-03
            5577             657     28.8838E-03     29.4295E-03
            5568             657     28.8838E-03     29.4295E-03
            5586             658     25.7954E-03     24.6800E-03
            5577             658     25.7954E-03     24.6800E-03
            5595             659     30.5644E-03     27.8580E-03
            5586             659     30.5644E-03     27.8580E-03
            5604             660     34.5195E-03     33.5379E-03
            5595             660     34.5195E-03     33.5379E-03
            5604             661     30.1093E-03     29.9242E-03
            5613             661     30.1093E-03     29.9242E-03
            5613             662     27.0579E-03     26.7748E-03
            5622             662     27.0579E-03     26.7748E-03
            5622             663     24.7562E-03     24.4339E-03
            5631             663     24.7562E-03     24.4339E-03
            5631             664     22.3863E-03     22.1374E-03
            5640             664     22.3863E-03     22.1374E-03
            5640             665     20.1685E-03     19.9852E-03
            5649             665     20.1685E-03     19.9852E-03
            5658             666     17.9145E-03     17.8936E-03
            5649             666     17.9145E-03     17.8936E-03
            5658             667     15.6532E-03     15.8155E-03
            5667             667     15.6532E-03     15.8155E-03
            5676             668     13.2670E-03     13.8954E-03
            5667             668     13.2670E-03     13.8954E-03
            5685             669     10.9518E-03     11.0885E-03
            5676             669     10.9518E-03     11.0885E-03
            5694             670     14.6647E-03     14.0573E-03
            5685             670     14.6647E-03     14.0573E-03
            5703             671     17.2103E-03     16.9673E-03
            5694             671     17.2103E-03     16.9673E-03
            5703             672     13.2232E-03     13.2941E-03
            5712             672     13.2232E-03     13.2941E-03
            5721             673     11.3307E-03     11.5252E-03
            5712             673     11.3307E-03     11.5252E-03
            5730             674     11.6398E-03     11.7306E-03
            5721             674     11.6398E-03     11.7306E-03
            5333             765     1.18535E-03     1.16306E-03
            5342             765     1.18535E-03     1.16306E-03
            5342             766     915.744E-06     919.222E-06
            5351             766     915.744E-06     919.222E-06
            5351             767     755.343E-06     763.642E-06
            5360             767     755.343E-06     763.642E-06
            5369             768     693.453E-06     710.381E-06
            5360             768     693.453E-06     710.381E-06
            5378             769     741.516E-06     755.317E-06
            5369             769     741.516E-06     755.317E-06
            5326             792     7.61380E-03     7.58727E-03
            5325             792     7.61380E-03     7.58727E-03
            5731             792     7.61380E-03     7.58727E-03
            5730             792     7.61380E-03     7.58727E-03
            5327             793     8.79277E-03     8.75295E-03
            5731             793     8.79277E-03     8.75295E-03
            5732             793     8.79277E-03     8.75295E-03
            5326             793     8.79277E-03     8.75295E-03
            5327             794     9.31401E-03     9.28328E-03
            5328             794     9.31401E-03     9.28328E-03
            5732             794     9.31401E-03     9.28328E-03
            5733             794     9.31401E-03     9.28328E-03
            5734             795     9.64302E-03     9.62741E-03
            5328             795     9.64302E-03     9.62741E-03
            5733             795     9.64302E-03     9.62741E-03
            5329             795     9.64302E-03     9.62741E-03
            5735             796     9.66126E-03     9.65141E-03
            5330             796     9.66126E-03     9.65141E-03
            5329             796     9.66126E-03     9.65141E-03
            5734             796     9.66126E-03     9.65141E-03
            5735             797     9.37852E-03     9.36297E-03
            5331             797     9.37852E-03     9.36297E-03
            5736             797     9.37852E-03     9.36297E-03
            5330             797     9.37852E-03     9.36297E-03
            5332             798     8.96567E-03     8.95507E-03
            5331             798     8.96567E-03     8.95507E-03
            5737             798     8.96567E-03     8.95507E-03
            5736             798     8.96567E-03     8.95507E-03
            5737             799     8.14563E-03     8.13110E-03
            5738             799     8.14563E-03     8.13110E-03
            5333             799     8.14563E-03     8.13110E-03
            5332             799     8.14563E-03     8.13110E-03
            5378             800     905.281E-06     909.194E-06
            5377             800     905.281E-06     909.194E-06
            5376             801     1.03735E-03     1.03655E-03
            5377             801     1.03735E-03     1.03655E-03
            5376             802     1.11085E-03     1.10832E-03
            5375             802     1.11085E-03     1.10832E-03
            5375             803     1.14931E-03     1.14736E-03
            5374             803     1.14931E-03     1.14736E-03
            5374             804     1.14931E-03     1.14736E-03
            5373             804     1.14931E-03     1.14736E-03
            5372             805     1.11085E-03     1.10832E-03
            5373             805     1.11085E-03     1.10832E-03
            5371             806     1.03735E-03     1.03655E-03
            5372             806     1.03735E-03     1.03655E-03
            5370             807     905.281E-06     909.194E-06
            5371             807     905.281E-06     909.194E-06
            1795            2369     12.2345E-03     12.2773E-03
            1794            2369     12.2345E-03     12.2773E-03
            1785            2369     12.2345E-03     12.2773E-03
            1786            2369     12.2345E-03     12.2773E-03
            1795            2370     14.8102E-03     14.6657E-03
            1786            2370     14.8102E-03     14.6657E-03
            1796            2370     14.8102E-03     14.6657E-03
            1787            2370     14.8102E-03     14.6657E-03
            1797            2371     15.8466E-03     15.6974E-03
            1788            2371     15.8466E-03     15.6974E-03
            1787            2371     15.8466E-03     15.6974E-03
            1796            2371     15.8466E-03     15.6974E-03
            1797            2372     16.3609E-03     16.2236E-03
            1789            2372     16.3609E-03     16.2236E-03
            1798            2372     16.3609E-03     16.2236E-03
            1788            2372     16.3609E-03     16.2236E-03
            1789            2373     16.3833E-03     16.2567E-03
            1790            2373     16.3833E-03     16.2567E-03
            1798            2373     16.3833E-03     16.2567E-03
            1799            2373     16.3833E-03     16.2567E-03
            1791            2374     15.9239E-03     15.8061E-03
            1800            2374     15.9239E-03     15.8061E-03
            1790            2374     15.9239E-03     15.8061E-03
            1799            2374     15.9239E-03     15.8061E-03
            1792            2375     15.0499E-03     14.9498E-03
            1801            2375     15.0499E-03     14.9498E-03
            1800            2375     15.0499E-03     14.9498E-03
            1791            2375     15.0499E-03     14.9498E-03
            1802            2376     12.8785E-03     12.9152E-03
            1801            2376     12.8785E-03     12.9152E-03
            1792            2376     12.8785E-03     12.9152E-03
            1793            2376     12.8785E-03     12.9152E-03
            1795            2377     11.8806E-03     12.0002E-03
            1794            2377     11.8806E-03     12.0002E-03
            1803            2377     11.8806E-03     12.0002E-03
            1804            2377     11.8806E-03     12.0002E-03
            1796            2378     15.2283E-03     15.1380E-03
            1804            2378     15.2283E-03     15.1380E-03
            1795            2378     15.2283E-03     15.1380E-03
            1805            2378     15.2283E-03     15.1380E-03
            1805            2379     16.5578E-03     16.4025E-03
            1797            2379     16.5578E-03     16.4025E-03
            1806            2379     16.5578E-03     16.4025E-03
            1796            2379     16.5578E-03     16.4025E-03
            1797            2380     17.0052E-03     16.8445E-03
            1806            2380     17.0052E-03     16.8445E-03
            1798            2380     17.0052E-03     16.8445E-03
            1807            2380     17.0052E-03     16.8445E-03
            1807            2381     16.9844E-03     16.8293E-03
            1799            2381     16.9844E-03     16.8293E-03
            1798            2381     16.9844E-03     16.8293E-03
            1808            2381     16.9844E-03     16.8293E-03
            1808            2382     16.5141E-03     16.3722E-03
            1799            2382     16.5141E-03     16.3722E-03
            1809            2382     16.5141E-03     16.3722E-03
            1800            2382     16.5141E-03     16.3722E-03
            1810            2383     15.2166E-03     15.1227E-03
            1801            2383     15.2166E-03     15.1227E-03
            1809            2383     15.2166E-03     15.1227E-03
            1800            2383     15.2166E-03     15.1227E-03
            1811            2384     11.8908E-03     11.9780E-03
            1802            2384     11.8908E-03     11.9780E-03
            1801            2384     11.8908E-03     11.9780E-03
            1810            2384     11.8908E-03     11.9780E-03
            1803            2385     12.3230E-03     12.4119E-03
            1812            2385     12.3230E-03     12.4119E-03
            1813            2385     12.3230E-03     12.4119E-03
            1804            2385     12.3230E-03     12.4119E-03
            1804            2386     15.3317E-03     15.3475E-03
            1805            2386     15.3317E-03     15.3475E-03
            1814            2386     15.3317E-03     15.3475E-03
            1813            2386     15.3317E-03     15.3475E-03
            1805            2387     16.9887E-03     16.9220E-03
            1815            2387     16.9887E-03     16.9220E-03
            1806            2387     16.9887E-03     16.9220E-03
            1814            2387     16.9887E-03     16.9220E-03
            1806            2388     17.5155E-03     17.4444E-03
            1816            2388     17.5155E-03     17.4444E-03
            1807            2388     17.5155E-03     17.4444E-03
            1815            2388     17.5155E-03     17.4444E-03
            1807            2389     17.4528E-03     17.3786E-03
            1817            2389     17.4528E-03     17.3786E-03
            1816            2389     17.4528E-03     17.3786E-03
            1808            2389     17.4528E-03     17.3786E-03
            1808            2390     16.8139E-03     16.7349E-03
            1809            2390     16.8139E-03     16.7349E-03
            1818            2390     16.8139E-03     16.7349E-03
            1817            2390     16.8139E-03     16.7349E-03
            1819            2391     15.0247E-03     15.0136E-03
            1810            2391     15.0247E-03     15.0136E-03
            1818            2391     15.0247E-03     15.0136E-03
            1809            2391     15.0247E-03     15.0136E-03
            1820            2392     11.7817E-03     11.8579E-03
            1819            2392     11.7817E-03     11.8579E-03
            1810            2392     11.7817E-03     11.8579E-03
            1811            2392     11.7817E-03     11.8579E-03
            1813            2393     13.5465E-03     13.5571E-03
            1812            2393     13.5465E-03     13.5571E-03
            1822            2393     13.5465E-03     13.5571E-03
            1821            2393     13.5465E-03     13.5571E-03
            1822            2394     15.8480E-03     15.8926E-03
            1813            2394     15.8480E-03     15.8926E-03
            1823            2394     15.8480E-03     15.8926E-03
            1814            2394     15.8480E-03     15.8926E-03
            1823            2395     17.1487E-03     17.2255E-03
            1824            2395     17.1487E-03     17.2255E-03
            1815            2395     17.1487E-03     17.2255E-03
            1814            2395     17.1487E-03     17.2255E-03
            1816            2396     17.5021E-03     17.5679E-03
            1815            2396     17.5021E-03     17.5679E-03
            1824            2396     17.5021E-03     17.5679E-03
            1825            2396     17.5021E-03     17.5679E-03
            1817            2397     17.4062E-03     17.4615E-03
            1825            2397     17.4062E-03     17.4615E-03
            1826            2397     17.4062E-03     17.4615E-03
            1816            2397     17.4062E-03     17.4615E-03
            1817            2398     16.8302E-03     16.8783E-03
            1827            2398     16.8302E-03     16.8783E-03
            1826            2398     16.8302E-03     16.8783E-03
            1818            2398     16.8302E-03     16.8783E-03
            1827            2399     15.2622E-03     15.2828E-03
            1828            2399     15.2622E-03     15.2828E-03
            1819            2399     15.2622E-03     15.2828E-03
            1818            2399     15.2622E-03     15.2828E-03
            1820            2400     12.6193E-03     12.6311E-03
            1828            2400     12.6193E-03     12.6311E-03
            1829            2400     12.6193E-03     12.6311E-03
            1819            2400     12.6193E-03     12.6311E-03
            1821            2401     15.6397E-03     15.6364E-03
            1822            2401     15.6397E-03     15.6364E-03
            1830            2401     15.6397E-03     15.6364E-03
            1831            2401     15.6397E-03     15.6364E-03
            1822            2402     16.6763E-03     16.8005E-03
            1832            2402     16.6763E-03     16.8005E-03
            1823            2402     16.6763E-03     16.8005E-03
            1831            2402     16.6763E-03     16.8005E-03
            1833            2403     16.8592E-03     17.0408E-03
            1824            2403     16.8592E-03     17.0408E-03
            1832            2403     16.8592E-03     17.0408E-03
            1823            2403     16.8592E-03     17.0408E-03
            1833            2404     16.8908E-03     17.0479E-03
            1825            2404     16.8908E-03     17.0479E-03
            1834            2404     16.8908E-03     17.0479E-03
            1824            2404     16.8908E-03     17.0479E-03
            1835            2405     16.7561E-03     16.9044E-03
            1826            2405     16.7561E-03     16.9044E-03
            1834            2405     16.7561E-03     16.9044E-03
            1825            2405     16.7561E-03     16.9044E-03
            1836            2406     16.4311E-03     16.5876E-03
            1827            2406     16.4311E-03     16.5876E-03
            1826            2406     16.4311E-03     16.5876E-03
            1835            2406     16.4311E-03     16.5876E-03
            1827            2407     15.8646E-03     15.9605E-03
            1837            2407     15.8646E-03     15.9605E-03
            1828            2407     15.8646E-03     15.9605E-03
            1836            2407     15.8646E-03     15.9605E-03
            1837            2408     14.3896E-03     14.3842E-03
            1828            2408     14.3896E-03     14.3842E-03
            1838            2408     14.3896E-03     14.3842E-03
            1829            2408     14.3896E-03     14.3842E-03
            1840            2409     18.1150E-03     17.9532E-03
            1831            2409     18.1150E-03     17.9532E-03
            1839            2409     18.1150E-03     17.9532E-03
            1830            2409     18.1150E-03     17.9532E-03
            1841            2410     16.6906E-03     16.7742E-03
            1831            2410     16.6906E-03     16.7742E-03
            1840            2410     16.6906E-03     16.7742E-03
            1832            2410     16.6906E-03     16.7742E-03
            1832            2411     16.0096E-03     16.1278E-03
            1841            2411     16.0096E-03     16.1278E-03
            1842            2411     16.0096E-03     16.1278E-03
            1833            2411     16.0096E-03     16.1278E-03
            1842            2412     15.8493E-03     15.9782E-03
            1833            2412     15.8493E-03     15.9782E-03
            1843            2412     15.8493E-03     15.9782E-03
            1834            2412     15.8493E-03     15.9782E-03
            1844            2413     15.6797E-03     15.8091E-03
            1834            2413     15.6797E-03     15.8091E-03
            1843            2413     15.6797E-03     15.8091E-03
            1835            2413     15.6797E-03     15.8091E-03
            1844            2414     15.4880E-03     15.6105E-03
            1835            2414     15.4880E-03     15.6105E-03
            1845            2414     15.4880E-03     15.6105E-03
            1836            2414     15.4880E-03     15.6105E-03
            1845            2415     15.7312E-03     15.8248E-03
            1836            2415     15.7312E-03     15.8248E-03
            1846            2415     15.7312E-03     15.8248E-03
            1837            2415     15.7312E-03     15.8248E-03
            1838            2416     16.6178E-03     16.4929E-03
            1837            2416     16.6178E-03     16.4929E-03
            1847            2416     16.6178E-03     16.4929E-03
            1846            2416     16.6178E-03     16.4929E-03
            1849            2417     15.8202E-03     14.9419E-03
            1840            2417     15.8202E-03     14.9419E-03
            1848            2417     15.8202E-03     14.9419E-03
            1839            2417     15.8202E-03     14.9419E-03
            1849            2418     15.3794E-03     14.8135E-03
            1840            2418     15.3794E-03     14.8135E-03
            1850            2418     15.3794E-03     14.8135E-03
            1841            2418     15.3794E-03     14.8135E-03
            1841            2419     15.0845E-03     14.7666E-03
            1851            2419     15.0845E-03     14.7666E-03
            1842            2419     15.0845E-03     14.7666E-03
            1850            2419     15.0845E-03     14.7666E-03
            1852            2420     14.9832E-03     14.7988E-03
            1843            2420     14.9832E-03     14.7988E-03
            1851            2420     14.9832E-03     14.7988E-03
            1842            2420     14.9832E-03     14.7988E-03
            1843            2421     14.8384E-03     14.6775E-03
            1853            2421     14.8384E-03     14.6775E-03
            1844            2421     14.8384E-03     14.6775E-03
            1852            2421     14.8384E-03     14.6775E-03
            1844            2422     14.6309E-03     14.3850E-03
            1854            2422     14.6309E-03     14.3850E-03
            1845            2422     14.6309E-03     14.3850E-03
            1853            2422     14.6309E-03     14.3850E-03
            1845            2423     14.6109E-03     14.1717E-03
            1854            2423     14.6109E-03     14.1717E-03
            1846            2423     14.6109E-03     14.1717E-03
            1855            2423     14.6109E-03     14.1717E-03
            1847            2424     14.6271E-03     13.9453E-03
            1846            2424     14.6271E-03     13.9453E-03
            1856            2424     14.6271E-03     13.9453E-03
            1855            2424     14.6271E-03     13.9453E-03
            1848            2425     13.4242E-03     12.9181E-03
            1849            2425     13.4242E-03     12.9181E-03
            1857            2425     13.4242E-03     12.9181E-03
            1858            2425     13.4242E-03     12.9181E-03
            1858            2426     14.8776E-03     14.0639E-03
            1859            2426     14.8776E-03     14.0639E-03
            1850            2426     14.8776E-03     14.0639E-03
            1849            2426     14.8776E-03     14.0639E-03
            1851            2427     14.8892E-03     14.1592E-03
            1860            2427     14.8892E-03     14.1592E-03
            1859            2427     14.8892E-03     14.1592E-03
            1850            2427     14.8892E-03     14.1592E-03
            1860            2428     14.7111E-03     14.0719E-03
            1852            2428     14.7111E-03     14.0719E-03
            1851            2428     14.7111E-03     14.0719E-03
            1861            2428     14.7111E-03     14.0719E-03
            1852            2429     14.5761E-03     13.9596E-03
            1861            2429     14.5761E-03     13.9596E-03
            1853            2429     14.5761E-03     13.9596E-03
            1862            2429     14.5761E-03     13.9596E-03
            1863            2430     14.4870E-03     13.8231E-03
            1854            2430     14.4870E-03     13.8231E-03
            1853            2430     14.4870E-03     13.8231E-03
            1862            2430     14.4870E-03     13.8231E-03
            1864            2431     14.2396E-03     13.5218E-03
            1855            2431     14.2396E-03     13.5218E-03
            1854            2431     14.2396E-03     13.5218E-03
            1863            2431     14.2396E-03     13.5218E-03
            1855            2432     12.4613E-03     12.0948E-03
            1864            2432     12.4613E-03     12.0948E-03
            1856            2432     12.4613E-03     12.0948E-03
            1865            2432     12.4613E-03     12.0948E-03
            1858            2433     15.1525E-03     15.5081E-03
            1867            2433     15.1525E-03     15.5081E-03
            1857            2433     15.1525E-03     15.5081E-03
            1866            2433     15.1525E-03     15.5081E-03
            1858            2434     15.5980E-03     15.4007E-03
            1868            2434     15.5980E-03     15.4007E-03
            1867            2434     15.5980E-03     15.4007E-03
            1859            2434     15.5980E-03     15.4007E-03
            1860            2435     15.3433E-03     14.6842E-03
            1868            2435     15.3433E-03     14.6842E-03
            1859            2435     15.3433E-03     14.6842E-03
            1869            2435     15.3433E-03     14.6842E-03
            1870            2436     14.8977E-03     14.0849E-03
            1861            2436     14.8977E-03     14.0849E-03
            1869            2436     14.8977E-03     14.0849E-03
            1860            2436     14.8977E-03     14.0849E-03
            1871            2437     14.7134E-03     13.8935E-03
            1861            2437     14.7134E-03     13.8935E-03
            1862            2437     14.7134E-03     13.8935E-03
            1870            2437     14.7134E-03     13.8935E-03
            1872            2438     14.8119E-03     14.1305E-03
            1863            2438     14.8119E-03     14.1305E-03
            1871            2438     14.8119E-03     14.1305E-03
            1862            2438     14.8119E-03     14.1305E-03
            1872            2439     14.7359E-03     14.4941E-03
            1873            2439     14.7359E-03     14.4941E-03
            1864            2439     14.7359E-03     14.4941E-03
            1863            2439     14.7359E-03     14.4941E-03
            1873            2440     13.8947E-03     14.2300E-03
            1874            2440     13.8947E-03     14.2300E-03
            1865            2440     13.8947E-03     14.2300E-03
            1864            2440     13.8947E-03     14.2300E-03
            1866            2441     16.7675E-03     16.9756E-03
            1876            2441     16.7675E-03     16.9756E-03
            1875            2441     16.7675E-03     16.9756E-03
            1867            2441     16.7675E-03     16.9756E-03
            1867            2442     16.2315E-03     16.3430E-03
            1876            2442     16.2315E-03     16.3430E-03
            1877            2442     16.2315E-03     16.3430E-03
            1868            2442     16.2315E-03     16.3430E-03
            1869            2443     15.7962E-03     15.4331E-03
            1878            2443     15.7962E-03     15.4331E-03
            1877            2443     15.7962E-03     15.4331E-03
            1868            2443     15.7962E-03     15.4331E-03
            1870            2444     15.2814E-03     14.6117E-03
            1878            2444     15.2814E-03     14.6117E-03
            1879            2444     15.2814E-03     14.6117E-03
            1869            2444     15.2814E-03     14.6117E-03
            1879            2445     15.0589E-03     14.3659E-03
            1870            2445     15.0589E-03     14.3659E-03
            1871            2445     15.0589E-03     14.3659E-03
            1880            2445     15.0589E-03     14.3659E-03
            1871            2446     15.1445E-03     14.7189E-03
            1880            2446     15.1445E-03     14.7189E-03
            1872            2446     15.1445E-03     14.7189E-03
            1881            2446     15.1445E-03     14.7189E-03
            1872            2447     15.1700E-03     15.2192E-03
            1873            2447     15.1700E-03     15.2192E-03
            1882            2447     15.1700E-03     15.2192E-03
            1881            2447     15.1700E-03     15.2192E-03
            1873            2448     15.3250E-03     15.5236E-03
            1874            2448     15.3250E-03     15.5236E-03
            1883            2448     15.3250E-03     15.5236E-03
            1882            2448     15.3250E-03     15.5236E-03
            1885            2449     18.4372E-03     18.4606E-03
            1876            2449     18.4372E-03     18.4606E-03
            1884            2449     18.4372E-03     18.4606E-03
            1875            2449     18.4372E-03     18.4606E-03
            1877            2450     17.0599E-03     17.1328E-03
            1885            2450     17.0599E-03     17.1328E-03
            1876            2450     17.0599E-03     17.1328E-03
            1886            2450     17.0599E-03     17.1328E-03
            1878            2451     16.1820E-03     16.0402E-03
            1877            2451     16.1820E-03     16.0402E-03
            1887            2451     16.1820E-03     16.0402E-03
            1886            2451     16.1820E-03     16.0402E-03
            1887            2452     15.6068E-03     15.2109E-03
            1888            2452     15.6068E-03     15.2109E-03
            1878            2452     15.6068E-03     15.2109E-03
            1879            2452     15.6068E-03     15.2109E-03
            1889            2453     15.3457E-03     14.9246E-03
            1880            2453     15.3457E-03     14.9246E-03
            1888            2453     15.3457E-03     14.9246E-03
            1879            2453     15.3457E-03     14.9246E-03
            1881            2454     15.4192E-03     15.2233E-03
            1880            2454     15.4192E-03     15.2233E-03
            1890            2454     15.4192E-03     15.2233E-03
            1889            2454     15.4192E-03     15.2233E-03
            1881            2455     15.8513E-03     15.8864E-03
            1882            2455     15.8513E-03     15.8864E-03
            1891            2455     15.8513E-03     15.8864E-03
            1890            2455     15.8513E-03     15.8864E-03
            1882            2456     16.8822E-03     16.9065E-03
            1891            2456     16.8822E-03     16.9065E-03
            1883            2456     16.8822E-03     16.9065E-03
            1892            2456     16.8822E-03     16.9065E-03
            1893            2457     20.1192E-03     20.0178E-03
            1894            2457     20.1192E-03     20.0178E-03
            1885            2457     20.1192E-03     20.0178E-03
            1884            2457     20.1192E-03     20.0178E-03
            1895            2458     18.0184E-03     18.0509E-03
            1886            2458     18.0184E-03     18.0509E-03
            1885            2458     18.0184E-03     18.0509E-03
            1894            2458     18.0184E-03     18.0509E-03
            1886            2459     16.6530E-03     16.6331E-03
            1896            2459     16.6530E-03     16.6331E-03
            1895            2459     16.6530E-03     16.6331E-03
            1887            2459     16.6530E-03     16.6331E-03
            1887            2460     15.8182E-03     15.6909E-03
            1896            2460     15.8182E-03     15.6909E-03
            1897            2460     15.8182E-03     15.6909E-03
            1888            2460     15.8182E-03     15.6909E-03
            1888            2461     15.5202E-03     15.3763E-03
            1897            2461     15.5202E-03     15.3763E-03
            1898            2461     15.5202E-03     15.3763E-03
            1889            2461     15.5202E-03     15.3763E-03
            1898            2462     15.7940E-03     15.7423E-03
            1899            2462     15.7940E-03     15.7423E-03
            1890            2462     15.7940E-03     15.7423E-03
            1889            2462     15.7940E-03     15.7423E-03
            1890            2463     16.7004E-03     16.7143E-03
            1899            2463     16.7004E-03     16.7143E-03
            1891            2463     16.7004E-03     16.7143E-03
            1900            2463     16.7004E-03     16.7143E-03
            1900            2464     18.4894E-03     18.3956E-03
            1891            2464     18.4894E-03     18.3956E-03
            1892            2464     18.4894E-03     18.3956E-03
            1901            2464     18.4894E-03     18.3956E-03
            1894            2465     21.8437E-03     21.6767E-03
            1902            2465     21.8437E-03     21.6767E-03
            1903            2465     21.8437E-03     21.6767E-03
            1893            2465     21.8437E-03     21.6767E-03
            1894            2466     19.0981E-03     19.1197E-03
            1903            2466     19.0981E-03     19.1197E-03
            1895            2466     19.0981E-03     19.1197E-03
            1904            2466     19.0981E-03     19.1197E-03
            1895            2467     17.1344E-03     17.2421E-03
            1904            2467     17.1344E-03     17.2421E-03
            1905            2467     17.1344E-03     17.2421E-03
            1896            2467     17.1344E-03     17.2421E-03
            1906            2468     15.9865E-03     16.1044E-03
            1897            2468     15.9865E-03     16.1044E-03
            1905            2468     15.9865E-03     16.1044E-03
            1896            2468     15.9865E-03     16.1044E-03
            1906            2469     15.6532E-03     15.7634E-03
            1907            2469     15.6532E-03     15.7634E-03
            1898            2469     15.6532E-03     15.7634E-03
            1897            2469     15.6532E-03     15.7634E-03
            1898            2470     16.1921E-03     16.2851E-03
            1899            2470     16.1921E-03     16.2851E-03
            1908            2470     16.1921E-03     16.2851E-03
            1907            2470     16.1921E-03     16.2851E-03
            1908            2471     17.6948E-03     17.7113E-03
            1899            2471     17.6948E-03     17.7113E-03
            1900            2471     17.6948E-03     17.7113E-03
            1909            2471     17.6948E-03     17.7113E-03
            1901            2472     20.1610E-03     20.0074E-03
            1900            2472     20.1610E-03     20.0074E-03
            1909            2472     20.1610E-03     20.0074E-03
            1910            2472     20.1610E-03     20.0074E-03
            1912            2473     23.6327E-03     23.4346E-03
            1902            2473     23.6327E-03     23.4346E-03
            1911            2473     23.6327E-03     23.4346E-03
            1903            2473     23.6327E-03     23.4346E-03
            1904            2474     20.1792E-03     20.2377E-03
            1912            2474     20.1792E-03     20.2377E-03
            1913            2474     20.1792E-03     20.2377E-03
            1903            2474     20.1792E-03     20.2377E-03
            1904            2475     17.6198E-03     17.8925E-03
            1913            2475     17.6198E-03     17.8925E-03
            1905            2475     17.6198E-03     17.8925E-03
            1914            2475     17.6198E-03     17.8925E-03
            1915            2476     16.0777E-03     16.4849E-03
            1914            2476     16.0777E-03     16.4849E-03
            1905            2476     16.0777E-03     16.4849E-03
            1906            2476     16.0777E-03     16.4849E-03
            1907            2477     15.7085E-03     16.1112E-03
            1906            2477     15.7085E-03     16.1112E-03
            1916            2477     15.7085E-03     16.1112E-03
            1915            2477     15.7085E-03     16.1112E-03
            1907            2478     16.6015E-03     16.8674E-03
            1917            2478     16.6015E-03     16.8674E-03
            1908            2478     16.6015E-03     16.8674E-03
            1916            2478     16.6015E-03     16.8674E-03
            1909            2479     18.7071E-03     18.7677E-03
            1918            2479     18.7071E-03     18.7677E-03
            1917            2479     18.7071E-03     18.7677E-03
            1908            2479     18.7071E-03     18.7677E-03
            1910            2480     21.9077E-03     21.7274E-03
            1919            2480     21.9077E-03     21.7274E-03
            1918            2480     21.9077E-03     21.7274E-03
            1909            2480     21.9077E-03     21.7274E-03
            1921            2481     25.4054E-03     25.2557E-03
            1911            2481     25.4054E-03     25.2557E-03
            1912            2481     25.4054E-03     25.2557E-03
            1920            2481     25.4054E-03     25.2557E-03
            1922            2482     21.3585E-03     21.5747E-03
            1912            2482     21.3585E-03     21.5747E-03
            1913            2482     21.3585E-03     21.5747E-03
            1921            2482     21.3585E-03     21.5747E-03
            1922            2483     18.0246E-03     18.5658E-03
            1913            2483     18.0246E-03     18.5658E-03
            1923            2483     18.0246E-03     18.5658E-03
            1914            2483     18.0246E-03     18.5658E-03
            1923            2484     15.8148E-03     16.4920E-03
            1914            2484     15.8148E-03     16.4920E-03
            1924            2484     15.8148E-03     16.4920E-03
            1915            2484     15.8148E-03     16.4920E-03
            1924            2485     15.4247E-03     16.1061E-03
            1916            2485     15.4247E-03     16.1061E-03
            1925            2485     15.4247E-03     16.1061E-03
            1915            2485     15.4247E-03     16.1061E-03
            1916            2486     16.9443E-03     17.4872E-03
            1925            2486     16.9443E-03     17.4872E-03
            1926            2486     16.9443E-03     17.4872E-03
            1917            2486     16.9443E-03     17.4872E-03
            1926            2487     19.8192E-03     20.0347E-03
            1917            2487     19.8192E-03     20.0347E-03
            1918            2487     19.8192E-03     20.0347E-03
            1927            2487     19.8192E-03     20.0347E-03
            1927            2488     23.6449E-03     23.5102E-03
            1928            2488     23.6449E-03     23.5102E-03
            1918            2488     23.6449E-03     23.5102E-03
            1919            2488     23.6449E-03     23.5102E-03
            1929            2489     27.7427E-03     27.7942E-03
            1921            2489     27.7427E-03     27.7942E-03
            1930            2489     27.7427E-03     27.7942E-03
            1920            2489     27.7427E-03     27.7942E-03
            1921            2490     22.4162E-03     22.8224E-03
            1930            2490     22.4162E-03     22.8224E-03
            1922            2490     22.4162E-03     22.8224E-03
            1931            2490     22.4162E-03     22.8224E-03
            1923            2491     17.6911E-03     18.3085E-03
            1922            2491     17.6911E-03     18.3085E-03
            1931            2491     17.6911E-03     18.3085E-03
            1932            2491     17.6911E-03     18.3085E-03
            1933            2492     14.9815E-03     15.7462E-03
            1923            2492     14.9815E-03     15.7462E-03
            1932            2492     14.9815E-03     15.7462E-03
            1924            2492     14.9815E-03     15.7462E-03
            1925            2493     14.5630E-03     15.3485E-03
            1933            2493     14.5630E-03     15.3485E-03
            1924            2493     14.5630E-03     15.3485E-03
            1934            2493     14.5630E-03     15.3485E-03
            1935            2494     16.5711E-03     17.2241E-03
            1934            2494     16.5711E-03     17.2241E-03
            1926            2494     16.5711E-03     17.2241E-03
            1925            2494     16.5711E-03     17.2241E-03
            1927            2495     20.8309E-03     21.2510E-03
            1926            2495     20.8309E-03     21.2510E-03
            1936            2495     20.8309E-03     21.2510E-03
            1935            2495     20.8309E-03     21.2510E-03
            1936            2496     25.9207E-03     25.9788E-03
            1928            2496     25.9207E-03     25.9788E-03
            1927            2496     25.9207E-03     25.9788E-03
            1937            2496     25.9207E-03     25.9788E-03
            1938            2497     29.9091E-03     29.2365E-03
            1939            2497     29.9091E-03     29.2365E-03
            1929            2497     29.9091E-03     29.2365E-03
            1930            2497     29.9091E-03     29.2365E-03
            1930            2498     22.0439E-03     21.8319E-03
            1931            2498     22.0439E-03     21.8319E-03
            1939            2498     22.0439E-03     21.8319E-03
            1940            2498     22.0439E-03     21.8319E-03
            1931            2499     16.4441E-03     16.5663E-03
            1941            2499     16.4441E-03     16.5663E-03
            1932            2499     16.4441E-03     16.5663E-03
            1940            2499     16.4441E-03     16.5663E-03
            1942            2500     13.3091E-03     13.7819E-03
            1933            2500     13.3091E-03     13.7819E-03
            1932            2500     13.3091E-03     13.7819E-03
            1941            2500     13.3091E-03     13.7819E-03
            1933            2501     12.8611E-03     13.3776E-03
            1942            2501     12.8611E-03     13.3776E-03
            1934            2501     12.8611E-03     13.3776E-03
            1943            2501     12.8611E-03     13.3776E-03
            1943            2502     15.2805E-03     15.4972E-03
            1934            2502     15.2805E-03     15.4972E-03
            1935            2502     15.2805E-03     15.4972E-03
            1944            2502     15.2805E-03     15.4972E-03
            1944            2503     20.4455E-03     20.3198E-03
            1936            2503     20.4455E-03     20.3198E-03
            1945            2503     20.4455E-03     20.3198E-03
            1935            2503     20.4455E-03     20.3198E-03
            1937            2504     28.0232E-03     27.4219E-03
            1936            2504     28.0232E-03     27.4219E-03
            1945            2504     28.0232E-03     27.4219E-03
            1946            2504     28.0232E-03     27.4219E-03
            1938            2505     27.1501E-03     24.7012E-03
            1948            2505     27.1501E-03     24.7012E-03
            1947            2505     27.1501E-03     24.7012E-03
            1939            2505     27.1501E-03     24.7012E-03
            1949            2506     20.7050E-03     18.9893E-03
            1948            2506     20.7050E-03     18.9893E-03
            1939            2506     20.7050E-03     18.9893E-03
            1940            2506     20.7050E-03     18.9893E-03
            1950            2507     16.2003E-03     15.3013E-03
            1941            2507     16.2003E-03     15.3013E-03
            1949            2507     16.2003E-03     15.3013E-03
            1940            2507     16.2003E-03     15.3013E-03
            1951            2508     13.3934E-03     13.0569E-03
            1941            2508     13.3934E-03     13.0569E-03
            1942            2508     13.3934E-03     13.0569E-03
            1950            2508     13.3934E-03     13.0569E-03
            1951            2509     13.0036E-03     12.7256E-03
            1943            2509     13.0036E-03     12.7256E-03
            1942            2509     13.0036E-03     12.7256E-03
            1952            2509     13.0036E-03     12.7256E-03
            1943            2510     15.1612E-03     14.3956E-03
            1953            2510     15.1612E-03     14.3956E-03
            1944            2510     15.1612E-03     14.3956E-03
            1952            2510     15.1612E-03     14.3956E-03
            1945            2511     19.2722E-03     17.7091E-03
            1954            2511     19.2722E-03     17.7091E-03
            1953            2511     19.2722E-03     17.7091E-03
            1944            2511     19.2722E-03     17.7091E-03
            1946            2512     25.3613E-03     23.0664E-03
            1945            2512     25.3613E-03     23.0664E-03
            1954            2512     25.3613E-03     23.0664E-03
            1955            2512     25.3613E-03     23.0664E-03
            1956            2513     24.9061E-03     23.5595E-03
            1947            2513     24.9061E-03     23.5595E-03
            1948            2513     24.9061E-03     23.5595E-03
            1957            2513     24.9061E-03     23.5595E-03
            1948            2514     20.7854E-03     19.2349E-03
            1957            2514     20.7854E-03     19.2349E-03
            1958            2514     20.7854E-03     19.2349E-03
            1949            2514     20.7854E-03     19.2349E-03
            1950            2515     16.7942E-03     15.4430E-03
            1949            2515     16.7942E-03     15.4430E-03
            1959            2515     16.7942E-03     15.4430E-03
            1958            2515     16.7942E-03     15.4430E-03
            1960            2516     14.1356E-03     12.9962E-03
            1959            2516     14.1356E-03     12.9962E-03
            1951            2516     14.1356E-03     12.9962E-03
            1950            2516     14.1356E-03     12.9962E-03
            1960            2517     13.7622E-03     12.6444E-03
            1951            2517     13.7622E-03     12.6444E-03
            1952            2517     13.7622E-03     12.6444E-03
            1961            2517     13.7622E-03     12.6444E-03
            1962            2518     15.8118E-03     14.5190E-03
            1953            2518     15.8118E-03     14.5190E-03
            1952            2518     15.8118E-03     14.5190E-03
            1961            2518     15.8118E-03     14.5190E-03
            1954            2519     19.4120E-03     17.9324E-03
            1962            2519     19.4120E-03     17.9324E-03
            1963            2519     19.4120E-03     17.9324E-03
            1953            2519     19.4120E-03     17.9324E-03
            1963            2520     23.1996E-03     21.9294E-03
            1955            2520     23.1996E-03     21.9294E-03
            1954            2520     23.1996E-03     21.9294E-03
            1964            2520     23.1996E-03     21.9294E-03
            1965            2521     27.0221E-03     27.5079E-03
            1966            2521     27.0221E-03     27.5079E-03
            1956            2521     27.0221E-03     27.5079E-03
            1957            2521     27.0221E-03     27.5079E-03
            1966            2522     21.9197E-03     21.8907E-03
            1958            2522     21.9197E-03     21.8907E-03
            1957            2522     21.9197E-03     21.8907E-03
            1967            2522     21.9197E-03     21.8907E-03
            1967            2523     17.0898E-03     16.2319E-03
            1968            2523     17.0898E-03     16.2319E-03
            1959            2523     17.0898E-03     16.2319E-03
            1958            2523     17.0898E-03     16.2319E-03
            1960            2524     13.6942E-03     12.3628E-03
            1959            2524     13.6942E-03     12.3628E-03
            1969            2524     13.6942E-03     12.3628E-03
            1968            2524     13.6942E-03     12.3628E-03
            1970            2525     13.2422E-03     11.8758E-03
            1969            2525     13.2422E-03     11.8758E-03
            1961            2525     13.2422E-03     11.8758E-03
            1960            2525     13.2422E-03     11.8758E-03
            1962            2526     15.9405E-03     15.0208E-03
            1970            2526     15.9405E-03     15.0208E-03
            1971            2526     15.9405E-03     15.0208E-03
            1961            2526     15.9405E-03     15.0208E-03
            1972            2527     20.3791E-03     20.3066E-03
            1962            2527     20.3791E-03     20.3066E-03
            1971            2527     20.3791E-03     20.3066E-03
            1963            2527     20.3791E-03     20.3066E-03
            1964            2528     25.2610E-03     25.7391E-03
            1973            2528     25.2610E-03     25.7391E-03
            1963            2528     25.2610E-03     25.7391E-03
            1972            2528     25.2610E-03     25.7391E-03
            1975            2529     28.7412E-03     28.9334E-03
            1966            2529     28.7412E-03     28.9334E-03
            1974            2529     28.7412E-03     28.9334E-03
            1965            2529     28.7412E-03     28.9334E-03
            1976            2530     22.8314E-03     23.1855E-03
            1967            2530     22.8314E-03     23.1855E-03
            1975            2530     22.8314E-03     23.1855E-03
            1966            2530     22.8314E-03     23.1855E-03
            1977            2531     17.5751E-03     17.2563E-03
            1968            2531     17.5751E-03     17.2563E-03
            1967            2531     17.5751E-03     17.2563E-03
            1976            2531     17.5751E-03     17.2563E-03
            1978            2532     13.8207E-03     12.7756E-03
            1977            2532     13.8207E-03     12.7756E-03
            1968            2532     13.8207E-03     12.7756E-03
            1969            2532     13.8207E-03     12.7756E-03
            1969            2533     13.3197E-03     12.2179E-03
            1978            2533     13.3197E-03     12.2179E-03
            1970            2533     13.3197E-03     12.2179E-03
            1979            2533     13.3197E-03     12.2179E-03
            1971            2534     16.3128E-03     15.8976E-03
            1970            2534     16.3128E-03     15.8976E-03
            1979            2534     16.3128E-03     15.8976E-03
            1980            2534     16.3128E-03     15.8976E-03
            1980            2535     21.1936E-03     21.4977E-03
            1981            2535     21.1936E-03     21.4977E-03
            1972            2535     21.1936E-03     21.4977E-03
            1971            2535     21.1936E-03     21.4977E-03
            1973            2536     26.9477E-03     27.1409E-03
            1982            2536     26.9477E-03     27.1409E-03
            1972            2536     26.9477E-03     27.1409E-03
            1981            2536     26.9477E-03     27.1409E-03
            1983            2537     30.4177E-03     30.3385E-03
            1974            2537     30.4177E-03     30.3385E-03
            1984            2537     30.4177E-03     30.3385E-03
            1975            2537     30.4177E-03     30.3385E-03
            1985            2538     23.7917E-03     23.9510E-03
            1976            2538     23.7917E-03     23.9510E-03
            1975            2538     23.7917E-03     23.9510E-03
            1984            2538     23.7917E-03     23.9510E-03
            1976            2539     18.0427E-03     17.9624E-03
            1986            2539     18.0427E-03     17.9624E-03
            1977            2539     18.0427E-03     17.9624E-03
            1985            2539     18.0427E-03     17.9624E-03
            1986            2540     14.1096E-03     13.5110E-03
            1977            2540     14.1096E-03     13.5110E-03
            1978            2540     14.1096E-03     13.5110E-03
            1987            2540     14.1096E-03     13.5110E-03
            1978            2541     13.5713E-03     12.9244E-03
            1987            2541     13.5713E-03     12.9244E-03
            1979            2541     13.5713E-03     12.9244E-03
            1988            2541     13.5713E-03     12.9244E-03
            1989            2542     16.7075E-03     16.5519E-03
            1979            2542     16.7075E-03     16.5519E-03
            1980            2542     16.7075E-03     16.5519E-03
            1988            2542     16.7075E-03     16.5519E-03
            1989            2543     22.0965E-03     22.2241E-03
            1980            2543     22.0965E-03     22.2241E-03
            1981            2543     22.0965E-03     22.2241E-03
            1990            2543     22.0965E-03     22.2241E-03
            1990            2544     28.5934E-03     28.5197E-03
            1981            2544     28.5934E-03     28.5197E-03
            1991            2544     28.5934E-03     28.5197E-03
            1982            2544     28.5934E-03     28.5197E-03
            1992            2545     32.0022E-03     31.7727E-03
            1984            2545     32.0022E-03     31.7727E-03
            1983            2545     32.0022E-03     31.7727E-03
            1993            2545     32.0022E-03     31.7727E-03
            1994            2546     24.8236E-03     24.8788E-03
            1985            2546     24.8236E-03     24.8788E-03
            1993            2546     24.8236E-03     24.8788E-03
            1984            2546     24.8236E-03     24.8788E-03
            1995            2547     18.6157E-03     18.6463E-03
            1985            2547     18.6157E-03     18.6463E-03
            1994            2547     18.6157E-03     18.6463E-03
            1986            2547     18.6157E-03     18.6463E-03
            1996            2548     14.3631E-03     14.1851E-03
            1986            2548     14.3631E-03     14.1851E-03
            1987            2548     14.3631E-03     14.1851E-03
            1995            2548     14.3631E-03     14.1851E-03
            1997            2549     13.8012E-03     13.5952E-03
            1988            2549     13.8012E-03     13.5952E-03
            1996            2549     13.8012E-03     13.5952E-03
            1987            2549     13.8012E-03     13.5952E-03
            1997            2550     17.2309E-03     17.2168E-03
            1989            2550     17.2309E-03     17.2168E-03
            1998            2550     17.2309E-03     17.2168E-03
            1988            2550     17.2309E-03     17.2168E-03
            1998            2551     23.0895E-03     23.1254E-03
            1989            2551     23.0895E-03     23.1254E-03
            1999            2551     23.0895E-03     23.1254E-03
            1990            2551     23.0895E-03     23.1254E-03
            1991            2552     30.1604E-03     29.9385E-03
            1999            2552     30.1604E-03     29.9385E-03
            1990            2552     30.1604E-03     29.9385E-03
            2000            2552     30.1604E-03     29.9385E-03
            2002            2553     33.5768E-03     33.2886E-03
            1992            2553     33.5768E-03     33.2886E-03
            1993            2553     33.5768E-03     33.2886E-03
            2001            2553     33.5768E-03     33.2886E-03
            1993            2554     25.9282E-03     25.9782E-03
            1994            2554     25.9282E-03     25.9782E-03
            2002            2554     25.9282E-03     25.9782E-03
            2003            2554     25.9282E-03     25.9782E-03
            2004            2555     19.1901E-03     19.4000E-03
            1994            2555     19.1901E-03     19.4000E-03
            2003            2555     19.1901E-03     19.4000E-03
            1995            2555     19.1901E-03     19.4000E-03
            1996            2556     14.6154E-03     14.8401E-03
            2004            2556     14.6154E-03     14.8401E-03
            2005            2556     14.6154E-03     14.8401E-03
            1995            2556     14.6154E-03     14.8401E-03
            2006            2557     14.0308E-03     14.2437E-03
            1996            2557     14.0308E-03     14.2437E-03
            2005            2557     14.0308E-03     14.2437E-03
            1997            2557     14.0308E-03     14.2437E-03
            2007            2558     17.7664E-03     17.9552E-03
            1997            2558     17.7664E-03     17.9552E-03
            1998            2558     17.7664E-03     17.9552E-03
            2006            2558     17.7664E-03     17.9552E-03
            2008            2559     24.1697E-03     24.2099E-03
            2007            2559     24.1697E-03     24.2099E-03
            1998            2559     24.1697E-03     24.2099E-03
            1999            2559     24.1697E-03     24.2099E-03
            2000            2560     31.7238E-03     31.4458E-03
            2009            2560     31.7238E-03     31.4458E-03
            1999            2560     31.7238E-03     31.4458E-03
            2008            2560     31.7238E-03     31.4458E-03
            2011            2561     35.1698E-03     34.8917E-03
            2002            2561     35.1698E-03     34.8917E-03
            2001            2561     35.1698E-03     34.8917E-03
            2010            2561     35.1698E-03     34.8917E-03
            2011            2562     26.9833E-03     27.1395E-03
            2012            2562     26.9833E-03     27.1395E-03
            2002            2562     26.9833E-03     27.1395E-03
            2003            2562     26.9833E-03     27.1395E-03
            2003            2563     19.7681E-03     20.2658E-03
            2012            2563     19.7681E-03     20.2658E-03
            2004            2563     19.7681E-03     20.2658E-03
            2013            2563     19.7681E-03     20.2658E-03
            2005            2564     14.7961E-03     15.5086E-03
            2013            2564     14.7961E-03     15.5086E-03
            2014            2564     14.7961E-03     15.5086E-03
            2004            2564     14.7961E-03     15.5086E-03
            2005            2565     14.1902E-03     14.9014E-03
            2006            2565     14.1902E-03     14.9014E-03
            2015            2565     14.1902E-03     14.9014E-03
            2014            2565     14.1902E-03     14.9014E-03
            2006            2566     18.3122E-03     18.8035E-03
            2015            2566     18.3122E-03     18.8035E-03
            2007            2566     18.3122E-03     18.8035E-03
            2016            2566     18.3122E-03     18.8035E-03
            2017            2567     25.2076E-03     25.3600E-03
            2016            2567     25.2076E-03     25.3600E-03
            2008            2567     25.2076E-03     25.3600E-03
            2007            2567     25.2076E-03     25.3600E-03
            2018            2568     33.3075E-03     33.0422E-03
            2008            2568     33.3075E-03     33.0422E-03
            2009            2568     33.3075E-03     33.0422E-03
            2017            2568     33.3075E-03     33.0422E-03
            2011            2569     36.6690E-03     36.5338E-03
            2010            2569     36.6690E-03     36.5338E-03
            2019            2569     36.6690E-03     36.5338E-03
            2020            2569     36.6690E-03     36.5338E-03
            2021            2570     28.1050E-03     28.5770E-03
            2012            2570     28.1050E-03     28.5770E-03
            2011            2570     28.1050E-03     28.5770E-03
            2020            2570     28.1050E-03     28.5770E-03
            2012            2571     20.2252E-03     21.1302E-03
            2021            2571     20.2252E-03     21.1302E-03
            2022            2571     20.2252E-03     21.1302E-03
            2013            2571     20.2252E-03     21.1302E-03
            2023            2572     14.5621E-03     15.7011E-03
            2014            2572     14.5621E-03     15.7011E-03
            2013            2572     14.5621E-03     15.7011E-03
            2022            2572     14.5621E-03     15.7011E-03
            2015            2573     13.9497E-03     15.1073E-03
            2024            2573     13.9497E-03     15.1073E-03
            2023            2573     13.9497E-03     15.1073E-03
            2014            2573     13.9497E-03     15.1073E-03
            2016            2574     18.7495E-03     19.6714E-03
            2015            2574     18.7495E-03     19.6714E-03
            2024            2574     18.7495E-03     19.6714E-03
            2025            2574     18.7495E-03     19.6714E-03
            2025            2575     26.3094E-03     26.7784E-03
            2017            2575     26.3094E-03     26.7784E-03
            2026            2575     26.3094E-03     26.7784E-03
            2016            2575     26.3094E-03     26.7784E-03
            2018            2576     34.7993E-03     34.6741E-03
            2026            2576     34.7993E-03     34.6741E-03
            2017            2576     34.7993E-03     34.6741E-03
            2027            2576     34.7993E-03     34.6741E-03
            2019            2577     38.6974E-03     38.9081E-03
            2028            2577     38.6974E-03     38.9081E-03
            2020            2577     38.6974E-03     38.9081E-03
            2029            2577     38.6974E-03     38.9081E-03
            2020            2578     28.9694E-03     29.6145E-03
            2030            2578     28.9694E-03     29.6145E-03
            2021            2578     28.9694E-03     29.6145E-03
            2029            2578     28.9694E-03     29.6145E-03
            2030            2579     19.7978E-03     20.6664E-03
            2031            2579     19.7978E-03     20.6664E-03
            2021            2579     19.7978E-03     20.6664E-03
            2022            2579     19.7978E-03     20.6664E-03
            2032            2580     13.6718E-03     14.9090E-03
            2022            2580     13.6718E-03     14.9090E-03
            2031            2580     13.6718E-03     14.9090E-03
            2023            2580     13.6718E-03     14.9090E-03
            2032            2581     13.0367E-03     14.3193E-03
            2023            2581     13.0367E-03     14.3193E-03
            2033            2581     13.0367E-03     14.3193E-03
            2024            2581     13.0367E-03     14.3193E-03
            2025            2582     18.3098E-03     19.2445E-03
            2024            2582     18.3098E-03     19.2445E-03
            2034            2582     18.3098E-03     19.2445E-03
            2033            2582     18.3098E-03     19.2445E-03
            2035            2583     27.1671E-03     27.8312E-03
            2025            2583     27.1671E-03     27.8312E-03
            2034            2583     27.1671E-03     27.8312E-03
            2026            2583     27.1671E-03     27.8312E-03
            2035            2584     36.7922E-03     37.0067E-03
            2027            2584     36.7922E-03     37.0067E-03
            2036            2584     36.7922E-03     37.0067E-03
            2026            2584     36.7922E-03     37.0067E-03
            2029            2585     40.3255E-03     39.1154E-03
            2037            2585     40.3255E-03     39.1154E-03
            2038            2585     40.3255E-03     39.1154E-03
            2028            2585     40.3255E-03     39.1154E-03
            2038            2586     28.1860E-03     27.4861E-03
            2030            2586     28.1860E-03     27.4861E-03
            2039            2586     28.1860E-03     27.4861E-03
            2029            2586     28.1860E-03     27.4861E-03
            2039            2587     18.3541E-03     18.2175E-03
            2031            2587     18.3541E-03     18.2175E-03
            2030            2587     18.3541E-03     18.2175E-03
            2040            2587     18.3541E-03     18.2175E-03
            2041            2588     11.6456E-03     12.3141E-03
            2040            2588     11.6456E-03     12.3141E-03
            2031            2588     11.6456E-03     12.3141E-03
            2032            2588     11.6456E-03     12.3141E-03
            2033            2589     10.9785E-03     11.7198E-03
            2032            2589     10.9785E-03     11.7198E-03
            2041            2589     10.9785E-03     11.7198E-03
            2042            2589     10.9785E-03     11.7198E-03
            2042            2590     16.8448E-03     16.8353E-03
            2033            2590     16.8448E-03     16.8353E-03
            2034            2590     16.8448E-03     16.8353E-03
            2043            2590     16.8448E-03     16.8353E-03
            2034            2591     26.4104E-03     25.8005E-03
            2035            2591     26.4104E-03     25.8005E-03
            2043            2591     26.4104E-03     25.8005E-03
            2044            2591     26.4104E-03     25.8005E-03
            2045            2592     38.3793E-03     37.2401E-03
            2036            2592     38.3793E-03     37.2401E-03
            2035            2592     38.3793E-03     37.2401E-03
            2044            2592     38.3793E-03     37.2401E-03
            2047            2593     37.8684E-03     34.1402E-03
            2037            2593     37.8684E-03     34.1402E-03
            2038            2593     37.8684E-03     34.1402E-03
            2046            2593     37.8684E-03     34.1402E-03
            2039            2594     26.8771E-03     24.1161E-03
            2038            2594     26.8771E-03     24.1161E-03
            2047            2594     26.8771E-03     24.1161E-03
            2048            2594     26.8771E-03     24.1161E-03
            2048            2595     18.4133E-03     16.8640E-03
            2049            2595     18.4133E-03     16.8640E-03
            2040            2595     18.4133E-03     16.8640E-03
            2039            2595     18.4133E-03     16.8640E-03
            2050            2596     12.3664E-03     11.8235E-03
            2040            2596     12.3664E-03     11.8235E-03
            2049            2596     12.3664E-03     11.8235E-03
            2041            2596     12.3664E-03     11.8235E-03
            2042            2597     11.7840E-03     11.3144E-03
            2041            2597     11.7840E-03     11.3144E-03
            2050            2597     11.7840E-03     11.3144E-03
            2051            2597     11.7840E-03     11.3144E-03
            2042            2598     17.0530E-03     15.6451E-03
            2051            2598     17.0530E-03     15.6451E-03
            2043            2598     17.0530E-03     15.6451E-03
            2052            2598     17.0530E-03     15.6451E-03
            2043            2599     25.2398E-03     22.6152E-03
            2044            2599     25.2398E-03     22.6152E-03
            2052            2599     25.2398E-03     22.6152E-03
            2053            2599     25.2398E-03     22.6152E-03
            2054            2600     35.9751E-03     32.3883E-03
            2053            2600     35.9751E-03     32.3883E-03
            2044            2600     35.9751E-03     32.3883E-03
            2045            2600     35.9751E-03     32.3883E-03
            2047            2601     36.3060E-03     34.4456E-03
            2055            2601     36.3060E-03     34.4456E-03
            2056            2601     36.3060E-03     34.4456E-03
            2046            2601     36.3060E-03     34.4456E-03
            2057            2602     27.4916E-03     25.4934E-03
            2056            2602     27.4916E-03     25.4934E-03
            2047            2602     27.4916E-03     25.4934E-03
            2048            2602     27.4916E-03     25.4934E-03
            2049            2603     19.4175E-03     17.6710E-03
            2058            2603     19.4175E-03     17.6710E-03
            2048            2603     19.4175E-03     17.6710E-03
            2057            2603     19.4175E-03     17.6710E-03
            2050            2604     13.7470E-03     12.2417E-03
            2059            2604     13.7470E-03     12.2417E-03
            2058            2604     13.7470E-03     12.2417E-03
            2049            2604     13.7470E-03     12.2417E-03
            2059            2605     13.1939E-03     11.7013E-03
            2060            2605     13.1939E-03     11.7013E-03
            2051            2605     13.1939E-03     11.7013E-03
            2050            2605     13.1939E-03     11.7013E-03
            2060            2606     18.1118E-03     16.4091E-03
            2051            2606     18.1118E-03     16.4091E-03
            2052            2606     18.1118E-03     16.4091E-03
            2061            2606     18.1118E-03     16.4091E-03
            2062            2607     25.8747E-03     23.9363E-03
            2052            2607     25.8747E-03     23.9363E-03
            2061            2607     25.8747E-03     23.9363E-03
            2053            2607     25.8747E-03     23.9363E-03
            2053            2608     34.4586E-03     32.6643E-03
            2054            2608     34.4586E-03     32.6643E-03
            2062            2608     34.4586E-03     32.6643E-03
            2063            2608     34.4586E-03     32.6643E-03
            2065            2609     38.2663E-03     38.8571E-03
            2055            2609     38.2663E-03     38.8571E-03
            2064            2609     38.2663E-03     38.8571E-03
            2056            2609     38.2663E-03     38.8571E-03
            2065            2610     28.8968E-03     29.0881E-03
            2066            2610     28.8968E-03     29.0881E-03
            2057            2610     28.8968E-03     29.0881E-03
            2056            2610     28.8968E-03     29.0881E-03
            2057            2611     19.7536E-03     18.9664E-03
            2066            2611     19.7536E-03     18.9664E-03
            2067            2611     19.7536E-03     18.9664E-03
            2058            2611     19.7536E-03     18.9664E-03
            2068            2612     12.8699E-03     11.2515E-03
            2067            2612     12.8699E-03     11.2515E-03
            2059            2612     12.8699E-03     11.2515E-03
            2058            2612     12.8699E-03     11.2515E-03
            2069            2613     12.2165E-03     10.5458E-03
            2068            2613     12.2165E-03     10.5458E-03
            2060            2613     12.2165E-03     10.5458E-03
            2059            2613     12.2165E-03     10.5458E-03
            2060            2614     18.2647E-03     17.4053E-03
            2070            2614     18.2647E-03     17.4053E-03
            2061            2614     18.2647E-03     17.4053E-03
            2069            2614     18.2647E-03     17.4053E-03
            2070            2615     27.1409E-03     27.3018E-03
            2061            2615     27.1409E-03     27.3018E-03
            2062            2615     27.1409E-03     27.3018E-03
            2071            2615     27.1409E-03     27.3018E-03
            2071            2616     36.4031E-03     36.9906E-03
            2072            2616     36.4031E-03     36.9906E-03
            2062            2616     36.4031E-03     36.9906E-03
            2063            2616     36.4031E-03     36.9906E-03
            2074            2617     39.6910E-03     39.8583E-03
            2073            2617     39.6910E-03     39.8583E-03
            2065            2617     39.6910E-03     39.8583E-03
            2064            2617     39.6910E-03     39.8583E-03
            2066            2618     29.7771E-03     30.3490E-03
            2074            2618     29.7771E-03     30.3490E-03
            2075            2618     29.7771E-03     30.3490E-03
            2065            2618     29.7771E-03     30.3490E-03
            2067            2619     20.2540E-03     20.1562E-03
            2066            2619     20.2540E-03     20.1562E-03
            2075            2619     20.2540E-03     20.1562E-03
            2076            2619     20.2540E-03     20.1562E-03
            2077            2620     12.8112E-03     11.6008E-03
            2076            2620     12.8112E-03     11.6008E-03
            2067            2620     12.8112E-03     11.6008E-03
            2068            2620     12.8112E-03     11.6008E-03
            2077            2621     12.1002E-03     10.8190E-03
            2069            2621     12.1002E-03     10.8190E-03
            2068            2621     12.1002E-03     10.8190E-03
            2078            2621     12.1002E-03     10.8190E-03
            2079            2622     18.6563E-03     18.4579E-03
            2078            2622     18.6563E-03     18.4579E-03
            2069            2622     18.6563E-03     18.4579E-03
            2070            2622     18.6563E-03     18.4579E-03
            2071            2623     27.9578E-03     28.4931E-03
            2079            2623     27.9578E-03     28.4931E-03
            2070            2623     27.9578E-03     28.4931E-03
            2080            2623     27.9578E-03     28.4931E-03
            2080            2624     37.8236E-03     37.9947E-03
            2072            2624     37.8236E-03     37.9947E-03
            2081            2624     37.8236E-03     37.9947E-03
            2071            2624     37.8236E-03     37.9947E-03
            2083            2625     41.1388E-03     40.9730E-03
            2082            2625     41.1388E-03     40.9730E-03
            2073            2625     41.1388E-03     40.9730E-03
            2074            2625     41.1388E-03     40.9730E-03
            2084            2626     30.6007E-03     30.8388E-03
            2075            2626     30.6007E-03     30.8388E-03
            2074            2626     30.6007E-03     30.8388E-03
            2083            2626     30.6007E-03     30.8388E-03
            2075            2627     20.6702E-03     20.7366E-03
            2076            2627     20.6702E-03     20.7366E-03
            2085            2627     20.6702E-03     20.7366E-03
            2084            2627     20.6702E-03     20.7366E-03
            2086            2628     13.0497E-03     12.3685E-03
            2076            2628     13.0497E-03     12.3685E-03
            2085            2628     13.0497E-03     12.3685E-03
            2077            2628     13.0497E-03     12.3685E-03
            2087            2629     12.3049E-03     11.5672E-03
            2086            2629     12.3049E-03     11.5672E-03
            2077            2629     12.3049E-03     11.5672E-03
            2078            2629     12.3049E-03     11.5672E-03
            2088            2630     19.0180E-03     19.0061E-03
            2087            2630     19.0180E-03     19.0061E-03
            2078            2630     19.0180E-03     19.0061E-03
            2079            2630     19.0180E-03     19.0061E-03
            2079            2631     28.7497E-03     28.9627E-03
            2088            2631     28.7497E-03     28.9627E-03
            2080            2631     28.7497E-03     28.9627E-03
            2089            2631     28.7497E-03     28.9627E-03
            2080            2632     39.2549E-03     39.0961E-03
            2081            2632     39.2549E-03     39.0961E-03
            2090            2632     39.2549E-03     39.0961E-03
            2089            2632     39.2549E-03     39.0961E-03
            2082            2633     42.4482E-03     42.1166E-03
            2092            2633     42.4482E-03     42.1166E-03
            2083            2633     42.4482E-03     42.1166E-03
            2091            2633     42.4482E-03     42.1166E-03
            2084            2634     31.4893E-03     31.5696E-03
            2092            2634     31.4893E-03     31.5696E-03
            2093            2634     31.4893E-03     31.5696E-03
            2083            2634     31.4893E-03     31.5696E-03
            2084            2635     21.1910E-03     21.2997E-03
            2093            2635     21.1910E-03     21.2997E-03
            2085            2635     21.1910E-03     21.2997E-03
            2094            2635     21.1910E-03     21.2997E-03
            2095            2636     13.2922E-03     13.1017E-03
            2086            2636     13.2922E-03     13.1017E-03
            2094            2636     13.2922E-03     13.1017E-03
            2085            2636     13.2922E-03     13.1017E-03
            2087            2637     12.5350E-03     12.3121E-03
            2095            2637     12.5350E-03     12.3121E-03
            2086            2637     12.5350E-03     12.3121E-03
            2096            2637     12.5350E-03     12.3121E-03
            2087            2638     19.5122E-03     19.5730E-03
            2096            2638     19.5122E-03     19.5730E-03
            2088            2638     19.5122E-03     19.5730E-03
            2097            2638     19.5122E-03     19.5730E-03
            2097            2639     29.6183E-03     29.6808E-03
            2088            2639     29.6183E-03     29.6808E-03
            2089            2639     29.6183E-03     29.6808E-03
            2098            2639     29.6183E-03     29.6808E-03
            2089            2640     40.5565E-03     40.2328E-03
            2090            2640     40.5565E-03     40.2328E-03
            2098            2640     40.5565E-03     40.2328E-03
            2099            2640     40.5565E-03     40.2328E-03
            2091            2641     43.7372E-03     43.3575E-03
            2092            2641     43.7372E-03     43.3575E-03
            2101            2641     43.7372E-03     43.3575E-03
            2100            2641     43.7372E-03     43.3575E-03
            2102            2642     32.4289E-03     32.5051E-03
            2092            2642     32.4289E-03     32.5051E-03
            2101            2642     32.4289E-03     32.5051E-03
            2093            2642     32.4289E-03     32.5051E-03
            2094            2643     21.7204E-03     22.0093E-03
            2102            2643     21.7204E-03     22.0093E-03
            2093            2643     21.7204E-03     22.0093E-03
            2103            2643     21.7204E-03     22.0093E-03
            2104            2644     13.5814E-03     13.8893E-03
            2094            2644     13.5814E-03     13.8893E-03
            2095            2644     13.5814E-03     13.8893E-03
            2103            2644     13.5814E-03     13.8893E-03
            2105            2645     12.8130E-03     13.1079E-03
            2096            2645     12.8130E-03     13.1079E-03
            2095            2645     12.8130E-03     13.1079E-03
            2104            2645     12.8130E-03     13.1079E-03
            2105            2646     20.0249E-03     20.2907E-03
            2097            2646     20.0249E-03     20.2907E-03
            2096            2646     20.0249E-03     20.2907E-03
            2106            2646     20.0249E-03     20.2907E-03
            2106            2647     30.5495E-03     30.6144E-03
            2107            2647     30.5495E-03     30.6144E-03
            2097            2647     30.5495E-03     30.6144E-03
            2098            2647     30.5495E-03     30.6144E-03
            2108            2648     41.8414E-03     41.4710E-03
            2098            2648     41.8414E-03     41.4710E-03
            2099            2648     41.8414E-03     41.4710E-03
            2107            2648     41.8414E-03     41.4710E-03
            2100            2649     45.0299E-03     44.6998E-03
            2110            2649     45.0299E-03     44.6998E-03
            2101            2649     45.0299E-03     44.6998E-03
            2109            2649     45.0299E-03     44.6998E-03
            2111            2650     33.3122E-03     33.5481E-03
            2101            2650     33.3122E-03     33.5481E-03
            2102            2650     33.3122E-03     33.5481E-03
            2110            2650     33.3122E-03     33.5481E-03
            2103            2651     22.2697E-03     22.9145E-03
            2112            2651     22.2697E-03     22.9145E-03
            2102            2651     22.2697E-03     22.9145E-03
            2111            2651     22.2697E-03     22.9145E-03
            2113            2652     13.8054E-03     14.7363E-03
            2112            2652     13.8054E-03     14.7363E-03
            2103            2652     13.8054E-03     14.7363E-03
            2104            2652     13.8054E-03     14.7363E-03
            2113            2653     13.0297E-03     13.9635E-03
            2104            2653     13.0297E-03     13.9635E-03
            2114            2653     13.0297E-03     13.9635E-03
            2105            2653     13.0297E-03     13.9635E-03
            2105            2654     20.5661E-03     21.2070E-03
            2115            2654     20.5661E-03     21.2070E-03
            2106            2654     20.5661E-03     21.2070E-03
            2114            2654     20.5661E-03     21.2070E-03
            2107            2655     31.4303E-03     31.6596E-03
            2116            2655     31.4303E-03     31.6596E-03
            2115            2655     31.4303E-03     31.6596E-03
            2106            2655     31.4303E-03     31.6596E-03
            2107            2656     43.1314E-03     42.8124E-03
            2116            2656     43.1314E-03     42.8124E-03
            2117            2656     43.1314E-03     42.8124E-03
            2108            2656     43.1314E-03     42.8124E-03
            2118            2657     46.1831E-03     46.0809E-03
            2110            2657     46.1831E-03     46.0809E-03
            2119            2657     46.1831E-03     46.0809E-03
            2109            2657     46.1831E-03     46.0809E-03
            2119            2658     34.2616E-03     34.9291E-03
            2111            2658     34.2616E-03     34.9291E-03
            2110            2658     34.2616E-03     34.9291E-03
            2120            2658     34.2616E-03     34.9291E-03
            2120            2659     22.6900E-03     23.8006E-03
            2111            2659     22.6900E-03     23.8006E-03
            2121            2659     22.6900E-03     23.8006E-03
            2112            2659     22.6900E-03     23.8006E-03
            2121            2660     13.5822E-03     15.0295E-03
            2113            2660     13.5822E-03     15.0295E-03
            2112            2660     13.5822E-03     15.0295E-03
            2122            2660     13.5822E-03     15.0295E-03
            2114            2661     12.8122E-03     14.2887E-03
            2122            2661     12.8122E-03     14.2887E-03
            2123            2661     12.8122E-03     14.2887E-03
            2113            2661     12.8122E-03     14.2887E-03
            2115            2662     20.9898E-03     22.1270E-03
            2124            2662     20.9898E-03     22.1270E-03
            2114            2662     20.9898E-03     22.1270E-03
            2123            2662     20.9898E-03     22.1270E-03
            2115            2663     32.3757E-03     33.0384E-03
            2124            2663     32.3757E-03     33.0384E-03
            2125            2663     32.3757E-03     33.0384E-03
            2116            2663     32.3757E-03     33.0384E-03
            2125            2664     44.2841E-03     44.1903E-03
            2116            2664     44.2841E-03     44.1903E-03
            2117            2664     44.2841E-03     44.1903E-03
            2126            2664     44.2841E-03     44.1903E-03
            2127            2665     47.8447E-03     48.2004E-03
            2119            2665     47.8447E-03     48.2004E-03
            2128            2665     47.8447E-03     48.2004E-03
            2118            2665     47.8447E-03     48.2004E-03
            2119            2666     34.8847E-03     35.6658E-03
            2128            2666     34.8847E-03     35.6658E-03
            2120            2666     34.8847E-03     35.6658E-03
            2129            2666     34.8847E-03     35.6658E-03
            2120            2667     22.1827E-03     23.0994E-03
            2130            2667     22.1827E-03     23.0994E-03
            2121            2667     22.1827E-03     23.0994E-03
            2129            2667     22.1827E-03     23.0994E-03
            2131            2668     12.6825E-03     14.2030E-03
            2130            2668     12.6825E-03     14.2030E-03
            2121            2668     12.6825E-03     14.2030E-03
            2122            2668     12.6825E-03     14.2030E-03
            2123            2669     11.9009E-03     13.4793E-03
            2132            2669     11.9009E-03     13.4793E-03
            2122            2669     11.9009E-03     13.4793E-03
            2131            2669     11.9009E-03     13.4793E-03
            2123            2670     20.4907E-03     21.4844E-03
            2124            2670     20.4907E-03     21.4844E-03
            2132            2670     20.4907E-03     21.4844E-03
            2133            2670     20.4907E-03     21.4844E-03
            2124            2671     33.0071E-03     33.8050E-03
            2125            2671     33.0071E-03     33.8050E-03
            2133            2671     33.0071E-03     33.8050E-03
            2134            2671     33.0071E-03     33.8050E-03
            2126            2672     45.9179E-03     46.2767E-03
            2125            2672     45.9179E-03     46.2767E-03
            2135            2672     45.9179E-03     46.2767E-03
            2134            2672     45.9179E-03     46.2767E-03
            2136            2673     48.9332E-03     47.2680E-03
            2128            2673     48.9332E-03     47.2680E-03
            2127            2673     48.9332E-03     47.2680E-03
            2137            2673     48.9332E-03     47.2680E-03
            2128            2674     33.7451E-03     32.5652E-03
            2137            2674     33.7451E-03     32.5652E-03
            2129            2674     33.7451E-03     32.5652E-03
            2138            2674     33.7451E-03     32.5652E-03
            2129            2675     20.6757E-03     20.1534E-03
            2139            2675     20.6757E-03     20.1534E-03
            2130            2675     20.6757E-03     20.1534E-03
            2138            2675     20.6757E-03     20.1534E-03
            2131            2676     10.4814E-03     11.1870E-03
            2140            2676     10.4814E-03     11.1870E-03
            2139            2676     10.4814E-03     11.1870E-03
            2130            2676     10.4814E-03     11.1870E-03
            2131            2677     9.67977E-03     10.4621E-03
            2141            2677     9.67977E-03     10.4621E-03
            2140            2677     9.67977E-03     10.4621E-03
            2132            2677     9.67977E-03     10.4621E-03
            2132            2678     18.9909E-03     18.5949E-03
            2133            2678     18.9909E-03     18.5949E-03
            2142            2678     18.9909E-03     18.5949E-03
            2141            2678     18.9909E-03     18.5949E-03
            2142            2679     31.9170E-03     30.8209E-03
            2133            2679     31.9170E-03     30.8209E-03
            2143            2679     31.9170E-03     30.8209E-03
            2134            2679     31.9170E-03     30.8209E-03
            2144            2680     46.9745E-03     45.3787E-03
            2143            2680     46.9745E-03     45.3787E-03
            2135            2680     46.9745E-03     45.3787E-03
            2134            2680     46.9745E-03     45.3787E-03
            2146            2681     46.7746E-03     42.0742E-03
            2137            2681     46.7746E-03     42.0742E-03
            2145            2681     46.7746E-03     42.0742E-03
            2136            2681     46.7746E-03     42.0742E-03
            2146            2682     32.3781E-03     28.8094E-03
            2138            2682     32.3781E-03     28.8094E-03
            2137            2682     32.3781E-03     28.8094E-03
            2147            2682     32.3781E-03     28.8094E-03
            2138            2683     20.7985E-03     18.6858E-03
            2139            2683     20.7985E-03     18.6858E-03
            2148            2683     20.7985E-03     18.6858E-03
            2147            2683     20.7985E-03     18.6858E-03
            2148            2684     11.6210E-03     10.8636E-03
            2140            2684     11.6210E-03     10.8636E-03
            2149            2684     11.6210E-03     10.8636E-03
            2139            2684     11.6210E-03     10.8636E-03
            2149            2685     10.9191E-03     10.2287E-03
            2150            2685     10.9191E-03     10.2287E-03
            2141            2685     10.9191E-03     10.2287E-03
            2140            2685     10.9191E-03     10.2287E-03
            2151            2686     19.2698E-03     17.2835E-03
            2142            2686     19.2698E-03     17.2835E-03
            2141            2686     19.2698E-03     17.2835E-03
            2150            2686     19.2698E-03     17.2835E-03
            2143            2687     30.6689E-03     27.2233E-03
            2151            2687     30.6689E-03     27.2233E-03
            2152            2687     30.6689E-03     27.2233E-03
            2142            2687     30.6689E-03     27.2233E-03
            2153            2688     44.8515E-03     40.2867E-03
            2143            2688     44.8515E-03     40.2867E-03
            2152            2688     44.8515E-03     40.2867E-03
            2144            2688     44.8515E-03     40.2867E-03
            2155            2689     45.8538E-03     43.6658E-03
            2146            2689     45.8538E-03     43.6658E-03
            2154            2689     45.8538E-03     43.6658E-03
            2145            2689     45.8538E-03     43.6658E-03
            2147            2690     33.3687E-03     31.1322E-03
            2156            2690     33.3687E-03     31.1322E-03
            2155            2690     33.3687E-03     31.1322E-03
            2146            2690     33.3687E-03     31.1322E-03
            2156            2691     21.9382E-03     20.0124E-03
            2157            2691     21.9382E-03     20.0124E-03
            2148            2691     21.9382E-03     20.0124E-03
            2147            2691     21.9382E-03     20.0124E-03
            2158            2692     13.4265E-03     11.7262E-03
            2157            2692     13.4265E-03     11.7262E-03
            2149            2692     13.4265E-03     11.7262E-03
            2148            2692     13.4265E-03     11.7262E-03
            2149            2693     12.7511E-03     11.0573E-03
            2150            2693     12.7511E-03     11.0573E-03
            2159            2693     12.7511E-03     11.0573E-03
            2158            2693     12.7511E-03     11.0573E-03
            2151            2694     20.4473E-03     18.5560E-03
            2159            2694     20.4473E-03     18.5560E-03
            2160            2694     20.4473E-03     18.5560E-03
            2150            2694     20.4473E-03     18.5560E-03
            2152            2695     31.6538E-03     29.4720E-03
            2151            2695     31.6538E-03     29.4720E-03
            2160            2695     31.6538E-03     29.4720E-03
            2161            2695     31.6538E-03     29.4720E-03
            2162            2696     43.9604E-03     41.8346E-03
            2161            2696     43.9604E-03     41.8346E-03
            2152            2696     43.9604E-03     41.8346E-03
            2153            2696     43.9604E-03     41.8346E-03
            2164            2697     47.5858E-03     48.2887E-03
            2155            2697     47.5858E-03     48.2887E-03
            2154            2697     47.5858E-03     48.2887E-03
            2163            2697     47.5858E-03     48.2887E-03
            2156            2698     34.9995E-03     35.4363E-03
            2165            2698     34.9995E-03     35.4363E-03
            2155            2698     34.9995E-03     35.4363E-03
            2164            2698     34.9995E-03     35.4363E-03
            2157            2699     22.4319E-03     21.8928E-03
            2156            2699     22.4319E-03     21.8928E-03
            2166            2699     22.4319E-03     21.8928E-03
            2165            2699     22.4319E-03     21.8928E-03
            2157            2700     12.2457E-03     10.5685E-03
            2158            2700     12.2457E-03     10.5685E-03
            2167            2700     12.2457E-03     10.5685E-03
            2166            2700     12.2457E-03     10.5685E-03
            2159            2701     11.4638E-03     9.73712E-03
            2167            2701     11.4638E-03     9.73712E-03
            2158            2701     11.4638E-03     9.73712E-03
            2168            2701     11.4638E-03     9.73712E-03
            2168            2702     20.7569E-03     20.1550E-03
            2160            2702     20.7569E-03     20.1550E-03
            2159            2702     20.7569E-03     20.1550E-03
            2169            2702     20.7569E-03     20.1550E-03
            2161            2703     33.1603E-03     33.5748E-03
            2160            2703     33.1603E-03     33.5748E-03
            2170            2703     33.1603E-03     33.5748E-03
            2169            2703     33.1603E-03     33.5748E-03
            2171            2704     45.6915E-03     46.3916E-03
            2170            2704     45.6915E-03     46.3916E-03
            2161            2704     45.6915E-03     46.3916E-03
            2162            2704     45.6915E-03     46.3916E-03
            2163            2705     48.6797E-03     48.8660E-03
            2172            2705     48.6797E-03     48.8660E-03
            2164            2705     48.6797E-03     48.8660E-03
            2173            2705     48.6797E-03     48.8660E-03
            2165            2706     35.7829E-03     36.6117E-03
            2173            2706     35.7829E-03     36.6117E-03
            2164            2706     35.7829E-03     36.6117E-03
            2174            2706     35.7829E-03     36.6117E-03
            2166            2707     22.9523E-03     23.2257E-03
            2165            2707     22.9523E-03     23.2257E-03
            2174            2707     22.9523E-03     23.2257E-03
            2175            2707     22.9523E-03     23.2257E-03
            2175            2708     12.1168E-03     10.9935E-03
            2167            2708     12.1168E-03     10.9935E-03
            2176            2708     12.1168E-03     10.9935E-03
            2166            2708     12.1168E-03     10.9935E-03
            2177            2709     11.2724E-03     10.0876E-03
            2167            2709     11.2724E-03     10.0876E-03
            2176            2709     11.2724E-03     10.0876E-03
            2168            2709     11.2724E-03     10.0876E-03
            2168            2710     21.1709E-03     21.3590E-03
            2177            2710     21.1709E-03     21.3590E-03
            2178            2710     21.1709E-03     21.3590E-03
            2169            2710     21.1709E-03     21.3590E-03
            2179            2711     33.8950E-03     34.6935E-03
            2178            2711     33.8950E-03     34.6935E-03
            2169            2711     33.8950E-03     34.6935E-03
            2170            2711     33.8950E-03     34.6935E-03
            2170            2712     46.7914E-03     46.9818E-03
            2171            2712     46.7914E-03     46.9818E-03
            2179            2712     46.7914E-03     46.9818E-03
            2180            2712     46.7914E-03     46.9818E-03
            2181            2713     49.8362E-03     49.7046E-03
            2172            2713     49.8362E-03     49.7046E-03
            2173            2713     49.8362E-03     49.7046E-03
            2182            2713     49.8362E-03     49.7046E-03
            2173            2714     36.4189E-03     36.8619E-03
            2183            2714     36.4189E-03     36.8619E-03
            2182            2714     36.4189E-03     36.8619E-03
            2174            2714     36.4189E-03     36.8619E-03
            2175            2715     23.3228E-03     23.7335E-03
            2184            2715     23.3228E-03     23.7335E-03
            2183            2715     23.3228E-03     23.7335E-03
            2174            2715     23.3228E-03     23.7335E-03
            2185            2716     12.2582E-03     11.7624E-03
            2184            2716     12.2582E-03     11.7624E-03
            2176            2716     12.2582E-03     11.7624E-03
            2175            2716     12.2582E-03     11.7624E-03
            2186            2717     11.3858E-03     10.8419E-03
            2176            2717     11.3858E-03     10.8419E-03
            2177            2717     11.3858E-03     10.8419E-03
            2185            2717     11.3858E-03     10.8419E-03
            2187            2718     21.4983E-03     21.8412E-03
            2186            2718     21.4983E-03     21.8412E-03
            2177            2718     21.4983E-03     21.8412E-03
            2178            2718     21.4983E-03     21.8412E-03
            2179            2719     34.5088E-03     34.9286E-03
            2187            2719     34.5088E-03     34.9286E-03
            2178            2719     34.5088E-03     34.9286E-03
            2188            2719     34.5088E-03     34.9286E-03
            2188            2720     47.9383E-03     47.8128E-03
            2189            2720     47.9383E-03     47.8128E-03
            2180            2720     47.9383E-03     47.8128E-03
            2179            2720     47.9383E-03     47.8128E-03
            2190            2721     50.8950E-03     50.6200E-03
            2181            2721     50.8950E-03     50.6200E-03
            2182            2721     50.8950E-03     50.6200E-03
            2191            2721     50.8950E-03     50.6200E-03
            2182            2722     37.1486E-03     37.4995E-03
            2192            2722     37.1486E-03     37.4995E-03
            2183            2722     37.1486E-03     37.4995E-03
            2191            2722     37.1486E-03     37.4995E-03
            2183            2723     23.7040E-03     24.1677E-03
            2193            2723     23.7040E-03     24.1677E-03
            2192            2723     23.7040E-03     24.1677E-03
            2184            2723     23.7040E-03     24.1677E-03
            2193            2724     12.5132E-03     12.6823E-03
            2194            2724     12.5132E-03     12.6823E-03
            2184            2724     12.5132E-03     12.6823E-03
            2185            2724     12.5132E-03     12.6823E-03
            2186            2725     11.6336E-03     11.7753E-03
            2195            2725     11.6336E-03     11.7753E-03
            2185            2725     11.6336E-03     11.7753E-03
            2194            2725     11.6336E-03     11.7753E-03
            2196            2726     21.8627E-03     22.2838E-03
            2186            2726     21.8627E-03     22.2838E-03
            2187            2726     21.8627E-03     22.2838E-03
            2195            2726     21.8627E-03     22.2838E-03
            2188            2727     35.2253E-03     35.5570E-03
            2197            2727     35.2253E-03     35.5570E-03
            2196            2727     35.2253E-03     35.5570E-03
            2187            2727     35.2253E-03     35.5570E-03
            2188            2728     48.9921E-03     48.7235E-03
            2189            2728     48.9921E-03     48.7235E-03
            2198            2728     48.9921E-03     48.7235E-03
            2197            2728     48.9921E-03     48.7235E-03
            2191            2729     51.8561E-03     51.6133E-03
            2199            2729     51.8561E-03     51.6133E-03
            2190            2729     51.8561E-03     51.6133E-03
            2200            2729     51.8561E-03     51.6133E-03
            2201            2730     37.8160E-03     38.2540E-03
            2200            2730     37.8160E-03     38.2540E-03
            2191            2730     37.8160E-03     38.2540E-03
            2192            2730     37.8160E-03     38.2540E-03
            2202            2731     24.1443E-03     24.9465E-03
            2192            2731     24.1443E-03     24.9465E-03
            2193            2731     24.1443E-03     24.9465E-03
            2201            2731     24.1443E-03     24.9465E-03
            2194            2732     12.7621E-03     13.7159E-03
            2202            2732     12.7621E-03     13.7159E-03
            2203            2732     12.7621E-03     13.7159E-03
            2193            2732     12.7621E-03     13.7159E-03
            2195            2733     11.8776E-03     12.8255E-03
            2204            2733     11.8776E-03     12.8255E-03
            2203            2733     11.8776E-03     12.8255E-03
            2194            2733     11.8776E-03     12.8255E-03
            2205            2734     22.2990E-03     23.0831E-03
            2196            2734     22.2990E-03     23.0831E-03
            2195            2734     22.2990E-03     23.0831E-03
            2204            2734     22.2990E-03     23.0831E-03
            2205            2735     35.8925E-03     36.3159E-03
            2206            2735     35.8925E-03     36.3159E-03
            2196            2735     35.8925E-03     36.3159E-03
            2197            2735     35.8925E-03     36.3159E-03
            2198            2736     49.9515E-03     49.7159E-03
            2207            2736     49.9515E-03     49.7159E-03
            2197            2736     49.9515E-03     49.7159E-03
            2206            2736     49.9515E-03     49.7159E-03
            2208            2737     52.6947E-03     52.6812E-03
            2209            2737     52.6947E-03     52.6812E-03
            2200            2737     52.6947E-03     52.6812E-03
            2199            2737     52.6947E-03     52.6812E-03
            2210            2738     38.5522E-03     39.4376E-03
            2200            2738     38.5522E-03     39.4376E-03
            2209            2738     38.5522E-03     39.4376E-03
            2201            2738     38.5522E-03     39.4376E-03
            2210            2739     24.4820E-03     25.7077E-03
            2211            2739     24.4820E-03     25.7077E-03
            2202            2739     24.4820E-03     25.7077E-03
            2201            2739     24.4820E-03     25.7077E-03
            2211            2740     12.5273E-03     14.0827E-03
            2212            2740     12.5273E-03     14.0827E-03
            2203            2740     12.5273E-03     14.0827E-03
            2202            2740     12.5273E-03     14.0827E-03
            2212            2741     11.6573E-03     13.2378E-03
            2203            2741     11.6573E-03     13.2378E-03
            2213            2741     11.6573E-03     13.2378E-03
            2204            2741     11.6573E-03     13.2378E-03
            2214            2742     22.6526E-03     23.8955E-03
            2205            2742     22.6526E-03     23.8955E-03
            2204            2742     22.6526E-03     23.8955E-03
            2213            2742     22.6526E-03     23.8955E-03
            2205            2743     36.6296E-03     37.5026E-03
            2206            2743     36.6296E-03     37.5026E-03
            2214            2743     36.6296E-03     37.5026E-03
            2215            2743     36.6296E-03     37.5026E-03
            2215            2744     50.7895E-03     50.7815E-03
            2207            2744     50.7895E-03     50.7815E-03
            2206            2744     50.7895E-03     50.7815E-03
            2216            2744     50.7895E-03     50.7815E-03
            2218            2745     53.9735E-03     54.4756E-03
            2209            2745     53.9735E-03     54.4756E-03
            2217            2745     53.9735E-03     54.4756E-03
            2208            2745     53.9735E-03     54.4756E-03
            2209            2746     38.9464E-03     39.8308E-03
            2218            2746     38.9464E-03     39.8308E-03
            2219            2746     38.9464E-03     39.8308E-03
            2210            2746     38.9464E-03     39.8308E-03
            2219            2747     23.9216E-03     24.7827E-03
            2210            2747     23.9216E-03     24.7827E-03
            2211            2747     23.9216E-03     24.7827E-03
            2220            2747     23.9216E-03     24.7827E-03
            2211            2748     11.6696E-03     13.2911E-03
            2220            2748     11.6696E-03     13.2911E-03
            2221            2748     11.6696E-03     13.2911E-03
            2212            2748     11.6696E-03     13.2911E-03
            2221            2749     10.8005E-03     12.4745E-03
            2222            2749     10.8005E-03     12.4745E-03
            2213            2749     10.8005E-03     12.4745E-03
            2212            2749     10.8005E-03     12.4745E-03
            2223            2750     22.1180E-03     23.0441E-03
            2222            2750     22.1180E-03     23.0441E-03
            2213            2750     22.1180E-03     23.0441E-03
            2214            2750     22.1180E-03     23.0441E-03
            2224            2751     37.0395E-03     37.9320E-03
            2215            2751     37.0395E-03     37.9320E-03
            2214            2751     37.0395E-03     37.9320E-03
            2223            2751     37.0395E-03     37.9320E-03
            2216            2752     52.0436E-03     52.5458E-03
            2224            2752     52.0436E-03     52.5458E-03
            2225            2752     52.0436E-03     52.5458E-03
            2215            2752     52.0436E-03     52.5458E-03
            2218            2753     54.5622E-03     52.5834E-03
            2226            2753     54.5622E-03     52.5834E-03
            2227            2753     54.5622E-03     52.5834E-03
            2217            2753     54.5622E-03     52.5834E-03
            2219            2754     37.5426E-03     35.9955E-03
            2218            2754     37.5426E-03     35.9955E-03
            2228            2754     37.5426E-03     35.9955E-03
            2227            2754     37.5426E-03     35.9955E-03
            2228            2755     22.4757E-03     21.5870E-03
            2220            2755     22.4757E-03     21.5870E-03
            2229            2755     22.4757E-03     21.5870E-03
            2219            2755     22.4757E-03     21.5870E-03
            2221            2756     9.49797E-03     10.1236E-03
            2230            2756     9.49797E-03     10.1236E-03
            2229            2756     9.49797E-03     10.1236E-03
            2220            2756     9.49797E-03     10.1236E-03
            2230            2757     8.63321E-03     9.32113E-03
            2222            2757     8.63321E-03     9.32113E-03
            2221            2757     8.63321E-03     9.32113E-03
            2231            2757     8.63321E-03     9.32113E-03
            2231            2758     20.7153E-03     19.9307E-03
            2232            2758     20.7153E-03     19.9307E-03
            2222            2758     20.7153E-03     19.9307E-03
            2223            2758     20.7153E-03     19.9307E-03
            2223            2759     35.7008E-03     34.2264E-03
            2232            2759     35.7008E-03     34.2264E-03
            2224            2759     35.7008E-03     34.2264E-03
            2233            2759     35.7008E-03     34.2264E-03
            2224            2760     52.6046E-03     50.6909E-03
            2225            2760     52.6046E-03     50.6909E-03
            2234            2760     52.6046E-03     50.6909E-03
            2233            2760     52.6046E-03     50.6909E-03
            2245            2761     1.02096E-03     1.02229E-03
            2244            2761     1.02096E-03     1.02229E-03
            2236            2761     1.02096E-03     1.02229E-03
            2235            2761     1.02096E-03     1.02229E-03
            2237            2762     1.09788E-03     1.10700E-03
            2245            2762     1.09788E-03     1.10700E-03
            2236            2762     1.09788E-03     1.10700E-03
            2246            2762     1.09788E-03     1.10700E-03
            2238            2763     1.10064E-03     1.10735E-03
            2246            2763     1.10064E-03     1.10735E-03
            2247            2763     1.10064E-03     1.10735E-03
            2237            2763     1.10064E-03     1.10735E-03
            2248            2764     1.09578E-03     1.10184E-03
            2238            2764     1.09578E-03     1.10184E-03
            2239            2764     1.09578E-03     1.10184E-03
            2247            2764     1.09578E-03     1.10184E-03
            2249            2765     1.09578E-03     1.10184E-03
            2248            2765     1.09578E-03     1.10184E-03
            2239            2765     1.09578E-03     1.10184E-03
            2240            2765     1.09578E-03     1.10184E-03
            2249            2766     1.10064E-03     1.10735E-03
            2241            2766     1.10064E-03     1.10735E-03
            2240            2766     1.10064E-03     1.10735E-03
            2250            2766     1.10064E-03     1.10735E-03
            2242            2767     1.09788E-03     1.10700E-03
            2250            2767     1.09788E-03     1.10700E-03
            2251            2767     1.09788E-03     1.10700E-03
            2241            2767     1.09788E-03     1.10700E-03
            2243            2768     1.02096E-03     1.02229E-03
            2242            2768     1.02096E-03     1.02229E-03
            2252            2768     1.02096E-03     1.02229E-03
            2251            2768     1.02096E-03     1.02229E-03
            2254            2769     941.441E-06     947.650E-06
            2253            2769     941.441E-06     947.650E-06
            2245            2769     941.441E-06     947.650E-06
            2244            2769     941.441E-06     947.650E-06
            2246            2770     1.12540E-03     1.13327E-03
            2254            2770     1.12540E-03     1.13327E-03
            2245            2770     1.12540E-03     1.13327E-03
            2255            2770     1.12540E-03     1.13327E-03
            2255            2771     1.12526E-03     1.13545E-03
            2247            2771     1.12526E-03     1.13545E-03
            2256            2771     1.12526E-03     1.13545E-03
            2246            2771     1.12526E-03     1.13545E-03
            2247            2772     1.11206E-03     1.12042E-03
            2248            2772     1.11206E-03     1.12042E-03
            2257            2772     1.11206E-03     1.12042E-03
            2256            2772     1.11206E-03     1.12042E-03
            2257            2773     1.11206E-03     1.12042E-03
            2258            2773     1.11206E-03     1.12042E-03
            2249            2773     1.11206E-03     1.12042E-03
            2248            2773     1.11206E-03     1.12042E-03
            2258            2774     1.12526E-03     1.13545E-03
            2259            2774     1.12526E-03     1.13545E-03
            2250            2774     1.12526E-03     1.13545E-03
            2249            2774     1.12526E-03     1.13545E-03
            2251            2775     1.12540E-03     1.13327E-03
            2260            2775     1.12540E-03     1.13327E-03
            2259            2775     1.12540E-03     1.13327E-03
            2250            2775     1.12540E-03     1.13327E-03
            2251            2776     941.441E-06     947.650E-06
            2252            2776     941.441E-06     947.650E-06
            2260            2776     941.441E-06     947.650E-06
            2261            2776     941.441E-06     947.650E-06
            2254            2777     915.323E-06     918.678E-06
            2253            2777     915.323E-06     918.678E-06
            2263            2777     915.323E-06     918.678E-06
            2262            2777     915.323E-06     918.678E-06
            2264            2778     1.09073E-03     1.09394E-03
            2263            2778     1.09073E-03     1.09394E-03
            2254            2778     1.09073E-03     1.09394E-03
            2255            2778     1.09073E-03     1.09394E-03
            2256            2779     1.12225E-03     1.12803E-03
            2255            2779     1.12225E-03     1.12803E-03
            2265            2779     1.12225E-03     1.12803E-03
            2264            2779     1.12225E-03     1.12803E-03
            2265            2780     1.12473E-03     1.13128E-03
            2266            2780     1.12473E-03     1.13128E-03
            2256            2780     1.12473E-03     1.13128E-03
            2257            2780     1.12473E-03     1.13128E-03
            2267            2781     1.12473E-03     1.13128E-03
            2258            2781     1.12473E-03     1.13128E-03
            2257            2781     1.12473E-03     1.13128E-03
            2266            2781     1.12473E-03     1.13128E-03
            2267            2782     1.12225E-03     1.12803E-03
            2259            2782     1.12225E-03     1.12803E-03
            2268            2782     1.12225E-03     1.12803E-03
            2258            2782     1.12225E-03     1.12803E-03
            2268            2783     1.09073E-03     1.09394E-03
            2269            2783     1.09073E-03     1.09394E-03
            2260            2783     1.09073E-03     1.09394E-03
            2259            2783     1.09073E-03     1.09394E-03
            2261            2784     915.323E-06     918.678E-06
            2269            2784     915.323E-06     918.678E-06
            2260            2784     915.323E-06     918.678E-06
            2270            2784     915.323E-06     918.678E-06
            3851            4163     40.5116E-03     53.2196E-03
            3860            4163     40.5116E-03     53.2196E-03
            3852            4163     40.5116E-03     53.2196E-03
            3861            4163     40.5116E-03     53.2196E-03
            3852            4164     21.8499E-03     37.0815E-03
            3853            4164     21.8499E-03     37.0815E-03
            3862            4164     21.8499E-03     37.0815E-03
            3861            4164     21.8499E-03     37.0815E-03
            3862            4165     10.3529E-03     21.3447E-03
            3853            4165     10.3529E-03     21.3447E-03
            3854            4165     10.3529E-03     21.3447E-03
            3863            4165     10.3529E-03     21.3447E-03
            3854            4166     11.5480E-03     8.80902E-03
            3855            4166     11.5480E-03     8.80902E-03
            3864            4166     11.5480E-03     8.80902E-03
            3863            4166     11.5480E-03     8.80902E-03
            3864            4167     22.3703E-03     10.4661E-03
            3855            4167     22.3703E-03     10.4661E-03
            3856            4167     22.3703E-03     10.4661E-03
            3865            4167     22.3703E-03     10.4661E-03
            3856            4168     35.1972E-03     24.7302E-03
            3866            4168     35.1972E-03     24.7302E-03
            3857            4168     35.1972E-03     24.7302E-03
            3865            4168     35.1972E-03     24.7302E-03
            3867            4169     49.5945E-03     41.1254E-03
            3857            4169     49.5945E-03     41.1254E-03
            3866            4169     49.5945E-03     41.1254E-03
            3858            4169     49.5945E-03     41.1254E-03
            3858            4170     66.4233E-03     60.0555E-03
            3868            4170     66.4233E-03     60.0555E-03
            3867            4170     66.4233E-03     60.0555E-03
            3859            4170     66.4233E-03     60.0555E-03
            3860            4171     46.1445E-03     47.3946E-03
            3870            4171     46.1445E-03     47.3946E-03
            3869            4171     46.1445E-03     47.3946E-03
            3861            4171     46.1445E-03     47.3946E-03
            3871            4172     29.2692E-03     34.7086E-03
            3861            4172     29.2692E-03     34.7086E-03
            3870            4172     29.2692E-03     34.7086E-03
            3862            4172     29.2692E-03     34.7086E-03
            3871            4173     15.3015E-03     20.1270E-03
            3863            4173     15.3015E-03     20.1270E-03
            3862            4173     15.3015E-03     20.1270E-03
            3872            4173     15.3015E-03     20.1270E-03
            3872            4174     12.8965E-03     10.0033E-03
            3863            4174     12.8965E-03     10.0033E-03
            3873            4174     12.8965E-03     10.0033E-03
            3864            4174     12.8965E-03     10.0033E-03
            3873            4175     21.9530E-03     14.8085E-03
            3864            4175     21.9530E-03     14.8085E-03
            3865            4175     21.9530E-03     14.8085E-03
            3874            4175     21.9530E-03     14.8085E-03
            3865            4176     35.2516E-03     30.3164E-03
            3866            4176     35.2516E-03     30.3164E-03
            3875            4176     35.2516E-03     30.3164E-03
            3874            4176     35.2516E-03     30.3164E-03
            3866            4177     49.8583E-03     47.4567E-03
            3876            4177     49.8583E-03     47.4567E-03
            3867            4177     49.8583E-03     47.4567E-03
            3875            4177     49.8583E-03     47.4567E-03
            3868            4178     64.2893E-03     63.3736E-03
            3867            4178     64.2893E-03     63.3736E-03
            3876            4178     64.2893E-03     63.3736E-03
            3877            4178     64.2893E-03     63.3736E-03
            3870            4179     44.1230E-03     45.9559E-03
            3879            4179     44.1230E-03     45.9559E-03
            3869            4179     44.1230E-03     45.9559E-03
            3878            4179     44.1230E-03     45.9559E-03
            3879            4180     30.9683E-03     32.7049E-03
            3870            4180     30.9683E-03     32.7049E-03
            3871            4180     30.9683E-03     32.7049E-03
            3880            4180     30.9683E-03     32.7049E-03
            3880            4181     19.5988E-03     17.5348E-03
            3871            4181     19.5988E-03     17.5348E-03
            3872            4181     19.5988E-03     17.5348E-03
            3881            4181     19.5988E-03     17.5348E-03
            3882            4182     14.4489E-03     10.0003E-03
            3872            4182     14.4489E-03     10.0003E-03
            3881            4182     14.4489E-03     10.0003E-03
            3873            4182     14.4489E-03     10.0003E-03
            3883            4183     20.6757E-03     17.8351E-03
            3882            4183     20.6757E-03     17.8351E-03
            3873            4183     20.6757E-03     17.8351E-03
            3874            4183     20.6757E-03     17.8351E-03
            3875            4184     34.0787E-03     33.7623E-03
            3883            4184     34.0787E-03     33.7623E-03
            3874            4184     34.0787E-03     33.7623E-03
            3884            4184     34.0787E-03     33.7623E-03
            3875            4185     48.2155E-03     49.2183E-03
            3876            4185     48.2155E-03     49.2183E-03
            3884            4185     48.2155E-03     49.2183E-03
            3885            4185     48.2155E-03     49.2183E-03
            3877            4186     61.5638E-03     61.8973E-03
            3876            4186     61.5638E-03     61.8973E-03
            3885            4186     61.5638E-03     61.8973E-03
            3886            4186     61.5638E-03     61.8973E-03
            3888            4187     43.4695E-03     44.8299E-03
            3878            4187     43.4695E-03     44.8299E-03
            3887            4187     43.4695E-03     44.8299E-03
            3879            4187     43.4695E-03     44.8299E-03
            3888            4188     33.2724E-03     28.4432E-03
            3880            4188     33.2724E-03     28.4432E-03
            3879            4188     33.2724E-03     28.4432E-03
            3889            4188     33.2724E-03     28.4432E-03
            3890            4189     22.3645E-03     13.7244E-03
            3880            4189     22.3645E-03     13.7244E-03
            3881            4189     22.3645E-03     13.7244E-03
            3889            4189     22.3645E-03     13.7244E-03
            3890            4190     15.4473E-03     10.6231E-03
            3881            4190     15.4473E-03     10.6231E-03
            3891            4190     15.4473E-03     10.6231E-03
            3882            4190     15.4473E-03     10.6231E-03
            3891            4191     19.2858E-03     20.2217E-03
            3892            4191     19.2858E-03     20.2217E-03
            3883            4191     19.2858E-03     20.2217E-03
            3882            4191     19.2858E-03     20.2217E-03
            3892            4192     31.0458E-03     34.2909E-03
            3893            4192     31.0458E-03     34.2909E-03
            3883            4192     31.0458E-03     34.2909E-03
            3884            4192     31.0458E-03     34.2909E-03
            3893            4193     45.3055E-03     48.5932E-03
            3885            4193     45.3055E-03     48.5932E-03
            3884            4193     45.3055E-03     48.5932E-03
            3894            4193     45.3055E-03     48.5932E-03
            3895            4194     59.4238E-03     61.3357E-03
            3885            4194     59.4238E-03     61.3357E-03
            3886            4194     59.4238E-03     61.3357E-03
            3894            4194     59.4238E-03     61.3357E-03
            3888            4195     49.9825E-03     32.4930E-03
            3887            4195     49.9825E-03     32.4930E-03
            3896            4195     49.9825E-03     32.4930E-03
            3897            4195     49.9825E-03     32.4930E-03
            3897            4196     38.1036E-03     19.0454E-03
            3889            4196     38.1036E-03     19.0454E-03
            3898            4196     38.1036E-03     19.0454E-03
            3888            4196     38.1036E-03     19.0454E-03
            3889            4197     25.1168E-03     12.3357E-03
            3899            4197     25.1168E-03     12.3357E-03
            3890            4197     25.1168E-03     12.3357E-03
            3898            4197     25.1168E-03     12.3357E-03
            3900            4198     16.9362E-03     14.3286E-03
            3899            4198     16.9362E-03     14.3286E-03
            3891            4198     16.9362E-03     14.3286E-03
            3890            4198     16.9362E-03     14.3286E-03
            3891            4199     18.0976E-03     23.0093E-03
            3892            4199     18.0976E-03     23.0093E-03
            3901            4199     18.0976E-03     23.0093E-03
            3900            4199     18.0976E-03     23.0093E-03
            3893            4200     27.4948E-03     33.6369E-03
            3892            4200     27.4948E-03     33.6369E-03
            3901            4200     27.4948E-03     33.6369E-03
            3902            4200     27.4948E-03     33.6369E-03
            3902            4201     40.4944E-03     45.2067E-03
            3894            4201     40.4944E-03     45.2067E-03
            3893            4201     40.4944E-03     45.2067E-03
            3903            4201     40.4944E-03     45.2067E-03
            3895            4202     55.1967E-03     57.4860E-03
            3894            4202     55.1967E-03     57.4860E-03
            3904            4202     55.1967E-03     57.4860E-03
            3903            4202     55.1967E-03     57.4860E-03
            3905            4203     56.5642E-03     37.5664E-03
            3906            4203     56.5642E-03     37.5664E-03
            3915            4203     56.5642E-03     37.5664E-03
            3914            4203     56.5642E-03     37.5664E-03
            3915            4204     41.5147E-03     27.5595E-03
            3916            4204     41.5147E-03     27.5595E-03
            3907            4204     41.5147E-03     27.5595E-03
            3906            4204     41.5147E-03     27.5595E-03
            3907            4205     29.6392E-03     21.8890E-03
            3917            4205     29.6392E-03     21.8890E-03
            3916            4205     29.6392E-03     21.8890E-03
            3908            4205     29.6392E-03     21.8890E-03
            3909            4206     22.2337E-03     22.1809E-03
            3917            4206     22.2337E-03     22.1809E-03
            3918            4206     22.2337E-03     22.1809E-03
            3908            4206     22.2337E-03     22.1809E-03
            3918            4207     22.3545E-03     27.3239E-03
            3910            4207     22.3545E-03     27.3239E-03
            3919            4207     22.3545E-03     27.3239E-03
            3909            4207     22.3545E-03     27.3239E-03
            3919            4208     30.3844E-03     35.4281E-03
            3910            4208     30.3844E-03     35.4281E-03
            3920            4208     30.3844E-03     35.4281E-03
            3911            4208     30.3844E-03     35.4281E-03
            3921            4209     42.1911E-03     45.3676E-03
            3911            4209     42.1911E-03     45.3676E-03
            3920            4209     42.1911E-03     45.3676E-03
            3912            4209     42.1911E-03     45.3676E-03
            3913            4210     56.3087E-03     57.5633E-03
            3921            4210     56.3087E-03     57.5633E-03
            3912            4210     56.3087E-03     57.5633E-03
            3922            4210     56.3087E-03     57.5633E-03
            3915            4211     50.6673E-03     33.2898E-03
            3923            4211     50.6673E-03     33.2898E-03
            3924            4211     50.6673E-03     33.2898E-03
            3914            4211     50.6673E-03     33.2898E-03
            3916            4212     37.2062E-03     18.2136E-03
            3925            4212     37.2062E-03     18.2136E-03
            3915            4212     37.2062E-03     18.2136E-03
            3924            4212     37.2062E-03     18.2136E-03
            3916            4213     23.2445E-03     9.81647E-03
            3917            4213     23.2445E-03     9.81647E-03
            3925            4213     23.2445E-03     9.81647E-03
            3926            4213     23.2445E-03     9.81647E-03
            3926            4214     14.0808E-03     12.9643E-03
            3918            4214     14.0808E-03     12.9643E-03
            3917            4214     14.0808E-03     12.9643E-03
            3927            4214     14.0808E-03     12.9643E-03
            3919            4215     16.3232E-03     24.1771E-03
            3928            4215     16.3232E-03     24.1771E-03
            3918            4215     16.3232E-03     24.1771E-03
            3927            4215     16.3232E-03     24.1771E-03
            3929            4216     28.0976E-03     36.3816E-03
            3920            4216     28.0976E-03     36.3816E-03
            3928            4216     28.0976E-03     36.3816E-03
            3919            4216     28.0976E-03     36.3816E-03
            3930            4217     42.9198E-03     49.0423E-03
            3920            4217     42.9198E-03     49.0423E-03
            3929            4217     42.9198E-03     49.0423E-03
            3921            4217     42.9198E-03     49.0423E-03
            3930            4218     59.4939E-03     62.5726E-03
            3931            4218     59.4939E-03     62.5726E-03
            3922            4218     59.4939E-03     62.5726E-03
            3921            4218     59.4939E-03     62.5726E-03
            3923            4219     42.9379E-03     45.5243E-03
            3933            4219     42.9379E-03     45.5243E-03
            3924            4219     42.9379E-03     45.5243E-03
            3932            4219     42.9379E-03     45.5243E-03
            3925            4220     32.1598E-03     27.9944E-03
            3934            4220     32.1598E-03     27.9944E-03
            3933            4220     32.1598E-03     27.9944E-03
            3924            4220     32.1598E-03     27.9944E-03
            3926            4221     18.8067E-03     12.1766E-03
            3934            4221     18.8067E-03     12.1766E-03
            3935            4221     18.8067E-03     12.1766E-03
            3925            4221     18.8067E-03     12.1766E-03
            3926            4222     11.7385E-03     8.93967E-03
            3935            4222     11.7385E-03     8.93967E-03
            3936            4222     11.7385E-03     8.93967E-03
            3927            4222     11.7385E-03     8.93967E-03
            3927            4223     18.4031E-03     20.1176E-03
            3936            4223     18.4031E-03     20.1176E-03
            3937            4223     18.4031E-03     20.1176E-03
            3928            4223     18.4031E-03     20.1176E-03
            3929            4224     32.7552E-03     35.8710E-03
            3937            4224     32.7552E-03     35.8710E-03
            3928            4224     32.7552E-03     35.8710E-03
            3938            4224     32.7552E-03     35.8710E-03
            3938            4225     48.2929E-03     52.0192E-03
            3930            4225     48.2929E-03     52.0192E-03
            3929            4225     48.2929E-03     52.0192E-03
            3939            4225     48.2929E-03     52.0192E-03
            3931            4226     63.2132E-03     65.4181E-03
            3930            4226     63.2132E-03     65.4181E-03
            3939            4226     63.2132E-03     65.4181E-03
            3940            4226     63.2132E-03     65.4181E-03
            3932            4227     44.4360E-03     45.6930E-03
            3941            4227     44.4360E-03     45.6930E-03
            3933            4227     44.4360E-03     45.6930E-03
            3942            4227     44.4360E-03     45.6930E-03
            3933            4228     26.7579E-03     33.6461E-03
            3943            4228     26.7579E-03     33.6461E-03
            3942            4228     26.7579E-03     33.6461E-03
            3934            4228     26.7579E-03     33.6461E-03
            3935            4229     12.7349E-03     17.2777E-03
            3934            4229     12.7349E-03     17.2777E-03
            3943            4229     12.7349E-03     17.2777E-03
            3944            4229     12.7349E-03     17.2777E-03
            3945            4230     10.5007E-03     8.24369E-03
            3944            4230     10.5007E-03     8.24369E-03
            3935            4230     10.5007E-03     8.24369E-03
            3936            4230     10.5007E-03     8.24369E-03
            3946            4231     21.1837E-03     15.8636E-03
            3945            4231     21.1837E-03     15.8636E-03
            3936            4231     21.1837E-03     15.8636E-03
            3937            4231     21.1837E-03     15.8636E-03
            3947            4232     35.7984E-03     32.5220E-03
            3938            4232     35.7984E-03     32.5220E-03
            3937            4232     35.7984E-03     32.5220E-03
            3946            4232     35.7984E-03     32.5220E-03
            3938            4233     51.0884E-03     50.0384E-03
            3948            4233     51.0884E-03     50.0384E-03
            3947            4233     51.0884E-03     50.0384E-03
            3939            4233     51.0884E-03     50.0384E-03
            3939            4234     65.2517E-03     65.4116E-03
            3948            4234     65.2517E-03     65.4116E-03
            3940            4234     65.2517E-03     65.4116E-03
            3949            4234     65.2517E-03     65.4116E-03
            3950            4235     36.7724E-03     52.0005E-03
            3951            4235     36.7724E-03     52.0005E-03
            3941            4235     36.7724E-03     52.0005E-03
            3942            4235     36.7724E-03     52.0005E-03
            3951            4236     18.5219E-03     36.4593E-03
            3952            4236     18.5219E-03     36.4593E-03
            3942            4236     18.5219E-03     36.4593E-03
            3943            4236     18.5219E-03     36.4593E-03
            3944            4237     8.14282E-03     20.9359E-03
            3952            4237     8.14282E-03     20.9359E-03
            3943            4237     8.14282E-03     20.9359E-03
            3953            4237     8.14282E-03     20.9359E-03
            3954            4238     11.6640E-03     9.00954E-03
            3944            4238     11.6640E-03     9.00954E-03
            3953            4238     11.6640E-03     9.00954E-03
            3945            4238     11.6640E-03     9.00954E-03
            3945            4239     23.9066E-03     11.6950E-03
            3954            4239     23.9066E-03     11.6950E-03
            3955            4239     23.9066E-03     11.6950E-03
            3946            4239     23.9066E-03     11.6950E-03
            3946            4240     37.0584E-03     26.2600E-03
            3956            4240     37.0584E-03     26.2600E-03
            3955            4240     37.0584E-03     26.2600E-03
            3947            4240     37.0584E-03     26.2600E-03
            3957            4241     51.0803E-03     42.6087E-03
            3948            4241     51.0803E-03     42.6087E-03
            3947            4241     51.0803E-03     42.6087E-03
            3956            4241     51.0803E-03     42.6087E-03
            3949            4242     66.9942E-03     60.8164E-03
            3948            4242     66.9942E-03     60.8164E-03
            3958            4242     66.9942E-03     60.8164E-03
            3957            4242     66.9942E-03     60.8164E-03
            5325            5425     1.16806E-03     1.16223E-03
            5334            5425     1.16806E-03     1.16223E-03
            5326            5425     1.16806E-03     1.16223E-03
            5335            5425     1.16806E-03     1.16223E-03
            5326            5426     1.12828E-03     1.13967E-03
            5336            5426     1.12828E-03     1.13967E-03
            5327            5426     1.12828E-03     1.13967E-03
            5335            5426     1.12828E-03     1.13967E-03
            5328            5427     1.11482E-03     1.12656E-03
            5337            5427     1.11482E-03     1.12656E-03
            5336            5427     1.11482E-03     1.12656E-03
            5327            5427     1.11482E-03     1.12656E-03
            5337            5428     1.12249E-03     1.13380E-03
            5338            5428     1.12249E-03     1.13380E-03
            5328            5428     1.12249E-03     1.13380E-03
            5329            5428     1.12249E-03     1.13380E-03
            5339            5429     1.12249E-03     1.13380E-03
            5338            5429     1.12249E-03     1.13380E-03
            5329            5429     1.12249E-03     1.13380E-03
            5330            5429     1.12249E-03     1.13380E-03
            5331            5430     1.11482E-03     1.12656E-03
            5339            5430     1.11482E-03     1.12656E-03
            5340            5430     1.11482E-03     1.12656E-03
            5330            5430     1.11482E-03     1.12656E-03
            5340            5431     1.12828E-03     1.13967E-03
            5331            5431     1.12828E-03     1.13967E-03
            5341            5431     1.12828E-03     1.13967E-03
            5332            5431     1.12828E-03     1.13967E-03
            5333            5432     1.16806E-03     1.16223E-03
            5342            5432     1.16806E-03     1.16223E-03
            5332            5432     1.16806E-03     1.16223E-03
            5341            5432     1.16806E-03     1.16223E-03
            5334            5433     1.00679E-03     1.01351E-03
            5335            5433     1.00679E-03     1.01351E-03
            5343            5433     1.00679E-03     1.01351E-03
            5344            5433     1.00679E-03     1.01351E-03
            5335            5434     1.13211E-03     1.14625E-03
            5336            5434     1.13211E-03     1.14625E-03
            5345            5434     1.13211E-03     1.14625E-03
            5344            5434     1.13211E-03     1.14625E-03
            5345            5435     1.17283E-03     1.18935E-03
            5346            5435     1.17283E-03     1.18935E-03
            5337            5435     1.17283E-03     1.18935E-03
            5336            5435     1.17283E-03     1.18935E-03
            5338            5436     1.18565E-03     1.20023E-03
            5337            5436     1.18565E-03     1.20023E-03
            5346            5436     1.18565E-03     1.20023E-03
            5347            5436     1.18565E-03     1.20023E-03
            5339            5437     1.18565E-03     1.20023E-03
            5338            5437     1.18565E-03     1.20023E-03
            5347            5437     1.18565E-03     1.20023E-03
            5348            5437     1.18565E-03     1.20023E-03
            5349            5438     1.17283E-03     1.18935E-03
            5340            5438     1.17283E-03     1.18935E-03
            5339            5438     1.17283E-03     1.18935E-03
            5348            5438     1.17283E-03     1.18935E-03
            5341            5439     1.13211E-03     1.14625E-03
            5349            5439     1.13211E-03     1.14625E-03
            5340            5439     1.13211E-03     1.14625E-03
            5350            5439     1.13211E-03     1.14625E-03
            5351            5440     1.00679E-03     1.01351E-03
            5341            5440     1.00679E-03     1.01351E-03
            5342            5440     1.00679E-03     1.01351E-03
            5350            5440     1.00679E-03     1.01351E-03
            5352            5441     886.616E-06     893.267E-06
            5353            5441     886.616E-06     893.267E-06
            5343            5441     886.616E-06     893.267E-06
            5344            5441     886.616E-06     893.267E-06
            5353            5442     1.09611E-03     1.10194E-03
            5345            5442     1.09611E-03     1.10194E-03
            5354            5442     1.09611E-03     1.10194E-03
            5344            5442     1.09611E-03     1.10194E-03
            5355            5443     1.19450E-03     1.20316E-03
            5346            5443     1.19450E-03     1.20316E-03
            5354            5443     1.19450E-03     1.20316E-03
            5345            5443     1.19450E-03     1.20316E-03
            5356            5444     1.21331E-03     1.22297E-03
            5347            5444     1.21331E-03     1.22297E-03
            5346            5444     1.21331E-03     1.22297E-03
            5355            5444     1.21331E-03     1.22297E-03
            5347            5445     1.21331E-03     1.22297E-03
            5356            5445     1.21331E-03     1.22297E-03
            5348            5445     1.21331E-03     1.22297E-03
            5357            5445     1.21331E-03     1.22297E-03
            5348            5446     1.19450E-03     1.20316E-03
            5349            5446     1.19450E-03     1.20316E-03
            5357            5446     1.19450E-03     1.20316E-03
            5358            5446     1.19450E-03     1.20316E-03
            5358            5447     1.09611E-03     1.10194E-03
            5350            5447     1.09611E-03     1.10194E-03
            5349            5447     1.09611E-03     1.10194E-03
            5359            5447     1.09611E-03     1.10194E-03
            5351            5448     886.616E-06     893.267E-06
            5359            5448     886.616E-06     893.267E-06
            5350            5448     886.616E-06     893.267E-06
            5360            5448     886.616E-06     893.267E-06
            5352            5449     854.983E-06     865.438E-06
            5361            5449     854.983E-06     865.438E-06
            5353            5449     854.983E-06     865.438E-06
            5362            5449     854.983E-06     865.438E-06
            5353            5450     1.08547E-03     1.08724E-03
            5363            5450     1.08547E-03     1.08724E-03
            5362            5450     1.08547E-03     1.08724E-03
            5354            5450     1.08547E-03     1.08724E-03
            5355            5451     1.17290E-03     1.17328E-03
            5363            5451     1.17290E-03     1.17328E-03
            5364            5451     1.17290E-03     1.17328E-03
            5354            5451     1.17290E-03     1.17328E-03
            5365            5452     1.19894E-03     1.20084E-03
            5355            5452     1.19894E-03     1.20084E-03
            5356            5452     1.19894E-03     1.20084E-03
            5364            5452     1.19894E-03     1.20084E-03
            5365            5453     1.19894E-03     1.20084E-03
            5366            5453     1.19894E-03     1.20084E-03
            5357            5453     1.19894E-03     1.20084E-03
            5356            5453     1.19894E-03     1.20084E-03
            5358            5454     1.17290E-03     1.17328E-03
            5366            5454     1.17290E-03     1.17328E-03
            5357            5454     1.17290E-03     1.17328E-03
            5367            5454     1.17290E-03     1.17328E-03
            5368            5455     1.08547E-03     1.08724E-03
            5359            5455     1.08547E-03     1.08724E-03
            5358            5455     1.08547E-03     1.08724E-03
            5367            5455     1.08547E-03     1.08724E-03
            5368            5456     854.983E-06     865.438E-06
            5360            5456     854.983E-06     865.438E-06
            5359            5456     854.983E-06     865.438E-06
            5369            5456     854.983E-06     865.438E-06
            5361            5457     881.768E-06     889.235E-06
            5370            5457     881.768E-06     889.235E-06
            5362            5457     881.768E-06     889.235E-06
            5371            5457     881.768E-06     889.235E-06
            5362            5458     1.06298E-03     1.06248E-03
            5372            5458     1.06298E-03     1.06248E-03
            5363            5458     1.06298E-03     1.06248E-03
            5371            5458     1.06298E-03     1.06248E-03
            5373            5459     1.13198E-03     1.12980E-03
            5363            5459     1.13198E-03     1.12980E-03
            5372            5459     1.13198E-03     1.12980E-03
            5364            5459     1.13198E-03     1.12980E-03
            5373            5460     1.16564E-03     1.16370E-03
            5365            5460     1.16564E-03     1.16370E-03
            5364            5460     1.16564E-03     1.16370E-03
            5374            5460     1.16564E-03     1.16370E-03
            5366            5461     1.16564E-03     1.16370E-03
            5375            5461     1.16564E-03     1.16370E-03
            5374            5461     1.16564E-03     1.16370E-03
            5365            5461     1.16564E-03     1.16370E-03
            5367            5462     1.13198E-03     1.12980E-03
            5375            5462     1.13198E-03     1.12980E-03
            5366            5462     1.13198E-03     1.12980E-03
            5376            5462     1.13198E-03     1.12980E-03
            5377            5463     1.06298E-03     1.06248E-03
            5368            5463     1.06298E-03     1.06248E-03
            5376            5463     1.06298E-03     1.06248E-03
            5367            5463     1.06298E-03     1.06248E-03
            5378            5464     881.768E-06     889.235E-06
            5377            5464     881.768E-06     889.235E-06
            5369            5464     881.768E-06     889.235E-06
            5368            5464     881.768E-06     889.235E-06
            5388            5465     50.2464E-03     48.0734E-03
            5389            5465     50.2464E-03     48.0734E-03
            5379            5465     50.2464E-03     48.0734E-03
            5380            5465     50.2464E-03     48.0734E-03
            5389            5466     34.8031E-03     33.2418E-03
            5380            5466     34.8031E-03     33.2418E-03
            5390            5466     34.8031E-03     33.2418E-03
            5381            5466     34.8031E-03     33.2418E-03
            5381            5467     21.5639E-03     20.7528E-03
            5390            5467     21.5639E-03     20.7528E-03
            5382            5467     21.5639E-03     20.7528E-03
            5391            5467     21.5639E-03     20.7528E-03
            5392            5468     10.2773E-03     10.2737E-03
            5383            5468     10.2773E-03     10.2737E-03
            5382            5468     10.2773E-03     10.2737E-03
            5391            5468     10.2773E-03     10.2737E-03
            5383            5469     9.27993E-03     9.33584E-03
            5392            5469     9.27993E-03     9.33584E-03
            5393            5469     9.27993E-03     9.33584E-03
            5384            5469     9.27993E-03     9.33584E-03
            5385            5470     19.4857E-03     18.7781E-03
            5393            5470     19.4857E-03     18.7781E-03
            5394            5470     19.4857E-03     18.7781E-03
            5384            5470     19.4857E-03     18.7781E-03
            5386            5471     32.6120E-03     31.1414E-03
            5394            5471     32.6120E-03     31.1414E-03
            5385            5471     32.6120E-03     31.1414E-03
            5395            5471     32.6120E-03     31.1414E-03
            5395            5472     47.9341E-03     45.8580E-03
            5396            5472     47.9341E-03     45.8580E-03
            5386            5472     47.9341E-03     45.8580E-03
            5387            5472     47.9341E-03     45.8580E-03
            5397            5473     53.5956E-03     51.7741E-03
            5398            5473     53.5956E-03     51.7741E-03
            5388            5473     53.5956E-03     51.7741E-03
            5389            5473     53.5956E-03     51.7741E-03
            5399            5474     37.0149E-03     35.7614E-03
            5390            5474     37.0149E-03     35.7614E-03
            5398            5474     37.0149E-03     35.7614E-03
            5389            5474     37.0149E-03     35.7614E-03
            5391            5475     22.9572E-03     22.4487E-03
            5390            5475     22.9572E-03     22.4487E-03
            5400            5475     22.9572E-03     22.4487E-03
            5399            5475     22.9572E-03     22.4487E-03
            5400            5476     12.3007E-03     13.0880E-03
            5391            5476     12.3007E-03     13.0880E-03
            5392            5476     12.3007E-03     13.0880E-03
            5401            5476     12.3007E-03     13.0880E-03
            5401            5477     11.3283E-03     12.2134E-03
            5402            5477     11.3283E-03     12.2134E-03
            5393            5477     11.3283E-03     12.2134E-03
            5392            5477     11.3283E-03     12.2134E-03
            5393            5478     20.8845E-03     20.5378E-03
            5403            5478     20.8845E-03     20.5378E-03
            5394            5478     20.8845E-03     20.5378E-03
            5402            5478     20.8845E-03     20.5378E-03
            5394            5479     34.7300E-03     33.5844E-03
            5404            5479     34.7300E-03     33.5844E-03
            5395            5479     34.7300E-03     33.5844E-03
            5403            5479     34.7300E-03     33.5844E-03
            5396            5480     51.1364E-03     49.4034E-03
            5404            5480     51.1364E-03     49.4034E-03
            5395            5480     51.1364E-03     49.4034E-03
            5405            5480     51.1364E-03     49.4034E-03
            5406            5481     52.2136E-03     52.5774E-03
            5407            5481     52.2136E-03     52.5774E-03
            5398            5481     52.2136E-03     52.5774E-03
            5397            5481     52.2136E-03     52.5774E-03
            5398            5482     38.2401E-03     39.0894E-03
            5399            5482     38.2401E-03     39.0894E-03
            5407            5482     38.2401E-03     39.0894E-03
            5408            5482     38.2401E-03     39.0894E-03
            5408            5483     24.6663E-03     25.6980E-03
            5399            5483     24.6663E-03     25.6980E-03
            5409            5483     24.6663E-03     25.6980E-03
            5400            5483     24.6663E-03     25.6980E-03
            5401            5484     14.7672E-03     16.4288E-03
            5409            5484     14.7672E-03     16.4288E-03
            5410            5484     14.7672E-03     16.4288E-03
            5400            5484     14.7672E-03     16.4288E-03
            5410            5485     13.8257E-03     15.5583E-03
            5411            5485     13.8257E-03     15.5583E-03
            5402            5485     13.8257E-03     15.5583E-03
            5401            5485     13.8257E-03     15.5583E-03
            5402            5486     22.5952E-03     23.7234E-03
            5412            5486     22.5952E-03     23.7234E-03
            5411            5486     22.5952E-03     23.7234E-03
            5403            5486     22.5952E-03     23.7234E-03
            5403            5487     35.8992E-03     36.7713E-03
            5404            5487     35.8992E-03     36.7713E-03
            5413            5487     35.8992E-03     36.7713E-03
            5412            5487     35.8992E-03     36.7713E-03
            5414            5488     49.7970E-03     50.1650E-03
            5405            5488     49.7970E-03     50.1650E-03
            5404            5488     49.7970E-03     50.1650E-03
            5413            5488     49.7970E-03     50.1650E-03
            5406            5489     50.2220E-03     50.1217E-03
            5407            5489     50.2220E-03     50.1217E-03
            5415            5489     50.2220E-03     50.1217E-03
            5416            5489     50.2220E-03     50.1217E-03
            5408            5490     37.4991E-03     38.2439E-03
            5417            5490     37.4991E-03     38.2439E-03
            5416            5490     37.4991E-03     38.2439E-03
            5407            5490     37.4991E-03     38.2439E-03
            5408            5491     25.2646E-03     26.5113E-03
            5417            5491     25.2646E-03     26.5113E-03
            5409            5491     25.2646E-03     26.5113E-03
            5418            5491     25.2646E-03     26.5113E-03
            5409            5492     15.8201E-03     17.4144E-03
            5410            5492     15.8201E-03     17.4144E-03
            5418            5492     15.8201E-03     17.4144E-03
            5419            5492     15.8201E-03     17.4144E-03
            5419            5493     14.8982E-03     16.5274E-03
            5420            5493     14.8982E-03     16.5274E-03
            5410            5493     14.8982E-03     16.5274E-03
            5411            5493     14.8982E-03     16.5274E-03
            5412            5494     23.1901E-03     24.4688E-03
            5421            5494     23.1901E-03     24.4688E-03
            5411            5494     23.1901E-03     24.4688E-03
            5420            5494     23.1901E-03     24.4688E-03
            5412            5495     35.1509E-03     35.8895E-03
            5422            5495     35.1509E-03     35.8895E-03
            5421            5495     35.1509E-03     35.8895E-03
            5413            5495     35.1509E-03     35.8895E-03
            5422            5496     47.8431E-03     47.7527E-03
            5413            5496     47.8431E-03     47.7527E-03
            5423            5496     47.8431E-03     47.7527E-03
            5414            5496     47.8431E-03     47.7527E-03
            5415            5497     48.8143E-03     48.4768E-03
            5416            5497     48.8143E-03     48.4768E-03
            5425            5497     48.8143E-03     48.4768E-03
            5424            5497     48.8143E-03     48.4768E-03
            5417            5498     36.3811E-03     36.6747E-03
            5425            5498     36.3811E-03     36.6747E-03
            5416            5498     36.3811E-03     36.6747E-03
            5426            5498     36.3811E-03     36.6747E-03
            5426            5499     24.8061E-03     25.5533E-03
            5417            5499     24.8061E-03     25.5533E-03
            5418            5499     24.8061E-03     25.5533E-03
            5427            5499     24.8061E-03     25.5533E-03
            5419            5500     16.1135E-03     17.1559E-03
            5427            5500     16.1135E-03     17.1559E-03
            5418            5500     16.1135E-03     17.1559E-03
            5428            5500     16.1135E-03     17.1559E-03
            5429            5501     15.1881E-03     16.2327E-03
            5428            5501     15.1881E-03     16.2327E-03
            5419            5501     15.1881E-03     16.2327E-03
            5420            5501     15.1881E-03     16.2327E-03
            5420            5502     22.7333E-03     23.4740E-03
            5429            5502     22.7333E-03     23.4740E-03
            5430            5502     22.7333E-03     23.4740E-03
            5421            5502     22.7333E-03     23.4740E-03
            5421            5503     34.0417E-03     34.3263E-03
            5422            5503     34.0417E-03     34.3263E-03
            5431            5503     34.0417E-03     34.3263E-03
            5430            5503     34.0417E-03     34.3263E-03
            5432            5504     46.4385E-03     46.1146E-03
            5431            5504     46.4385E-03     46.1146E-03
            5422            5504     46.4385E-03     46.1146E-03
            5423            5504     46.4385E-03     46.1146E-03
            5434            5505     47.2677E-03     46.8868E-03
            5433            5505     47.2677E-03     46.8868E-03
            5425            5505     47.2677E-03     46.8868E-03
            5424            5505     47.2677E-03     46.8868E-03
            5425            5506     35.3337E-03     35.4601E-03
            5434            5506     35.3337E-03     35.4601E-03
            5435            5506     35.3337E-03     35.4601E-03
            5426            5506     35.3337E-03     35.4601E-03
            5435            5507     24.1790E-03     24.5317E-03
            5436            5507     24.1790E-03     24.5317E-03
            5426            5507     24.1790E-03     24.5317E-03
            5427            5507     24.1790E-03     24.5317E-03
            5436            5508     15.8899E-03     16.2469E-03
            5428            5508     15.8899E-03     16.2469E-03
            5427            5508     15.8899E-03     16.2469E-03
            5437            5508     15.8899E-03     16.2469E-03
            5438            5509     14.9777E-03     15.3173E-03
            5437            5509     14.9777E-03     15.3173E-03
            5428            5509     14.9777E-03     15.3173E-03
            5429            5509     14.9777E-03     15.3173E-03
            5438            5510     22.1229E-03     22.4446E-03
            5430            5510     22.1229E-03     22.4446E-03
            5429            5510     22.1229E-03     22.4446E-03
            5439            5510     22.1229E-03     22.4446E-03
            5440            5511     33.0009E-03     33.1120E-03
            5431            5511     33.0009E-03     33.1120E-03
            5430            5511     33.0009E-03     33.1120E-03
            5439            5511     33.0009E-03     33.1120E-03
            5440            5512     44.8972E-03     44.5275E-03
            5431            5512     44.8972E-03     44.5275E-03
            5432            5512     44.8972E-03     44.5275E-03
            5441            5512     44.8972E-03     44.5275E-03
            5443            5513     45.7215E-03     45.4024E-03
            5434            5513     45.7215E-03     45.4024E-03
            5433            5513     45.7215E-03     45.4024E-03
            5442            5513     45.7215E-03     45.4024E-03
            5444            5514     34.2201E-03     34.3513E-03
            5434            5514     34.2201E-03     34.3513E-03
            5435            5514     34.2201E-03     34.3513E-03
            5443            5514     34.2201E-03     34.3513E-03
            5435            5515     23.5671E-03     23.7032E-03
            5436            5515     23.5671E-03     23.7032E-03
            5444            5515     23.5671E-03     23.7032E-03
            5445            5515     23.5671E-03     23.7032E-03
            5436            5516     15.5707E-03     15.3602E-03
            5446            5516     15.5707E-03     15.3602E-03
            5445            5516     15.5707E-03     15.3602E-03
            5437            5516     15.5707E-03     15.3602E-03
            5438            5517     14.6764E-03     14.4240E-03
            5447            5517     14.6764E-03     14.4240E-03
            5437            5517     14.6764E-03     14.4240E-03
            5446            5517     14.6764E-03     14.4240E-03
            5439            5518     21.5385E-03     21.6117E-03
            5447            5518     21.5385E-03     21.6117E-03
            5448            5518     21.5385E-03     21.6117E-03
            5438            5518     21.5385E-03     21.6117E-03
            5440            5519     31.9017E-03     32.0086E-03
            5448            5519     31.9017E-03     32.0086E-03
            5439            5519     31.9017E-03     32.0086E-03
            5449            5519     31.9017E-03     32.0086E-03
            5440            5520     43.3577E-03     43.0479E-03
            5449            5520     43.3577E-03     43.0479E-03
            5441            5520     43.3577E-03     43.0479E-03
            5450            5520     43.3577E-03     43.0479E-03
            5443            5521     44.1508E-03     44.0186E-03
            5451            5521     44.1508E-03     44.0186E-03
            5452            5521     44.1508E-03     44.0186E-03
            5442            5521     44.1508E-03     44.0186E-03
            5443            5522     33.1678E-03     33.4611E-03
            5444            5522     33.1678E-03     33.4611E-03
            5453            5522     33.1678E-03     33.4611E-03
            5452            5522     33.1678E-03     33.4611E-03
            5444            5523     22.9568E-03     23.0067E-03
            5454            5523     22.9568E-03     23.0067E-03
            5453            5523     22.9568E-03     23.0067E-03
            5445            5523     22.9568E-03     23.0067E-03
            5454            5524     15.2902E-03     14.5183E-03
            5446            5524     15.2902E-03     14.5183E-03
            5445            5524     15.2902E-03     14.5183E-03
            5455            5524     15.2902E-03     14.5183E-03
            5455            5525     14.4148E-03     13.5711E-03
            5456            5525     14.4148E-03     13.5711E-03
            5447            5525     14.4148E-03     13.5711E-03
            5446            5525     14.4148E-03     13.5711E-03
            5447            5526     20.9680E-03     20.9160E-03
            5456            5526     20.9680E-03     20.9160E-03
            5457            5526     20.9680E-03     20.9160E-03
            5448            5526     20.9680E-03     20.9160E-03
            5449            5527     30.8794E-03     31.1380E-03
            5457            5527     30.8794E-03     31.1380E-03
            5458            5527     30.8794E-03     31.1380E-03
            5448            5527     30.8794E-03     31.1380E-03
            5458            5528     41.7989E-03     41.6748E-03
            5449            5528     41.7989E-03     41.6748E-03
            5450            5528     41.7989E-03     41.6748E-03
            5459            5528     41.7989E-03     41.6748E-03
            5460            5529     42.4358E-03     42.6666E-03
            5452            5529     42.4358E-03     42.6666E-03
            5461            5529     42.4358E-03     42.6666E-03
            5451            5529     42.4358E-03     42.6666E-03
            5461            5530     32.1877E-03     32.8017E-03
            5453            5530     32.1877E-03     32.8017E-03
            5462            5530     32.1877E-03     32.8017E-03
            5452            5530     32.1877E-03     32.8017E-03
            5462            5531     22.4618E-03     22.2705E-03
            5453            5531     22.4618E-03     22.2705E-03
            5463            5531     22.4618E-03     22.2705E-03
            5454            5531     22.4618E-03     22.2705E-03
            5463            5532     15.0079E-03     13.6456E-03
            5464            5532     15.0079E-03     13.6456E-03
            5455            5532     15.0079E-03     13.6456E-03
            5454            5532     15.0079E-03     13.6456E-03
            5456            5533     14.1769E-03     12.7271E-03
            5455            5533     14.1769E-03     12.7271E-03
            5464            5533     14.1769E-03     12.7271E-03
            5465            5533     14.1769E-03     12.7271E-03
            5466            5534     20.5474E-03     20.2275E-03
            5457            5534     20.5474E-03     20.2275E-03
            5456            5534     20.5474E-03     20.2275E-03
            5465            5534     20.5474E-03     20.2275E-03
            5466            5535     29.9452E-03     30.5088E-03
            5458            5535     29.9452E-03     30.5088E-03
            5457            5535     29.9452E-03     30.5088E-03
            5467            5535     29.9452E-03     30.5088E-03
            5459            5536     40.1071E-03     40.3416E-03
            5467            5536     40.1071E-03     40.3416E-03
            5468            5536     40.1071E-03     40.3416E-03
            5458            5536     40.1071E-03     40.3416E-03
            5460            5537     40.7218E-03     41.3642E-03
            5469            5537     40.7218E-03     41.3642E-03
            5470            5537     40.7218E-03     41.3642E-03
            5461            5537     40.7218E-03     41.3642E-03
            5470            5538     31.1592E-03     31.2874E-03
            5462            5538     31.1592E-03     31.2874E-03
            5471            5538     31.1592E-03     31.2874E-03
            5461            5538     31.1592E-03     31.2874E-03
            5463            5539     21.8945E-03     20.9335E-03
            5472            5539     21.8945E-03     20.9335E-03
            5471            5539     21.8945E-03     20.9335E-03
            5462            5539     21.8945E-03     20.9335E-03
            5464            5540     15.0403E-03     13.2541E-03
            5472            5540     15.0403E-03     13.2541E-03
            5463            5540     15.0403E-03     13.2541E-03
            5473            5540     15.0403E-03     13.2541E-03
            5465            5541     14.2801E-03     12.4326E-03
            5474            5541     14.2801E-03     12.4326E-03
            5473            5541     14.2801E-03     12.4326E-03
            5464            5541     14.2801E-03     12.4326E-03
            5474            5542     20.1190E-03     19.0697E-03
            5475            5542     20.1190E-03     19.0697E-03
            5465            5542     20.1190E-03     19.0697E-03
            5466            5542     20.1190E-03     19.0697E-03
            5467            5543     29.0049E-03     29.0916E-03
            5475            5543     29.0049E-03     29.0916E-03
            5476            5543     29.0049E-03     29.0916E-03
            5466            5543     29.0049E-03     29.0916E-03
            5477            5544     38.4035E-03     39.0412E-03
            5476            5544     38.4035E-03     39.0412E-03
            5467            5544     38.4035E-03     39.0412E-03
            5468            5544     38.4035E-03     39.0412E-03
            5478            5545     38.4354E-03     36.3960E-03
            5470            5545     38.4354E-03     36.3960E-03
            5469            5545     38.4354E-03     36.3960E-03
            5479            5545     38.4354E-03     36.3960E-03
            5480            5546     29.6249E-03     27.4105E-03
            5470            5546     29.6249E-03     27.4105E-03
            5471            5546     29.6249E-03     27.4105E-03
            5479            5546     29.6249E-03     27.4105E-03
            5471            5547     21.5382E-03     19.6211E-03
            5481            5547     21.5382E-03     19.6211E-03
            5472            5547     21.5382E-03     19.6211E-03
            5480            5547     21.5382E-03     19.6211E-03
            5472            5548     15.9377E-03     14.3178E-03
            5481            5548     15.9377E-03     14.3178E-03
            5473            5548     15.9377E-03     14.3178E-03
            5482            5548     15.9377E-03     14.3178E-03
            5482            5549     15.2973E-03     13.6972E-03
            5483            5549     15.2973E-03     13.6972E-03
            5474            5549     15.2973E-03     13.6972E-03
            5473            5549     15.2973E-03     13.6972E-03
            5474            5550     19.9883E-03     18.1321E-03
            5484            5550     19.9883E-03     18.1321E-03
            5475            5550     19.9883E-03     18.1321E-03
            5483            5550     19.9883E-03     18.1321E-03
            5475            5551     27.6520E-03     25.5162E-03
            5476            5551     27.6520E-03     25.5162E-03
            5484            5551     27.6520E-03     25.5162E-03
            5485            5551     27.6520E-03     25.5162E-03
            5485            5552     36.1442E-03     34.1908E-03
            5477            5552     36.1442E-03     34.1908E-03
            5476            5552     36.1442E-03     34.1908E-03
            5486            5552     36.1442E-03     34.1908E-03
            5488            5553     40.5715E-03     36.5941E-03
            5479            5553     40.5715E-03     36.5941E-03
            5487            5553     40.5715E-03     36.5941E-03
            5478            5553     40.5715E-03     36.5941E-03
            5488            5554     29.1195E-03     26.2029E-03
            5489            5554     29.1195E-03     26.2029E-03
            5480            5554     29.1195E-03     26.2029E-03
            5479            5554     29.1195E-03     26.2029E-03
            5489            5555     20.4371E-03     18.8255E-03
            5480            5555     20.4371E-03     18.8255E-03
            5490            5555     20.4371E-03     18.8255E-03
            5481            5555     20.4371E-03     18.8255E-03
            5491            5556     14.3531E-03     13.7864E-03
            5481            5556     14.3531E-03     13.7864E-03
            5490            5556     14.3531E-03     13.7864E-03
            5482            5556     14.3531E-03     13.7864E-03
            5491            5557     13.6696E-03     13.1946E-03
            5492            5557     13.6696E-03     13.1946E-03
            5482            5557     13.6696E-03     13.1946E-03
            5483            5557     13.6696E-03     13.1946E-03
            5483            5558     18.8030E-03     17.3724E-03
            5484            5558     18.8030E-03     17.3724E-03
            5492            5558     18.8030E-03     17.3724E-03
            5493            5558     18.8030E-03     17.3724E-03
            5484            5559     27.1041E-03     24.3661E-03
            5485            5559     27.1041E-03     24.3661E-03
            5494            5559     27.1041E-03     24.3661E-03
            5493            5559     27.1041E-03     24.3661E-03
            5485            5560     38.2116E-03     34.4170E-03
            5495            5560     38.2116E-03     34.4170E-03
            5494            5560     38.2116E-03     34.4170E-03
            5486            5560     38.2116E-03     34.4170E-03
            5487            5561     43.6788E-03     42.4035E-03
            5488            5561     43.6788E-03     42.4035E-03
            5496            5561     43.6788E-03     42.4035E-03
            5497            5561     43.6788E-03     42.4035E-03
            5488            5562     30.6898E-03     29.9850E-03
            5497            5562     30.6898E-03     29.9850E-03
            5498            5562     30.6898E-03     29.9850E-03
            5489            5562     30.6898E-03     29.9850E-03
            5498            5563     20.3747E-03     20.2646E-03
            5489            5563     20.3747E-03     20.2646E-03
            5499            5563     20.3747E-03     20.2646E-03
            5490            5563     20.3747E-03     20.2646E-03
            5490            5564     13.5211E-03     14.2207E-03
            5499            5564     13.5211E-03     14.2207E-03
            5500            5564     13.5211E-03     14.2207E-03
            5491            5564     13.5211E-03     14.2207E-03
            5492            5565     12.7299E-03     13.5179E-03
            5501            5565     12.7299E-03     13.5179E-03
            5491            5565     12.7299E-03     13.5179E-03
            5500            5565     12.7299E-03     13.5179E-03
            5493            5566     18.5460E-03     18.5955E-03
            5501            5566     18.5460E-03     18.5955E-03
            5492            5566     18.5460E-03     18.5955E-03
            5502            5566     18.5460E-03     18.5955E-03
            5494            5567     28.4865E-03     27.9006E-03
            5493            5567     28.4865E-03     27.9006E-03
            5503            5567     28.4865E-03     27.9006E-03
            5502            5567     28.4865E-03     27.9006E-03
            5504            5568     41.2395E-03     40.0575E-03
            5495            5568     41.2395E-03     40.0575E-03
            5503            5568     41.2395E-03     40.0575E-03
            5494            5568     41.2395E-03     40.0575E-03
            5506            5569     41.7690E-03     41.9640E-03
            5496            5569     41.7690E-03     41.9640E-03
            5497            5569     41.7690E-03     41.9640E-03
            5505            5569     41.7690E-03     41.9640E-03
            5497            5570     31.5441E-03     32.2085E-03
            5506            5570     31.5441E-03     32.2085E-03
            5498            5570     31.5441E-03     32.2085E-03
            5507            5570     31.5441E-03     32.2085E-03
            5508            5571     21.9890E-03     22.9038E-03
            5498            5571     21.9890E-03     22.9038E-03
            5507            5571     21.9890E-03     22.9038E-03
            5499            5571     21.9890E-03     22.9038E-03
            5499            5572     15.7481E-03     17.0365E-03
            5509            5572     15.7481E-03     17.0365E-03
            5500            5572     15.7481E-03     17.0365E-03
            5508            5572     15.7481E-03     17.0365E-03
            5500            5573     14.9975E-03     16.3405E-03
            5510            5573     14.9975E-03     16.3405E-03
            5501            5573     14.9975E-03     16.3405E-03
            5509            5573     14.9975E-03     16.3405E-03
            5502            5574     20.1932E-03     21.1917E-03
            5501            5574     20.1932E-03     21.1917E-03
            5510            5574     20.1932E-03     21.1917E-03
            5511            5574     20.1932E-03     21.1917E-03
            5503            5575     29.3148E-03     30.0085E-03
            5502            5575     29.3148E-03     30.0085E-03
            5512            5575     29.3148E-03     30.0085E-03
            5511            5575     29.3148E-03     30.0085E-03
            5504            5576     39.3839E-03     39.5872E-03
            5503            5576     39.3839E-03     39.5872E-03
            5513            5576     39.3839E-03     39.5872E-03
            5512            5576     39.3839E-03     39.5872E-03
            5506            5577     39.4362E-03     39.2781E-03
            5515            5577     39.4362E-03     39.2781E-03
            5505            5577     39.4362E-03     39.2781E-03
            5514            5577     39.4362E-03     39.2781E-03
            5506            5578     30.5709E-03     31.0468E-03
            5515            5578     30.5709E-03     31.0468E-03
            5516            5578     30.5709E-03     31.0468E-03
            5507            5578     30.5709E-03     31.0468E-03
            5516            5579     22.4981E-03     23.4505E-03
            5507            5579     22.4981E-03     23.4505E-03
            5517            5579     22.4981E-03     23.4505E-03
            5508            5579     22.4981E-03     23.4505E-03
            5509            5580     16.7646E-03     17.9764E-03
            5517            5580     16.7646E-03     17.9764E-03
            5508            5580     16.7646E-03     17.9764E-03
            5518            5580     16.7646E-03     17.9764E-03
            5510            5581     16.0446E-03     17.2807E-03
            5509            5581     16.0446E-03     17.2807E-03
            5519            5581     16.0446E-03     17.2807E-03
            5518            5581     16.0446E-03     17.2807E-03
            5511            5582     20.7226E-03     21.7011E-03
            5519            5582     20.7226E-03     21.7011E-03
            5510            5582     20.7226E-03     21.7011E-03
            5520            5582     20.7226E-03     21.7011E-03
            5511            5583     28.3549E-03     28.8331E-03
            5521            5583     28.3549E-03     28.8331E-03
            5512            5583     28.3549E-03     28.8331E-03
            5520            5583     28.3549E-03     28.8331E-03
            5512            5584     37.0983E-03     36.9561E-03
            5522            5584     37.0983E-03     36.9561E-03
            5521            5584     37.0983E-03     36.9561E-03
            5513            5584     37.0983E-03     36.9561E-03
            5524            5585     37.7079E-03     37.3910E-03
            5523            5585     37.7079E-03     37.3910E-03
            5515            5585     37.7079E-03     37.3910E-03
            5514            5585     37.7079E-03     37.3910E-03
            5525            5586     29.3131E-03     29.4442E-03
            5515            5586     29.3131E-03     29.4442E-03
            5516            5586     29.3131E-03     29.4442E-03
            5524            5586     29.3131E-03     29.4442E-03
            5516            5587     22.0159E-03     22.5466E-03
            5526            5587     22.0159E-03     22.5466E-03
            5525            5587     22.0159E-03     22.5466E-03
            5517            5587     22.0159E-03     22.5466E-03
            5517            5588     17.0629E-03     17.8676E-03
            5518            5588     17.0629E-03     17.8676E-03
            5527            5588     17.0629E-03     17.8676E-03
            5526            5588     17.0629E-03     17.8676E-03
            5519            5589     16.3528E-03     17.1613E-03
            5528            5589     16.3528E-03     17.1613E-03
            5527            5589     16.3528E-03     17.1613E-03
            5518            5589     16.3528E-03     17.1613E-03
            5529            5590     20.2704E-03     20.8038E-03
            5520            5590     20.2704E-03     20.8038E-03
            5528            5590     20.2704E-03     20.8038E-03
            5519            5590     20.2704E-03     20.8038E-03
            5521            5591     27.1268E-03     27.2615E-03
            5530            5591     27.1268E-03     27.2615E-03
            5520            5591     27.1268E-03     27.2615E-03
            5529            5591     27.1268E-03     27.2615E-03
            5530            5592     35.3819E-03     35.0849E-03
            5522            5592     35.3819E-03     35.0849E-03
            5531            5592     35.3819E-03     35.0849E-03
            5521            5592     35.3819E-03     35.0849E-03
            5533            5593     35.9155E-03     35.5528E-03
            5523            5593     35.9155E-03     35.5528E-03
            5524            5593     35.9155E-03     35.5528E-03
            5532            5593     35.9155E-03     35.5528E-03
            5533            5594     28.1221E-03     28.1124E-03
            5534            5594     28.1221E-03     28.1124E-03
            5525            5594     28.1221E-03     28.1124E-03
            5524            5594     28.1221E-03     28.1124E-03
            5534            5595     21.3865E-03     21.6121E-03
            5535            5595     21.3865E-03     21.6121E-03
            5526            5595     21.3865E-03     21.6121E-03
            5525            5595     21.3865E-03     21.6121E-03
            5526            5596     16.8928E-03     17.2390E-03
            5535            5596     16.8928E-03     17.2390E-03
            5536            5596     16.8928E-03     17.2390E-03
            5527            5596     16.8928E-03     17.2390E-03
            5528            5597     16.2112E-03     16.5532E-03
            5536            5597     16.2112E-03     16.5532E-03
            5537            5597     16.2112E-03     16.5532E-03
            5527            5597     16.2112E-03     16.5532E-03
            5529            5598     19.6849E-03     19.9025E-03
            5528            5598     19.6849E-03     19.9025E-03
            5538            5598     19.6849E-03     19.9025E-03
            5537            5598     19.6849E-03     19.9025E-03
            5529            5599     25.9606E-03     25.9496E-03
            5530            5599     25.9606E-03     25.9496E-03
            5538            5599     25.9606E-03     25.9496E-03
            5539            5599     25.9606E-03     25.9496E-03
            5531            5600     33.6006E-03     33.2560E-03
            5540            5600     33.6006E-03     33.2560E-03
            5530            5600     33.6006E-03     33.2560E-03
            5539            5600     33.6006E-03     33.2560E-03
            5542            5601     34.1294E-03     33.7935E-03
            5541            5601     34.1294E-03     33.7935E-03
            5533            5601     34.1294E-03     33.7935E-03
            5532            5601     34.1294E-03     33.7935E-03
            5534            5602     26.8785E-03     26.8155E-03
            5533            5602     26.8785E-03     26.8155E-03
            5542            5602     26.8785E-03     26.8155E-03
            5543            5602     26.8785E-03     26.8155E-03
            5544            5603     20.7454E-03     20.7872E-03
            5535            5603     20.7454E-03     20.7872E-03
            5543            5603     20.7454E-03     20.7872E-03
            5534            5603     20.7454E-03     20.7872E-03
            5536            5604     16.6408E-03     16.6359E-03
            5545            5604     16.6408E-03     16.6359E-03
            5535            5604     16.6408E-03     16.6359E-03
            5544            5604     16.6408E-03     16.6359E-03
            5546            5605     15.9867E-03     15.9653E-03
            5536            5605     15.9867E-03     15.9653E-03
            5545            5605     15.9867E-03     15.9653E-03
            5537            5605     15.9867E-03     15.9653E-03
            5547            5606     19.0919E-03     19.1054E-03
            5538            5606     19.0919E-03     19.1054E-03
            5546            5606     19.0919E-03     19.1054E-03
            5537            5606     19.0919E-03     19.1054E-03
            5547            5607     24.7477E-03     24.6742E-03
            5548            5607     24.7477E-03     24.6742E-03
            5539            5607     24.7477E-03     24.6742E-03
            5538            5607     24.7477E-03     24.6742E-03
            5539            5608     31.8296E-03     31.5075E-03
            5540            5608     31.8296E-03     31.5075E-03
            5548            5608     31.8296E-03     31.5075E-03
            5549            5608     31.8296E-03     31.5075E-03
            5542            5609     32.3905E-03     32.1331E-03
            5551            5609     32.3905E-03     32.1331E-03
            5550            5609     32.3905E-03     32.1331E-03
            5541            5609     32.3905E-03     32.1331E-03
            5552            5610     25.6941E-03     25.6955E-03
            5542            5610     25.6941E-03     25.6955E-03
            5543            5610     25.6941E-03     25.6955E-03
            5551            5610     25.6941E-03     25.6955E-03
            5552            5611     20.0848E-03     19.9958E-03
            5543            5611     20.0848E-03     19.9958E-03
            5553            5611     20.0848E-03     19.9958E-03
            5544            5611     20.0848E-03     19.9958E-03
            5544            5612     16.3962E-03     16.0643E-03
            5545            5612     16.3962E-03     16.0643E-03
            5553            5612     16.3962E-03     16.0643E-03
            5554            5612     16.3962E-03     16.0643E-03
            5554            5613     15.7713E-03     15.4042E-03
            5545            5613     15.7713E-03     15.4042E-03
            5546            5613     15.7713E-03     15.4042E-03
            5555            5613     15.7713E-03     15.4042E-03
            5546            5614     18.4883E-03     18.3424E-03
            5556            5614     18.4883E-03     18.3424E-03
            5547            5614     18.4883E-03     18.3424E-03
            5555            5614     18.4883E-03     18.3424E-03
            5547            5615     23.6048E-03     23.5809E-03
            5556            5615     23.6048E-03     23.5809E-03
            5548            5615     23.6048E-03     23.5809E-03
            5557            5615     23.6048E-03     23.5809E-03
            5548            5616     30.1084E-03     29.8609E-03
            5557            5616     30.1084E-03     29.8609E-03
            5558            5616     30.1084E-03     29.8609E-03
            5549            5616     30.1084E-03     29.8609E-03
            5551            5617     30.5830E-03     30.5251E-03
            5550            5617     30.5830E-03     30.5251E-03
            5559            5617     30.5830E-03     30.5251E-03
            5560            5617     30.5830E-03     30.5251E-03
            5560            5618     24.5543E-03     24.6816E-03
            5552            5618     24.5543E-03     24.6816E-03
            5561            5618     24.5543E-03     24.6816E-03
            5551            5618     24.5543E-03     24.6816E-03
            5561            5619     19.5160E-03     19.3356E-03
            5562            5619     19.5160E-03     19.3356E-03
            5552            5619     19.5160E-03     19.3356E-03
            5553            5619     19.5160E-03     19.3356E-03
            5562            5620     16.1064E-03     15.3807E-03
            5554            5620     16.1064E-03     15.3807E-03
            5563            5620     16.1064E-03     15.3807E-03
            5553            5620     16.1064E-03     15.3807E-03
            5554            5621     15.5189E-03     14.7369E-03
            5564            5621     15.5189E-03     14.7369E-03
            5563            5621     15.5189E-03     14.7369E-03
            5555            5621     15.5189E-03     14.7369E-03
            5555            5622     17.9947E-03     17.7208E-03
            5564            5622     17.9947E-03     17.7208E-03
            5556            5622     17.9947E-03     17.7208E-03
            5565            5622     17.9947E-03     17.7208E-03
            5566            5623     22.5246E-03     22.6081E-03
            5556            5623     22.5246E-03     22.6081E-03
            5557            5623     22.5246E-03     22.6081E-03
            5565            5623     22.5246E-03     22.6081E-03
            5557            5624     28.3330E-03     28.2804E-03
            5566            5624     28.3330E-03     28.2804E-03
            5558            5624     28.3330E-03     28.2804E-03
            5567            5624     28.3330E-03     28.2804E-03
            5568            5625     28.7244E-03     28.9457E-03
            5569            5625     28.7244E-03     28.9457E-03
            5560            5625     28.7244E-03     28.9457E-03
            5559            5625     28.7244E-03     28.9457E-03
            5560            5626     23.5139E-03     23.8253E-03
            5561            5626     23.5139E-03     23.8253E-03
            5570            5626     23.5139E-03     23.8253E-03
            5569            5626     23.5139E-03     23.8253E-03
            5571            5627     18.9942E-03     18.5483E-03
            5570            5627     18.9942E-03     18.5483E-03
            5562            5627     18.9942E-03     18.5483E-03
            5561            5627     18.9942E-03     18.5483E-03
            5563            5628     15.8058E-03     14.6545E-03
            5571            5628     15.8058E-03     14.6545E-03
            5572            5628     15.8058E-03     14.6545E-03
            5562            5628     15.8058E-03     14.6545E-03
            5563            5629     15.2620E-03     14.0489E-03
            5572            5629     15.2620E-03     14.0489E-03
            5573            5629     15.2620E-03     14.0489E-03
            5564            5629     15.2620E-03     14.0489E-03
            5574            5630     17.5718E-03     17.0109E-03
            5573            5630     17.5718E-03     17.0109E-03
            5565            5630     17.5718E-03     17.0109E-03
            5564            5630     17.5718E-03     17.0109E-03
            5575            5631     21.5753E-03     21.8175E-03
            5574            5631     21.5753E-03     21.8175E-03
            5565            5631     21.5753E-03     21.8175E-03
            5566            5631     21.5753E-03     21.8175E-03
            5575            5632     26.5239E-03     26.7440E-03
            5566            5632     26.5239E-03     26.7440E-03
            5567            5632     26.5239E-03     26.7440E-03
            5576            5632     26.5239E-03     26.7440E-03
            5569            5633     26.7870E-03     27.2826E-03
            5568            5633     26.7870E-03     27.2826E-03
            5577            5633     26.7870E-03     27.2826E-03
            5578            5633     26.7870E-03     27.2826E-03
            5569            5634     22.5423E-03     22.4037E-03
            5578            5634     22.5423E-03     22.4037E-03
            5579            5634     22.5423E-03     22.4037E-03
            5570            5634     22.5423E-03     22.4037E-03
            5580            5635     18.4865E-03     17.5001E-03
            5570            5635     18.4865E-03     17.5001E-03
            5579            5635     18.4865E-03     17.5001E-03
            5571            5635     18.4865E-03     17.5001E-03
            5572            5636     15.6078E-03     14.2026E-03
            5581            5636     15.6078E-03     14.2026E-03
            5571            5636     15.6078E-03     14.2026E-03
            5580            5636     15.6078E-03     14.2026E-03
            5581            5637     15.1236E-03     13.6852E-03
            5582            5637     15.1236E-03     13.6852E-03
            5572            5637     15.1236E-03     13.6852E-03
            5573            5637     15.1236E-03     13.6852E-03
            5573            5638     17.2079E-03     16.1562E-03
            5582            5638     17.2079E-03     16.1562E-03
            5574            5638     17.2079E-03     16.1562E-03
            5583            5638     17.2079E-03     16.1562E-03
            5583            5639     20.7438E-03     20.5490E-03
            5574            5639     20.7438E-03     20.5490E-03
            5575            5639     20.7438E-03     20.5490E-03
            5584            5639     20.7438E-03     20.5490E-03
            5576            5640     24.6487E-03     25.1328E-03
            5584            5640     24.6487E-03     25.1328E-03
            5585            5640     24.6487E-03     25.1328E-03
            5575            5640     24.6487E-03     25.1328E-03
            5586            5641     24.4775E-03     23.0787E-03
            5577            5641     24.4775E-03     23.0787E-03
            5587            5641     24.4775E-03     23.0787E-03
            5578            5641     24.4775E-03     23.0787E-03
            5578            5642     21.3937E-03     19.7631E-03
            5579            5642     21.3937E-03     19.7631E-03
            5588            5642     21.3937E-03     19.7631E-03
            5587            5642     21.3937E-03     19.7631E-03
            5579            5643     18.1408E-03     16.7420E-03
            5588            5643     18.1408E-03     16.7420E-03
            5580            5643     18.1408E-03     16.7420E-03
            5589            5643     18.1408E-03     16.7420E-03
            5589            5644     15.9562E-03     14.7937E-03
            5580            5644     15.9562E-03     14.7937E-03
            5581            5644     15.9562E-03     14.7937E-03
            5590            5644     15.9562E-03     14.7937E-03
            5591            5645     15.5579E-03     14.4266E-03
            5581            5645     15.5579E-03     14.4266E-03
            5582            5645     15.5579E-03     14.4266E-03
            5590            5645     15.5579E-03     14.4266E-03
            5582            5646     17.0574E-03     15.7420E-03
            5591            5646     17.0574E-03     15.7420E-03
            5583            5646     17.0574E-03     15.7420E-03
            5592            5646     17.0574E-03     15.7420E-03
            5593            5647     19.8162E-03     18.2877E-03
            5584            5647     19.8162E-03     18.2877E-03
            5592            5647     19.8162E-03     18.2877E-03
            5583            5647     19.8162E-03     18.2877E-03
            5585            5648     22.4340E-03     21.1434E-03
            5593            5648     22.4340E-03     21.1434E-03
            5584            5648     22.4340E-03     21.1434E-03
            5594            5648     22.4340E-03     21.1434E-03
            5595            5649     27.2052E-03     24.7971E-03
            5586            5649     27.2052E-03     24.7971E-03
            5596            5649     27.2052E-03     24.7971E-03
            5587            5649     27.2052E-03     24.7971E-03
            5587            5650     21.4618E-03     19.8142E-03
            5597            5650     21.4618E-03     19.8142E-03
            5596            5650     21.4618E-03     19.8142E-03
            5588            5650     21.4618E-03     19.8142E-03
            5597            5651     17.5897E-03     16.7357E-03
            5598            5651     17.5897E-03     16.7357E-03
            5589            5651     17.5897E-03     16.7357E-03
            5588            5651     17.5897E-03     16.7357E-03
            5599            5652     15.2379E-03     14.8998E-03
            5598            5652     15.2379E-03     14.8998E-03
            5590            5652     15.2379E-03     14.8998E-03
            5589            5652     15.2379E-03     14.8998E-03
            5600            5653     14.8183E-03     14.5464E-03
            5599            5653     14.8183E-03     14.5464E-03
            5590            5653     14.8183E-03     14.5464E-03
            5591            5653     14.8183E-03     14.5464E-03
            5591            5654     16.4232E-03     15.7303E-03
            5600            5654     16.4232E-03     15.7303E-03
            5601            5654     16.4232E-03     15.7303E-03
            5592            5654     16.4232E-03     15.7303E-03
            5593            5655     19.7826E-03     18.3343E-03
            5601            5655     19.7826E-03     18.3343E-03
            5602            5655     19.7826E-03     18.3343E-03
            5592            5655     19.7826E-03     18.3343E-03
            5603            5656     25.0322E-03     22.8294E-03
            5602            5656     25.0322E-03     22.8294E-03
            5594            5656     25.0322E-03     22.8294E-03
            5593            5656     25.0322E-03     22.8294E-03
            5595            5657     30.3859E-03     29.7651E-03
            5605            5657     30.3859E-03     29.7651E-03
            5596            5657     30.3859E-03     29.7651E-03
            5604            5657     30.3859E-03     29.7651E-03
            5596            5658     22.9576E-03     22.8106E-03
            5606            5658     22.9576E-03     22.8106E-03
            5597            5658     22.9576E-03     22.8106E-03
            5605            5658     22.9576E-03     22.8106E-03
            5607            5659     17.9184E-03     18.0653E-03
            5606            5659     17.9184E-03     18.0653E-03
            5597            5659     17.9184E-03     18.0653E-03
            5598            5659     17.9184E-03     18.0653E-03
            5599            5660     15.2464E-03     15.6820E-03
            5607            5660     15.2464E-03     15.6820E-03
            5608            5660     15.2464E-03     15.6820E-03
            5598            5660     15.2464E-03     15.6820E-03
            5600            5661     14.7574E-03     15.2368E-03
            5609            5661     14.7574E-03     15.2368E-03
            5599            5661     14.7574E-03     15.2368E-03
            5608            5661     14.7574E-03     15.2368E-03
            5600            5662     16.5979E-03     16.8467E-03
            5610            5662     16.5979E-03     16.8467E-03
            5601            5662     16.5979E-03     16.8467E-03
            5609            5662     16.5979E-03     16.8467E-03
            5610            5663     21.0511E-03     21.0057E-03
            5602            5663     21.0511E-03     21.0057E-03
            5611            5663     21.0511E-03     21.0057E-03
            5601            5663     21.0511E-03     21.0057E-03
            5602            5664     28.0577E-03     27.5259E-03
            5612            5664     28.0577E-03     27.5259E-03
            5603            5664     28.0577E-03     27.5259E-03
            5611            5664     28.0577E-03     27.5259E-03
            5604            5665     27.9072E-03     27.9255E-03
            5614            5665     27.9072E-03     27.9255E-03
            5613            5665     27.9072E-03     27.9255E-03
            5605            5665     27.9072E-03     27.9255E-03
            5606            5666     23.2918E-03     23.6604E-03
            5614            5666     23.2918E-03     23.6604E-03
            5605            5666     23.2918E-03     23.6604E-03
            5615            5666     23.2918E-03     23.6604E-03
            5616            5667     19.2195E-03     19.7973E-03
            5615            5667     19.2195E-03     19.7973E-03
            5607            5667     19.2195E-03     19.7973E-03
            5606            5667     19.2195E-03     19.7973E-03
            5608            5668     16.9617E-03     17.6578E-03
            5607            5668     16.9617E-03     17.6578E-03
            5617            5668     16.9617E-03     17.6578E-03
            5616            5668     16.9617E-03     17.6578E-03
            5609            5669     16.5080E-03     17.2230E-03
            5617            5669     16.5080E-03     17.2230E-03
            5608            5669     16.5080E-03     17.2230E-03
            5618            5669     16.5080E-03     17.2230E-03
            5619            5670     17.9601E-03     18.5716E-03
            5609            5670     17.9601E-03     18.5716E-03
            5618            5670     17.9601E-03     18.5716E-03
            5610            5670     17.9601E-03     18.5716E-03
            5619            5671     21.4180E-03     21.8005E-03
            5620            5671     21.4180E-03     21.8005E-03
            5611            5671     21.4180E-03     21.8005E-03
            5610            5671     21.4180E-03     21.8005E-03
            5612            5672     25.6733E-03     25.7014E-03
            5620            5672     25.6733E-03     25.7014E-03
            5621            5672     25.6733E-03     25.7014E-03
            5611            5672     25.6733E-03     25.7014E-03
            5613            5673     25.2980E-03     25.1430E-03
            5622            5673     25.2980E-03     25.1430E-03
            5614            5673     25.2980E-03     25.1430E-03
            5623            5673     25.2980E-03     25.1430E-03
            5624            5674     22.1365E-03     22.3178E-03
            5623            5674     22.1365E-03     22.3178E-03
            5614            5674     22.1365E-03     22.3178E-03
            5615            5674     22.1365E-03     22.3178E-03
            5615            5675     19.5967E-03     20.0930E-03
            5624            5675     19.5967E-03     20.0930E-03
            5625            5675     19.5967E-03     20.0930E-03
            5616            5675     19.5967E-03     20.0930E-03
            5625            5676     17.8724E-03     18.4923E-03
            5626            5676     17.8724E-03     18.4923E-03
            5617            5676     17.8724E-03     18.4923E-03
            5616            5676     17.8724E-03     18.4923E-03
            5618            5677     17.4549E-03     18.0767E-03
            5627            5677     17.4549E-03     18.0767E-03
            5626            5677     17.4549E-03     18.0767E-03
            5617            5677     17.4549E-03     18.0767E-03
            5628            5678     18.3966E-03     18.8908E-03
            5619            5678     18.3966E-03     18.8908E-03
            5618            5678     18.3966E-03     18.8908E-03
            5627            5678     18.3966E-03     18.8908E-03
            5629            5679     20.3407E-03     20.5214E-03
            5628            5679     20.3407E-03     20.5214E-03
            5619            5679     20.3407E-03     20.5214E-03
            5620            5679     20.3407E-03     20.5214E-03
            5630            5680     23.1599E-03     23.0257E-03
            5621            5680     23.1599E-03     23.0257E-03
            5629            5680     23.1599E-03     23.0257E-03
            5620            5680     23.1599E-03     23.0257E-03
            5632            5681     23.3288E-03     23.1407E-03
            5631            5681     23.3288E-03     23.1407E-03
            5623            5681     23.3288E-03     23.1407E-03
            5622            5681     23.3288E-03     23.1407E-03
            5624            5682     20.8790E-03     20.9307E-03
            5623            5682     20.8790E-03     20.9307E-03
            5633            5682     20.8790E-03     20.9307E-03
            5632            5682     20.8790E-03     20.9307E-03
            5633            5683     19.2111E-03     19.4621E-03
            5625            5683     19.2111E-03     19.4621E-03
            5624            5683     19.2111E-03     19.4621E-03
            5634            5683     19.2111E-03     19.4621E-03
            5626            5684     18.1984E-03     18.5737E-03
            5635            5684     18.1984E-03     18.5737E-03
            5625            5684     18.1984E-03     18.5737E-03
            5634            5684     18.1984E-03     18.5737E-03
            5636            5685     17.8100E-03     18.1791E-03
            5635            5685     17.8100E-03     18.1791E-03
            5626            5685     17.8100E-03     18.1791E-03
            5627            5685     17.8100E-03     18.1791E-03
            5628            5686     18.1032E-03     18.3453E-03
            5627            5686     18.1032E-03     18.3453E-03
            5636            5686     18.1032E-03     18.3453E-03
            5637            5686     18.1032E-03     18.3453E-03
            5638            5687     19.1929E-03     19.2482E-03
            5628            5687     19.1929E-03     19.2482E-03
            5637            5687     19.1929E-03     19.2482E-03
            5629            5687     19.1929E-03     19.2482E-03
            5629            5688     21.2578E-03     21.0936E-03
            5638            5688     21.2578E-03     21.0936E-03
            5630            5688     21.2578E-03     21.0936E-03
            5639            5688     21.2578E-03     21.0936E-03
            5640            5689     21.3809E-03     21.2380E-03
            5632            5689     21.3809E-03     21.2380E-03
            5631            5689     21.3809E-03     21.2380E-03
            5641            5689     21.3809E-03     21.2380E-03
            5633            5690     19.7490E-03     19.7785E-03
            5632            5690     19.7490E-03     19.7785E-03
            5641            5690     19.7490E-03     19.7785E-03
            5642            5690     19.7490E-03     19.7785E-03
            5634            5691     18.7374E-03     18.8392E-03
            5643            5691     18.7374E-03     18.8392E-03
            5642            5691     18.7374E-03     18.8392E-03
            5633            5691     18.7374E-03     18.8392E-03
            5643            5692     18.1419E-03     18.2498E-03
            5635            5692     18.1419E-03     18.2498E-03
            5634            5692     18.1419E-03     18.2498E-03
            5644            5692     18.1419E-03     18.2498E-03
            5636            5693     17.8009E-03     17.9000E-03
            5644            5693     17.8009E-03     17.9000E-03
            5635            5693     17.8009E-03     17.9000E-03
            5645            5693     17.8009E-03     17.9000E-03
            5645            5694     17.7399E-03     17.8243E-03
            5637            5694     17.7399E-03     17.8243E-03
            5636            5694     17.7399E-03     17.8243E-03
            5646            5694     17.7399E-03     17.8243E-03
            5647            5695     18.1792E-03     18.2028E-03
            5638            5695     18.1792E-03     18.2028E-03
            5646            5695     18.1792E-03     18.2028E-03
            5637            5695     18.1792E-03     18.2028E-03
            5638            5696     19.3905E-03     19.2652E-03
            5639            5696     19.3905E-03     19.2652E-03
            5647            5696     19.3905E-03     19.2652E-03
            5648            5696     19.3905E-03     19.2652E-03
            5640            5697     19.5305E-03     19.4639E-03
            5650            5697     19.5305E-03     19.4639E-03
            5649            5697     19.5305E-03     19.4639E-03
            5641            5697     19.5305E-03     19.4639E-03
            5642            5698     18.6479E-03     18.6919E-03
            5651            5698     18.6479E-03     18.6919E-03
            5650            5698     18.6479E-03     18.6919E-03
            5641            5698     18.6479E-03     18.6919E-03
            5643            5699     18.2691E-03     18.2484E-03
            5651            5699     18.2691E-03     18.2484E-03
            5652            5699     18.2691E-03     18.2484E-03
            5642            5699     18.2691E-03     18.2484E-03
            5652            5700     17.9841E-03     17.8605E-03
            5644            5700     17.9841E-03     17.8605E-03
            5643            5700     17.9841E-03     17.8605E-03
            5653            5700     17.9841E-03     17.8605E-03
            5644            5701     17.6899E-03     17.5484E-03
            5645            5701     17.6899E-03     17.5484E-03
            5653            5701     17.6899E-03     17.5484E-03
            5654            5701     17.6899E-03     17.5484E-03
            5646            5702     17.3918E-03     17.3346E-03
            5655            5702     17.3918E-03     17.3346E-03
            5645            5702     17.3918E-03     17.3346E-03
            5654            5702     17.3918E-03     17.3346E-03
            5647            5703     17.2203E-03     17.2401E-03
            5656            5703     17.2203E-03     17.2401E-03
            5655            5703     17.2203E-03     17.2401E-03
            5646            5703     17.2203E-03     17.2401E-03
            5648            5704     17.6432E-03     17.5852E-03
            5656            5704     17.6432E-03     17.5852E-03
            5647            5704     17.6432E-03     17.5852E-03
            5657            5704     17.6432E-03     17.5852E-03
            5659            5705     17.7668E-03     17.8294E-03
            5649            5705     17.7668E-03     17.8294E-03
            5658            5705     17.7668E-03     17.8294E-03
            5650            5705     17.7668E-03     17.8294E-03
            5660            5706     17.7020E-03     17.7740E-03
            5650            5706     17.7020E-03     17.7740E-03
            5659            5706     17.7020E-03     17.7740E-03
            5651            5706     17.7020E-03     17.7740E-03
            5652            5707     17.8118E-03     17.6620E-03
            5651            5707     17.8118E-03     17.6620E-03
            5661            5707     17.8118E-03     17.6620E-03
            5660            5707     17.8118E-03     17.6620E-03
            5662            5708     17.7615E-03     17.3866E-03
            5653            5708     17.7615E-03     17.3866E-03
            5652            5708     17.7615E-03     17.3866E-03
            5661            5708     17.7615E-03     17.3866E-03
            5663            5709     17.5157E-03     17.1157E-03
            5662            5709     17.5157E-03     17.1157E-03
            5654            5709     17.5157E-03     17.1157E-03
            5653            5709     17.5157E-03     17.1157E-03
            5663            5710     17.0697E-03     16.8600E-03
            5664            5710     17.0697E-03     16.8600E-03
            5655            5710     17.0697E-03     16.8600E-03
            5654            5710     17.0697E-03     16.8600E-03
            5656            5711     16.4510E-03     16.4740E-03
            5655            5711     16.4510E-03     16.4740E-03
            5664            5711     16.4510E-03     16.4740E-03
            5665            5711     16.4510E-03     16.4740E-03
            5657            5712     16.0243E-03     16.0839E-03
            5656            5712     16.0243E-03     16.0839E-03
            5666            5712     16.0243E-03     16.0839E-03
            5665            5712     16.0243E-03     16.0839E-03
            5659            5713     16.0740E-03     16.3140E-03
            5658            5713     16.0740E-03     16.3140E-03
            5667            5713     16.0740E-03     16.3140E-03
            5668            5713     16.0740E-03     16.3140E-03
            5660            5714     16.9314E-03     17.0041E-03
            5659            5714     16.9314E-03     17.0041E-03
            5669            5714     16.9314E-03     17.0041E-03
            5668            5714     16.9314E-03     17.0041E-03
            5660            5715     17.4338E-03     17.0615E-03
            5669            5715     17.4338E-03     17.0615E-03
            5670            5715     17.4338E-03     17.0615E-03
            5661            5715     17.4338E-03     17.0615E-03
            5671            5716     17.3858E-03     16.7647E-03
            5661            5716     17.3858E-03     16.7647E-03
            5662            5716     17.3858E-03     16.7647E-03
            5670            5716     17.3858E-03     16.7647E-03
            5662            5717     17.1871E-03     16.5457E-03
            5663            5717     17.1871E-03     16.5457E-03
            5671            5717     17.1871E-03     16.5457E-03
            5672            5717     17.1871E-03     16.5457E-03
            5673            5718     16.8407E-03     16.4057E-03
            5664            5718     16.8407E-03     16.4057E-03
            5663            5718     16.8407E-03     16.4057E-03
            5672            5718     16.8407E-03     16.4057E-03
            5665            5719     15.9104E-03     15.9045E-03
            5664            5719     15.9104E-03     15.9045E-03
            5674            5719     15.9104E-03     15.9045E-03
            5673            5719     15.9104E-03     15.9045E-03
            5674            5720     14.5430E-03     14.7647E-03
            5675            5720     14.5430E-03     14.7647E-03
            5665            5720     14.5430E-03     14.7647E-03
            5666            5720     14.5430E-03     14.7647E-03
            5676            5721     14.5626E-03     14.9168E-03
            5677            5721     14.5626E-03     14.9168E-03
            5668            5721     14.5626E-03     14.9168E-03
            5667            5721     14.5626E-03     14.9168E-03
            5669            5722     16.4075E-03     16.1714E-03
            5677            5722     16.4075E-03     16.1714E-03
            5678            5722     16.4075E-03     16.1714E-03
            5668            5722     16.4075E-03     16.1714E-03
            5678            5723     16.9385E-03     16.3114E-03
            5679            5723     16.9385E-03     16.3114E-03
            5669            5723     16.9385E-03     16.3114E-03
            5670            5723     16.9385E-03     16.3114E-03
            5679            5724     16.8913E-03     16.1521E-03
            5670            5724     16.8913E-03     16.1521E-03
            5680            5724     16.8913E-03     16.1521E-03
            5671            5724     16.8913E-03     16.1521E-03
            5681            5725     16.7377E-03     15.9956E-03
            5671            5725     16.7377E-03     15.9956E-03
            5680            5725     16.7377E-03     15.9956E-03
            5672            5725     16.7377E-03     15.9956E-03
            5673            5726     16.4936E-03     15.8539E-03
            5672            5726     16.4936E-03     15.8539E-03
            5682            5726     16.4936E-03     15.8539E-03
            5681            5726     16.4936E-03     15.8539E-03
            5683            5727     15.6771E-03     15.3941E-03
            5673            5727     15.6771E-03     15.3941E-03
            5682            5727     15.6771E-03     15.3941E-03
            5674            5727     15.6771E-03     15.3941E-03
            5675            5728     13.3914E-03     13.7093E-03
            5674            5728     13.3914E-03     13.7093E-03
            5683            5728     13.3914E-03     13.7093E-03
            5684            5728     13.3914E-03     13.7093E-03
            5686            5729     13.1257E-03     12.8485E-03
            5677            5729     13.1257E-03     12.8485E-03
            5685            5729     13.1257E-03     12.8485E-03
            5676            5729     13.1257E-03     12.8485E-03
            5687            5730     15.7374E-03     15.0464E-03
            5677            5730     15.7374E-03     15.0464E-03
            5686            5730     15.7374E-03     15.0464E-03
            5678            5730     15.7374E-03     15.0464E-03
            5687            5731     16.3563E-03     15.7191E-03
            5679            5731     16.3563E-03     15.7191E-03
            5688            5731     16.3563E-03     15.7191E-03
            5678            5731     16.3563E-03     15.7191E-03
            5688            5732     16.5171E-03     15.9477E-03
            5680            5732     16.5171E-03     15.9477E-03
            5679            5732     16.5171E-03     15.9477E-03
            5689            5732     16.5171E-03     15.9477E-03
            5689            5733     16.4181E-03     15.8746E-03
            5680            5733     16.4181E-03     15.8746E-03
            5690            5733     16.4181E-03     15.8746E-03
            5681            5733     16.4181E-03     15.8746E-03
            5681            5734     16.0584E-03     15.4984E-03
            5691            5734     16.0584E-03     15.4984E-03
            5690            5734     16.0584E-03     15.4984E-03
            5682            5734     16.0584E-03     15.4984E-03
            5691            5735     15.2955E-03     14.7219E-03
            5682            5735     15.2955E-03     14.7219E-03
            5683            5735     15.2955E-03     14.7219E-03
            5692            5735     15.2955E-03     14.7219E-03
            5693            5736     12.5313E-03     12.4222E-03
            5692            5736     12.5313E-03     12.4222E-03
            5684            5736     12.5313E-03     12.4222E-03
            5683            5736     12.5313E-03     12.4222E-03
            5694            5737     15.4918E-03     14.9457E-03
            5686            5737     15.4918E-03     14.9457E-03
            5695            5737     15.4918E-03     14.9457E-03
            5685            5737     15.4918E-03     14.9457E-03
            5687            5738     16.3833E-03     15.9936E-03
            5696            5738     16.3833E-03     15.9936E-03
            5695            5738     16.3833E-03     15.9936E-03
            5686            5738     16.3833E-03     15.9936E-03
            5697            5739     16.7340E-03     16.4773E-03
            5696            5739     16.7340E-03     16.4773E-03
            5688            5739     16.7340E-03     16.4773E-03
            5687            5739     16.7340E-03     16.4773E-03
            5698            5740     16.9702E-03     16.7872E-03
            5688            5740     16.9702E-03     16.7872E-03
            5689            5740     16.9702E-03     16.7872E-03
            5697            5740     16.9702E-03     16.7872E-03
            5689            5741     16.8604E-03     16.6966E-03
            5690            5741     16.8604E-03     16.6966E-03
            5699            5741     16.8604E-03     16.6966E-03
            5698            5741     16.8604E-03     16.6966E-03
            5691            5742     16.3853E-03     16.1906E-03
            5690            5742     16.3853E-03     16.1906E-03
            5699            5742     16.3853E-03     16.1906E-03
            5700            5742     16.3853E-03     16.1906E-03
            5701            5743     15.7696E-03     15.5013E-03
            5700            5743     15.7696E-03     15.5013E-03
            5692            5743     15.7696E-03     15.5013E-03
            5691            5743     15.7696E-03     15.5013E-03
            5702            5744     14.5089E-03     14.1878E-03
            5693            5744     14.5089E-03     14.1878E-03
            5701            5744     14.5089E-03     14.1878E-03
            5692            5744     14.5089E-03     14.1878E-03
            5695            5745     17.6060E-03     17.5515E-03
            5704            5745     17.6060E-03     17.5515E-03
            5694            5745     17.6060E-03     17.5515E-03
            5703            5745     17.6060E-03     17.5515E-03
            5695            5746     17.8464E-03     17.9599E-03
            5696            5746     17.8464E-03     17.9599E-03
            5705            5746     17.8464E-03     17.9599E-03
            5704            5746     17.8464E-03     17.9599E-03
            5696            5747     17.8583E-03     17.9248E-03
            5705            5747     17.8583E-03     17.9248E-03
            5697            5747     17.8583E-03     17.9248E-03
            5706            5747     17.8583E-03     17.9248E-03
            5706            5748     17.9296E-03     17.9605E-03
            5707            5748     17.9296E-03     17.9605E-03
            5698            5748     17.9296E-03     17.9605E-03
            5697            5748     17.9296E-03     17.9605E-03
            5707            5749     17.8030E-03     17.8277E-03
            5698            5749     17.8030E-03     17.8277E-03
            5699            5749     17.8030E-03     17.8277E-03
            5708            5749     17.8030E-03     17.8277E-03
            5708            5750     17.4585E-03     17.5055E-03
            5699            5750     17.4585E-03     17.5055E-03
            5700            5750     17.4585E-03     17.5055E-03
            5709            5750     17.4585E-03     17.5055E-03
            5710            5751     17.0324E-03     17.1205E-03
            5709            5751     17.0324E-03     17.1205E-03
            5700            5751     17.0324E-03     17.1205E-03
            5701            5751     17.0324E-03     17.1205E-03
            5710            5752     16.1212E-03     16.0851E-03
            5701            5752     16.1212E-03     16.0851E-03
            5702            5752     16.1212E-03     16.0851E-03
            5711            5752     16.1212E-03     16.0851E-03
            5704            5753     15.3008E-03     15.3618E-03
            5712            5753     15.3008E-03     15.3618E-03
            5713            5753     15.3008E-03     15.3618E-03
            5703            5753     15.3008E-03     15.3618E-03
            5704            5754     18.0289E-03     18.0937E-03
            5713            5754     18.0289E-03     18.0937E-03
            5714            5754     18.0289E-03     18.0937E-03
            5705            5754     18.0289E-03     18.0937E-03
            5714            5755     18.6034E-03     18.6567E-03
            5715            5755     18.6034E-03     18.6567E-03
            5705            5755     18.6034E-03     18.6567E-03
            5706            5755     18.6034E-03     18.6567E-03
            5706            5756     18.5084E-03     18.5286E-03
            5707            5756     18.5084E-03     18.5286E-03
            5715            5756     18.5084E-03     18.5286E-03
            5716            5756     18.5084E-03     18.5286E-03
            5708            5757     18.4242E-03     18.4395E-03
            5716            5757     18.4242E-03     18.4395E-03
            5717            5757     18.4242E-03     18.4395E-03
            5707            5757     18.4242E-03     18.4395E-03
            5717            5758     18.3441E-03     18.3717E-03
            5709            5758     18.3441E-03     18.3717E-03
            5718            5758     18.3441E-03     18.3717E-03
            5708            5758     18.3441E-03     18.3717E-03
            5719            5759     17.4976E-03     17.5146E-03
            5718            5759     17.4976E-03     17.5146E-03
            5710            5759     17.4976E-03     17.5146E-03
            5709            5759     17.4976E-03     17.5146E-03
            5711            5760     14.3592E-03     14.3994E-03
            5720            5760     14.3592E-03     14.3994E-03
            5719            5760     14.3592E-03     14.3994E-03
            5710            5760     14.3592E-03     14.3994E-03
            5713            5761     13.9893E-03     14.0423E-03
            5712            5761     13.9893E-03     14.0423E-03
            5721            5761     13.9893E-03     14.0423E-03
            5722            5761     13.9893E-03     14.0423E-03
            5722            5762     17.6238E-03     17.5439E-03
            5713            5762     17.6238E-03     17.5439E-03
            5714            5762     17.6238E-03     17.5439E-03
            5723            5762     17.6238E-03     17.5439E-03
            5724            5763     18.6136E-03     18.5699E-03
            5723            5763     18.6136E-03     18.5699E-03
            5714            5763     18.6136E-03     18.5699E-03
            5715            5763     18.6136E-03     18.5699E-03
            5724            5764     18.6181E-03     18.5976E-03
            5715            5764     18.6181E-03     18.5976E-03
            5716            5764     18.6181E-03     18.5976E-03
            5725            5764     18.6181E-03     18.5976E-03
            5725            5765     18.5757E-03     18.5567E-03
            5717            5765     18.5757E-03     18.5567E-03
            5716            5765     18.5757E-03     18.5567E-03
            5726            5765     18.5757E-03     18.5567E-03
            5718            5766     18.4891E-03     18.4523E-03
            5727            5766     18.4891E-03     18.4523E-03
            5726            5766     18.4891E-03     18.4523E-03
            5717            5766     18.4891E-03     18.4523E-03
            5718            5767     17.4734E-03     17.3949E-03
            5719            5767     17.4734E-03     17.3949E-03
            5728            5767     17.4734E-03     17.3949E-03
            5727            5767     17.4734E-03     17.3949E-03
            5729            5768     13.7974E-03     13.8312E-03
            5728            5768     13.7974E-03     13.8312E-03
            5720            5768     13.7974E-03     13.8312E-03
            5719            5768     13.7974E-03     13.8312E-03
            5721            5769     13.9843E-03     13.9808E-03
            5722            5769     13.9843E-03     13.9808E-03
            5730            5769     13.9843E-03     13.9808E-03
            5731            5769     13.9843E-03     13.9808E-03
            5722            5770     16.9401E-03     16.8361E-03
            5732            5770     16.9401E-03     16.8361E-03
            5731            5770     16.9401E-03     16.8361E-03
            5723            5770     16.9401E-03     16.8361E-03
            5732            5771     17.9450E-03     17.8632E-03
            5723            5771     17.9450E-03     17.8632E-03
            5724            5771     17.9450E-03     17.8632E-03
            5733            5771     17.9450E-03     17.8632E-03
            5725            5772     18.3760E-03     18.3351E-03
            5734            5772     18.3760E-03     18.3351E-03
            5724            5772     18.3760E-03     18.3351E-03
            5733            5772     18.3760E-03     18.3351E-03
            5734            5773     18.3834E-03     18.3509E-03
            5725            5773     18.3834E-03     18.3509E-03
            5726            5773     18.3834E-03     18.3509E-03
            5735            5773     18.3834E-03     18.3509E-03
            5735            5774     17.9826E-03     17.9307E-03
            5736            5774     17.9826E-03     17.9307E-03
            5727            5774     17.9826E-03     17.9307E-03
            5726            5774     17.9826E-03     17.9307E-03
            5727            5775     17.1395E-03     17.0836E-03
            5736            5775     17.1395E-03     17.0836E-03
            5728            5775     17.1395E-03     17.0836E-03
            5737            5775     17.1395E-03     17.0836E-03
            5738            5776     14.6346E-03     14.6303E-03
            5729            5776     14.6346E-03     14.6303E-03
            5728            5776     14.6346E-03     14.6303E-03
            5737            5776     14.6346E-03     14.6303E-03


  Minimum                            693.453E-06     710.381E-06
      At Element                            5369            5369
            Node                             768             768

  Maximum                            78.0303E-03     71.9097E-03
      At Element                            3958            3949
            Node                               8             163

           Total                         94.2678         92.9110


Field Output reported at element nodes for region: A320-1.Region_3
   Computation algorithm: EXTRAPOLATE_COMPUTE_AVERAGE
   Averaged at nodes
   Averaging regions: ODB_REGIONS

   Element Label      Node Label         S.Mises         S.Mises
                                          @Loc 1          @Loc 2
-----------------------------------------------------------------
            1760               1     959.525E-06     954.172E-06
               1               1     959.525E-06     954.172E-06
            3550               2     8.42605E-03     8.37645E-03
            1757               2     8.42605E-03     8.37645E-03
              29               2     8.42605E-03     8.37645E-03
               4               2     8.42605E-03     8.37645E-03
              28               3     2.95806E-03     4.32633E-03
             329               3     2.95806E-03     4.32633E-03
              25               4     228.961E-06     390.242E-06
              78               5     36.5057E-03     37.1952E-03
             379               5     36.5057E-03     37.1952E-03
            2348               5     36.5057E-03     37.1952E-03
            3501               5     36.5057E-03     37.1952E-03
             415               6     67.4681E-03     72.1188E-03
             378               6     67.4681E-03     72.1188E-03
            2343               7     90.9122E-03     101.327E-03
            5288               7     90.9122E-03     101.327E-03
             421               7     90.9122E-03     101.327E-03
             384               7     90.9122E-03     101.327E-03
             457               8     82.7565E-03     94.0959E-03
             420               8     82.7565E-03     94.0959E-03
             426               9     49.1975E-03     51.6410E-03
             505               9     49.1975E-03     51.6410E-03
            4106               9     49.1975E-03     51.6410E-03
            5283               9     49.1975E-03     51.6410E-03
             745              10     59.2702E-03     63.4684E-03
             462              10     59.2702E-03     63.4684E-03
             463              11     991.862E-06     985.630E-06
            6572              11     991.862E-06     985.630E-06
            4067              12     9.27625E-03     9.23749E-03
             468              12     9.27625E-03     9.23749E-03
            6567              12     9.27625E-03     9.23749E-03
             544              12     9.27625E-03     9.23749E-03
             504              13     2.05589E-03     3.42710E-03
            4307              13     2.05589E-03     3.42710E-03
             499              14     280.922E-06     435.786E-06
            6603              15     3.23152E-03     4.77321E-03
             784              15     3.23152E-03     4.77321E-03
            1781              17     2.02306E-03     3.23681E-03
            3850              17     2.02306E-03     3.23681E-03
            1784              18     228.961E-06     390.242E-06
            3801              21     89.7661E-03     94.6617E-03
            2384              21     89.7661E-03     94.6617E-03
            2379              22     159.843E-03     170.854E-03
            5324              22     159.843E-03     170.854E-03
            5319              25     126.687E-03     126.908E-03
            4346              25     126.687E-03     126.908E-03
            6608              27     280.922E-06     435.786E-06
            1760              29     967.701E-06     961.468E-06
               2              29     967.701E-06     961.468E-06
               1              29     967.701E-06     961.468E-06
            1759              29     967.701E-06     961.468E-06
            1759              30     981.220E-06     967.898E-06
               2              30     981.220E-06     967.898E-06
            1758              30     981.220E-06     967.898E-06
               3              30     981.220E-06     967.898E-06
               3              31     972.131E-06     954.554E-06
            1757              31     972.131E-06     954.554E-06
            1758              31     972.131E-06     954.554E-06
               4              31     972.131E-06     954.554E-06
               4              32     8.20231E-03     8.17286E-03
              29              32     8.20231E-03     8.17286E-03
               8              32     8.20231E-03     8.17286E-03
              79              32     8.20231E-03     8.17286E-03
               8              33     7.53438E-03     7.54026E-03
             129              33     7.53438E-03     7.54026E-03
              79              33     7.53438E-03     7.54026E-03
              12              33     7.53438E-03     7.54026E-03
              16              34     6.45361E-03     6.52354E-03
              12              34     6.45361E-03     6.52354E-03
             179              34     6.45361E-03     6.52354E-03
             129              34     6.45361E-03     6.52354E-03
              16              35     4.94190E-03     5.18714E-03
             229              35     4.94190E-03     5.18714E-03
              20              35     4.94190E-03     5.18714E-03
             179              35     4.94190E-03     5.18714E-03
              24              36     3.30381E-03     3.86612E-03
              20              36     3.30381E-03     3.86612E-03
             229              36     3.30381E-03     3.86612E-03
             279              36     3.30381E-03     3.86612E-03
             279              37     2.75372E-03     3.80758E-03
             329              37     2.75372E-03     3.80758E-03
              28              37     2.75372E-03     3.80758E-03
              24              37     2.75372E-03     3.80758E-03
              28              38     628.428E-06     647.988E-06
              27              38     628.428E-06     647.988E-06
              26              39     428.634E-06     376.302E-06
              27              39     428.634E-06     376.302E-06
              25              40     236.155E-06     362.961E-06
              26              40     236.155E-06     362.961E-06
              21              41     253.097E-06     310.833E-06
              25              41     253.097E-06     310.833E-06
              21              42     364.182E-06     333.512E-06
              17              42     364.182E-06     333.512E-06
              17              43     559.539E-06     546.024E-06
              13              43     559.539E-06     546.024E-06
               9              44     732.260E-06     722.452E-06
              13              44     732.260E-06     722.452E-06
               5              45     855.693E-06     847.351E-06
               9              45     855.693E-06     847.351E-06
               1              46     937.169E-06     930.208E-06
               5              46     937.169E-06     930.208E-06
              29              47     16.0086E-03     15.8701E-03
            3550              47     16.0086E-03     15.8701E-03
            3549              47     16.0086E-03     15.8701E-03
              30              47     16.0086E-03     15.8701E-03
            3549              48     16.0732E-03     15.9890E-03
              30              48     16.0732E-03     15.9890E-03
              31              48     16.0732E-03     15.9890E-03
            3548              48     16.0732E-03     15.9890E-03
            3547              49     16.0049E-03     15.9633E-03
            3548              49     16.0049E-03     15.9633E-03
              32              49     16.0049E-03     15.9633E-03
              31              49     16.0049E-03     15.9633E-03
            3547              50     15.9496E-03     15.9764E-03
            3546              50     15.9496E-03     15.9764E-03
              32              50     15.9496E-03     15.9764E-03
              33              50     15.9496E-03     15.9764E-03
              34              51     16.1103E-03     16.0134E-03
            3545              51     16.1103E-03     16.0134E-03
              33              51     16.1103E-03     16.0134E-03
            3546              51     16.1103E-03     16.0134E-03
              35              52     16.0432E-03     15.7041E-03
            3545              52     16.0432E-03     15.7041E-03
              34              52     16.0432E-03     15.7041E-03
            3544              52     16.0432E-03     15.7041E-03
            3544              53     15.0868E-03     14.9586E-03
            3543              53     15.0868E-03     14.9586E-03
              36              53     15.0868E-03     14.9586E-03
              35              53     15.0868E-03     14.9586E-03
              37              54     14.4454E-03     14.3076E-03
            3543              54     14.4454E-03     14.3076E-03
              36              54     14.4454E-03     14.3076E-03
            3542              54     14.4454E-03     14.3076E-03
              38              55     14.5574E-03     14.2143E-03
            3542              55     14.5574E-03     14.2143E-03
              37              55     14.5574E-03     14.2143E-03
            3541              55     14.5574E-03     14.2143E-03
              39              56     14.5812E-03     14.2881E-03
              38              56     14.5812E-03     14.2881E-03
            3540              56     14.5812E-03     14.2881E-03
            3541              56     14.5812E-03     14.2881E-03
            3540              57     14.5575E-03     14.3168E-03
              40              57     14.5575E-03     14.3168E-03
            3539              57     14.5575E-03     14.3168E-03
              39              57     14.5575E-03     14.3168E-03
            3539              58     14.4994E-03     14.3829E-03
              41              58     14.4994E-03     14.3829E-03
            3538              58     14.4994E-03     14.3829E-03
              40              58     14.4994E-03     14.3829E-03
            3537              59     14.4531E-03     14.5083E-03
            3538              59     14.4531E-03     14.5083E-03
              42              59     14.4531E-03     14.5083E-03
              41              59     14.4531E-03     14.5083E-03
            3537              60     14.3974E-03     14.5054E-03
              43              60     14.3974E-03     14.5054E-03
            3536              60     14.3974E-03     14.5054E-03
              42              60     14.3974E-03     14.5054E-03
              44              61     14.2173E-03     14.6479E-03
            3535              61     14.2173E-03     14.6479E-03
              43              61     14.2173E-03     14.6479E-03
            3536              61     14.2173E-03     14.6479E-03
            3535              62     14.5723E-03     14.7383E-03
            3534              62     14.5723E-03     14.7383E-03
              44              62     14.5723E-03     14.7383E-03
              45              62     14.5723E-03     14.7383E-03
            3534              63     14.5377E-03     14.0840E-03
            3533              63     14.5377E-03     14.0840E-03
              46              63     14.5377E-03     14.0840E-03
              45              63     14.5377E-03     14.0840E-03
              47              64     13.4516E-03     13.4300E-03
            3533              64     13.4516E-03     13.4300E-03
              46              64     13.4516E-03     13.4300E-03
            3532              64     13.4516E-03     13.4300E-03
              48              65     12.8386E-03     12.8232E-03
            3531              65     12.8386E-03     12.8232E-03
            3532              65     12.8386E-03     12.8232E-03
              47              65     12.8386E-03     12.8232E-03
            3531              66     13.0538E-03     12.4860E-03
              48              66     13.0538E-03     12.4860E-03
              49              66     13.0538E-03     12.4860E-03
            3530              66     13.0538E-03     12.4860E-03
              49              67     13.1858E-03     12.7016E-03
            3530              67     13.1858E-03     12.7016E-03
            3529              67     13.1858E-03     12.7016E-03
              50              67     13.1858E-03     12.7016E-03
              50              68     13.1329E-03     12.7948E-03
            3528              68     13.1329E-03     12.7948E-03
              51              68     13.1329E-03     12.7948E-03
            3529              68     13.1329E-03     12.7948E-03
            3528              69     13.0466E-03     12.9195E-03
            3527              69     13.0466E-03     12.9195E-03
              52              69     13.0466E-03     12.9195E-03
              51              69     13.0466E-03     12.9195E-03
              52              70     12.9673E-03     13.1267E-03
            3526              70     12.9673E-03     13.1267E-03
              53              70     12.9673E-03     13.1267E-03
            3527              70     12.9673E-03     13.1267E-03
            3525              71     12.8594E-03     13.1049E-03
              54              71     12.8594E-03     13.1049E-03
              53              71     12.8594E-03     13.1049E-03
            3526              71     12.8594E-03     13.1049E-03
              55              72     12.5668E-03     13.2932E-03
            3525              72     12.5668E-03     13.2932E-03
            3524              72     12.5668E-03     13.2932E-03
              54              72     12.5668E-03     13.2932E-03
              55              73     13.0637E-03     13.3568E-03
            3524              73     13.0637E-03     13.3568E-03
              56              73     13.0637E-03     13.3568E-03
            3523              73     13.0637E-03     13.3568E-03
              57              74     12.9746E-03     12.4373E-03
              56              74     12.9746E-03     12.4373E-03
            3522              74     12.9746E-03     12.4373E-03
            3523              74     12.9746E-03     12.4373E-03
            3521              75     11.8711E-03     12.0372E-03
            3522              75     11.8711E-03     12.0372E-03
              57              75     11.8711E-03     12.0372E-03
              58              75     11.8711E-03     12.0372E-03
              59              76     11.5202E-03     11.5648E-03
            3520              76     11.5202E-03     11.5648E-03
              58              76     11.5202E-03     11.5648E-03
            3521              76     11.5202E-03     11.5648E-03
              60              77     11.8651E-03     11.1070E-03
            3519              77     11.8651E-03     11.1070E-03
            3520              77     11.8651E-03     11.1070E-03
              59              77     11.8651E-03     11.1070E-03
            3518              78     12.0316E-03     11.4787E-03
            3519              78     12.0316E-03     11.4787E-03
              60              78     12.0316E-03     11.4787E-03
              61              78     12.0316E-03     11.4787E-03
            3517              79     11.9962E-03     11.6091E-03
              62              79     11.9962E-03     11.6091E-03
              61              79     11.9962E-03     11.6091E-03
            3518              79     11.9962E-03     11.6091E-03
            3517              80     11.9003E-03     11.7996E-03
            3516              80     11.9003E-03     11.7996E-03
              63              80     11.9003E-03     11.7996E-03
              62              80     11.9003E-03     11.7996E-03
            3516              81     11.7991E-03     12.0515E-03
            3515              81     11.7991E-03     12.0515E-03
              64              81     11.7991E-03     12.0515E-03
              63              81     11.7991E-03     12.0515E-03
              65              82     11.6481E-03     11.9832E-03
            3514              82     11.6481E-03     11.9832E-03
              64              82     11.6481E-03     11.9832E-03
            3515              82     11.6481E-03     11.9832E-03
            3514              83     11.2478E-03     12.1926E-03
            3513              83     11.2478E-03     12.1926E-03
              65              83     11.2478E-03     12.1926E-03
              66              83     11.2478E-03     12.1926E-03
              67              84     11.8512E-03     12.1755E-03
            3513              84     11.8512E-03     12.1755E-03
            3512              84     11.8512E-03     12.1755E-03
              66              84     11.8512E-03     12.1755E-03
              68              85     11.6544E-03     11.0682E-03
            3511              85     11.6544E-03     11.0682E-03
            3512              85     11.6544E-03     11.0682E-03
              67              85     11.6544E-03     11.0682E-03
              68              86     10.5086E-03     10.9446E-03
            3511              86     10.5086E-03     10.9446E-03
            3510              86     10.5086E-03     10.9446E-03
              69              86     10.5086E-03     10.9446E-03
            3509              87     10.5210E-03     10.6386E-03
            3510              87     10.5210E-03     10.6386E-03
              70              87     10.5210E-03     10.6386E-03
              69              87     10.5210E-03     10.6386E-03
              71              88     10.9335E-03     10.2030E-03
            3508              88     10.9335E-03     10.2030E-03
              70              88     10.9335E-03     10.2030E-03
            3509              88     10.9335E-03     10.2030E-03
            3508              89     11.0566E-03     10.7262E-03
              72              89     11.0566E-03     10.7262E-03
            3507              89     11.0566E-03     10.7262E-03
              71              89     11.0566E-03     10.7262E-03
            3507              90     10.9077E-03     10.8543E-03
              73              90     10.9077E-03     10.8543E-03
            3506              90     10.9077E-03     10.8543E-03
              72              90     10.9077E-03     10.8543E-03
              74              91     10.8789E-03     11.0296E-03
            3506              91     10.8789E-03     11.0296E-03
              73              91     10.8789E-03     11.0296E-03
            3505              91     10.8789E-03     11.0296E-03
            3505              92     10.6664E-03     10.9383E-03
              75              92     10.6664E-03     10.9383E-03
            3504              92     10.6664E-03     10.9383E-03
              74              92     10.6664E-03     10.9383E-03
              76              93     10.1940E-03     11.1290E-03
            3504              93     10.1940E-03     11.1290E-03
            3503              93     10.1940E-03     11.1290E-03
              75              93     10.1940E-03     11.1290E-03
              77              94     10.7871E-03     10.9861E-03
            3502              94     10.7871E-03     10.9861E-03
              76              94     10.7871E-03     10.9861E-03
            3503              94     10.7871E-03     10.9861E-03
            3501              95     10.4499E-03     9.84065E-03
              78              95     10.4499E-03     9.84065E-03
            3502              95     10.4499E-03     9.84065E-03
              77              95     10.4499E-03     9.84065E-03
             379              96     30.8649E-03     33.5288E-03
             385              96     30.8649E-03     33.5288E-03
              78              96     30.8649E-03     33.5288E-03
             128              96     30.8649E-03     33.5288E-03
             385              97     31.4826E-03     33.8414E-03
             391              97     31.4826E-03     33.8414E-03
             128              97     31.4826E-03     33.8414E-03
             178              97     31.4826E-03     33.8414E-03
             178              98     38.1239E-03     42.4133E-03
             391              98     38.1239E-03     42.4133E-03
             228              98     38.1239E-03     42.4133E-03
             397              98     38.1239E-03     42.4133E-03
             228              99     46.7711E-03     53.7249E-03
             403              99     46.7711E-03     53.7249E-03
             397              99     46.7711E-03     53.7249E-03
             278              99     46.7711E-03     53.7249E-03
             409             100     55.0228E-03     63.8462E-03
             278             100     55.0228E-03     63.8462E-03
             328             100     55.0228E-03     63.8462E-03
             403             100     55.0228E-03     63.8462E-03
             328             101     63.1300E-03     70.0205E-03
             378             101     63.1300E-03     70.0205E-03
             409             101     63.1300E-03     70.0205E-03
             415             101     63.1300E-03     70.0205E-03
             377             102     69.8071E-03     67.1735E-03
             378             102     69.8071E-03     67.1735E-03
             377             103     67.5366E-03     63.6857E-03
             376             103     67.5366E-03     63.6857E-03
             376             104     62.1083E-03     63.8196E-03
             375             104     62.1083E-03     63.8196E-03
             375             105     62.0510E-03     60.6977E-03
             374             105     62.0510E-03     60.6977E-03
             374             106     60.3063E-03     60.2667E-03
             373             106     60.3063E-03     60.2667E-03
             372             107     59.4399E-03     58.2479E-03
             373             107     59.4399E-03     58.2479E-03
             372             108     57.2171E-03     58.3357E-03
             371             108     57.2171E-03     58.3357E-03
             370             109     59.1289E-03     55.8181E-03
             371             109     59.1289E-03     55.8181E-03
             369             110     58.8427E-03     55.9925E-03
             370             110     58.8427E-03     55.9925E-03
             369             111     56.5525E-03     63.2626E-03
             368             111     56.5525E-03     63.2626E-03
             368             112     62.0188E-03     59.7793E-03
             367             112     62.0188E-03     59.7793E-03
             367             113     59.3876E-03     56.0516E-03
             366             113     59.3876E-03     56.0516E-03
             366             114     53.9638E-03     55.5475E-03
             365             114     53.9638E-03     55.5475E-03
             365             115     53.3706E-03     52.1921E-03
             364             115     53.3706E-03     52.1921E-03
             363             116     51.2988E-03     51.1645E-03
             364             116     51.2988E-03     51.1645E-03
             362             117     49.7108E-03     49.4258E-03
             363             117     49.7108E-03     49.4258E-03
             361             118     48.2959E-03     47.3807E-03
             362             118     48.2959E-03     47.3807E-03
             361             119     45.9469E-03     46.6641E-03
             360             119     45.9469E-03     46.6641E-03
             359             120     46.5943E-03     44.0360E-03
             360             120     46.5943E-03     44.0360E-03
             359             121     45.7540E-03     43.3233E-03
             358             121     45.7540E-03     43.3233E-03
             357             122     44.7726E-03     50.0814E-03
             358             122     44.7726E-03     50.0814E-03
             357             123     49.8394E-03     48.2127E-03
             356             123     49.8394E-03     48.2127E-03
             356             124     46.9430E-03     44.3002E-03
             355             124     46.9430E-03     44.3002E-03
             355             125     41.7040E-03     43.0875E-03
             354             125     41.7040E-03     43.0875E-03
             354             126     40.5044E-03     39.5673E-03
             353             126     40.5044E-03     39.5673E-03
             352             127     38.0729E-03     38.0142E-03
             353             127     38.0729E-03     38.0142E-03
             352             128     36.0801E-03     35.8327E-03
             351             128     36.0801E-03     35.8327E-03
             351             129     34.1276E-03     33.5320E-03
             350             129     34.1276E-03     33.5320E-03
             350             130     31.6307E-03     31.9405E-03
             349             130     31.6307E-03     31.9405E-03
             348             131     30.8389E-03     29.1722E-03
             349             131     30.8389E-03     29.1722E-03
             347             132     29.3019E-03     27.4999E-03
             348             132     29.3019E-03     27.4999E-03
             346             133     29.9575E-03     33.5218E-03
             347             133     29.9575E-03     33.5218E-03
             345             134     34.5364E-03     33.6590E-03
             346             134     34.5364E-03     33.6590E-03
             345             135     31.4163E-03     29.6460E-03
             344             135     31.4163E-03     29.6460E-03
             343             136     26.5455E-03     27.6649E-03
             344             136     26.5455E-03     27.6649E-03
             342             137     24.6970E-03     24.0630E-03
             343             137     24.6970E-03     24.0630E-03
             342             138     21.9299E-03     21.9589E-03
             341             138     21.9299E-03     21.9589E-03
             340             139     19.5358E-03     19.3390E-03
             341             139     19.5358E-03     19.3390E-03
             339             140     17.0282E-03     16.8141E-03
             340             140     17.0282E-03     16.8141E-03
             339             141     14.4231E-03     14.2694E-03
             338             141     14.4231E-03     14.2694E-03
             337             142     12.0129E-03     11.4405E-03
             338             142     12.0129E-03     11.4405E-03
             336             143     9.86889E-03     8.85766E-03
             337             143     9.86889E-03     8.85766E-03
             336             144     11.8938E-03     13.3187E-03
             335             144     11.8938E-03     13.3187E-03
             334             145     14.9761E-03     14.9630E-03
             335             145     14.9761E-03     14.9630E-03
             333             146     11.4173E-03     10.5936E-03
             334             146     11.4173E-03     10.5936E-03
             333             147     6.81292E-03     7.58702E-03
             332             147     6.81292E-03     7.58702E-03
             332             148     4.15072E-03     3.82525E-03
             331             148     4.15072E-03     3.82525E-03
             330             149     3.12467E-03     2.51487E-03
             331             149     3.12467E-03     2.51487E-03
             330             150     4.47985E-03     5.16147E-03
             329             150     4.47985E-03     5.16147E-03
            2348             151     73.6736E-03     75.2610E-03
             379             151     73.6736E-03     75.2610E-03
            2347             151     73.6736E-03     75.2610E-03
             380             151     73.6736E-03     75.2610E-03
             381             152     84.3644E-03     86.7165E-03
            2347             152     84.3644E-03     86.7165E-03
             380             152     84.3644E-03     86.7165E-03
            2346             152     84.3644E-03     86.7165E-03
            2345             153     85.6739E-03     89.3845E-03
             382             153     85.6739E-03     89.3845E-03
             381             153     85.6739E-03     89.3845E-03
            2346             153     85.6739E-03     89.3845E-03
            2345             154     91.5581E-03     90.3549E-03
             382             154     91.5581E-03     90.3549E-03
            2344             154     91.5581E-03     90.3549E-03
             383             154     91.5581E-03     90.3549E-03
             383             155     92.6249E-03     94.4776E-03
             384             155     92.6249E-03     94.4776E-03
            2343             155     92.6249E-03     94.4776E-03
            2344             155     92.6249E-03     94.4776E-03
             427             156     77.6330E-03     94.6741E-03
             390             156     77.6330E-03     94.6741E-03
             384             156     77.6330E-03     94.6741E-03
             421             156     77.6330E-03     94.6741E-03
             427             157     69.0409E-03     91.9594E-03
             390             157     69.0409E-03     91.9594E-03
             396             157     69.0409E-03     91.9594E-03
             433             157     69.0409E-03     91.9594E-03
             402             158     65.5965E-03     92.0441E-03
             396             158     65.5965E-03     92.0441E-03
             439             158     65.5965E-03     92.0441E-03
             433             158     65.5965E-03     92.0441E-03
             408             159     66.1479E-03     94.9924E-03
             439             159     66.1479E-03     94.9924E-03
             445             159     66.1479E-03     94.9924E-03
             402             159     66.1479E-03     94.9924E-03
             445             160     68.6056E-03     97.4933E-03
             414             160     68.6056E-03     97.4933E-03
             408             160     68.6056E-03     97.4933E-03
             451             160     68.6056E-03     97.4933E-03
             420             161     76.5317E-03     95.8882E-03
             414             161     76.5317E-03     95.8882E-03
             457             161     76.5317E-03     95.8882E-03
             451             161     76.5317E-03     95.8882E-03
             420             162     87.9987E-03     82.9625E-03
             419             162     87.9987E-03     82.9625E-03
             419             163     83.2836E-03     78.5794E-03
             418             163     83.2836E-03     78.5794E-03
             418             164     77.2561E-03     75.6808E-03
             417             164     77.2561E-03     75.6808E-03
             417             165     75.0100E-03     72.0323E-03
             416             165     75.0100E-03     72.0323E-03
             415             166     68.7749E-03     73.6511E-03
             416             166     68.7749E-03     73.6511E-03
             422             167     97.1678E-03     99.0989E-03
            5288             167     97.1678E-03     99.0989E-03
            5287             167     97.1678E-03     99.0989E-03
             421             167     97.1678E-03     99.0989E-03
            5287             168     96.3111E-03     95.0062E-03
            5286             168     96.3111E-03     95.0062E-03
             423             168     96.3111E-03     95.0062E-03
             422             168     96.3111E-03     95.0062E-03
            5286             169     90.8418E-03     93.2390E-03
             423             169     90.8418E-03     93.2390E-03
             424             169     90.8418E-03     93.2390E-03
            5285             169     90.8418E-03     93.2390E-03
            5284             170     89.0438E-03     90.8518E-03
             424             170     89.0438E-03     90.8518E-03
             425             170     89.0438E-03     90.8518E-03
            5285             170     89.0438E-03     90.8518E-03
             425             171     88.6609E-03     92.3722E-03
            5284             171     88.6609E-03     92.3722E-03
            5283             171     88.6609E-03     92.3722E-03
             426             171     88.6609E-03     92.3722E-03
             426             172     41.4705E-03     42.6248E-03
             432             172     41.4705E-03     42.6248E-03
             505             172     41.4705E-03     42.6248E-03
             545             172     41.4705E-03     42.6248E-03
             585             173     39.0923E-03     38.9211E-03
             545             173     39.0923E-03     38.9211E-03
             432             173     39.0923E-03     38.9211E-03
             438             173     39.0923E-03     38.9211E-03
             438             174     40.2295E-03     39.8273E-03
             625             174     40.2295E-03     39.8273E-03
             585             174     40.2295E-03     39.8273E-03
             444             174     40.2295E-03     39.8273E-03
             665             175     45.0556E-03     46.8418E-03
             625             175     45.0556E-03     46.8418E-03
             450             175     45.0556E-03     46.8418E-03
             444             175     45.0556E-03     46.8418E-03
             705             176     51.0965E-03     56.0188E-03
             456             176     51.0965E-03     56.0188E-03
             665             176     51.0965E-03     56.0188E-03
             450             176     51.0965E-03     56.0188E-03
             705             177     56.5815E-03     61.7919E-03
             745             177     56.5815E-03     61.7919E-03
             456             177     56.5815E-03     61.7919E-03
             462             177     56.5815E-03     61.7919E-03
             461             178     68.5698E-03     66.6377E-03
             462             178     68.5698E-03     66.6377E-03
             461             179     73.3085E-03     68.5931E-03
             460             179     73.3085E-03     68.5931E-03
             459             180     73.0916E-03     76.8317E-03
             460             180     73.0916E-03     76.8317E-03
             459             181     84.3991E-03     76.9628E-03
             458             181     84.3991E-03     76.9628E-03
             458             182     88.9383E-03     84.4466E-03
             457             182     88.9383E-03     84.4466E-03
            6572             183     1.00083E-03     990.685E-06
             464             183     1.00083E-03     990.685E-06
             463             183     1.00083E-03     990.685E-06
            6571             183     1.00083E-03     990.685E-06
             465             184     1.00464E-03     994.789E-06
            6570             184     1.00464E-03     994.789E-06
            6571             184     1.00464E-03     994.789E-06
             464             184     1.00464E-03     994.789E-06
             465             185     996.756E-06     997.263E-06
             466             185     996.756E-06     997.263E-06
            6570             185     996.756E-06     997.263E-06
            6569             185     996.756E-06     997.263E-06
            6569             186     1.00802E-03     998.531E-06
             467             186     1.00802E-03     998.531E-06
             466             186     1.00802E-03     998.531E-06
            6568             186     1.00802E-03     998.531E-06
             468             187     1.00491E-03     979.713E-06
             467             187     1.00491E-03     979.713E-06
            6567             187     1.00491E-03     979.713E-06
            6568             187     1.00491E-03     979.713E-06
             474             188     9.07004E-03     8.99295E-03
            4107             188     9.07004E-03     8.99295E-03
            4067             188     9.07004E-03     8.99295E-03
             468             188     9.07004E-03     8.99295E-03
             474             189     8.40292E-03     8.32032E-03
             480             189     8.40292E-03     8.32032E-03
            4147             189     8.40292E-03     8.32032E-03
            4107             189     8.40292E-03     8.32032E-03
             486             190     7.33804E-03     7.24339E-03
            4147             190     7.33804E-03     7.24339E-03
            4187             190     7.33804E-03     7.24339E-03
             480             190     7.33804E-03     7.24339E-03
            4187             191     5.83877E-03     5.75970E-03
             492             191     5.83877E-03     5.75970E-03
             486             191     5.83877E-03     5.75970E-03
            4227             191     5.83877E-03     5.75970E-03
             498             192     3.97605E-03     4.05814E-03
            4227             192     3.97605E-03     4.05814E-03
             492             192     3.97605E-03     4.05814E-03
            4267             192     3.97605E-03     4.05814E-03
            4307             193     2.52676E-03     3.31086E-03
             498             193     2.52676E-03     3.31086E-03
             504             193     2.52676E-03     3.31086E-03
            4267             193     2.52676E-03     3.31086E-03
             503             194     1.05207E-03     1.04535E-03
             504             194     1.05207E-03     1.04535E-03
             503             195     784.470E-06     739.948E-06
             502             195     784.470E-06     739.948E-06
             501             196     469.348E-06     515.547E-06
             502             196     469.348E-06     515.547E-06
             501             197     331.658E-06     300.620E-06
             500             197     331.658E-06     300.620E-06
             500             198     265.262E-06     351.258E-06
             499             198     265.262E-06     351.258E-06
             493             199     255.524E-06     342.715E-06
             499             199     255.524E-06     342.715E-06
             493             200     321.215E-06     338.721E-06
             487             200     321.215E-06     338.721E-06
             487             201     541.756E-06     541.457E-06
             481             201     541.756E-06     541.457E-06
             475             202     744.632E-06     732.364E-06
             481             202     744.632E-06     732.364E-06
             475             203     879.063E-06     870.398E-06
             469             203     879.063E-06     870.398E-06
             463             204     965.966E-06     958.406E-06
             469             204     965.966E-06     958.406E-06
            4105             205     10.9135E-03     10.7334E-03
            4106             205     10.9135E-03     10.7334E-03
             505             205     10.9135E-03     10.7334E-03
             506             205     10.9135E-03     10.7334E-03
             507             206     13.6617E-03     12.9795E-03
             506             206     13.6617E-03     12.9795E-03
            4105             206     13.6617E-03     12.9795E-03
            4104             206     13.6617E-03     12.9795E-03
             508             207     13.8775E-03     14.2020E-03
            4103             207     13.8775E-03     14.2020E-03
            4104             207     13.8775E-03     14.2020E-03
             507             207     13.8775E-03     14.2020E-03
             509             208     13.2031E-03     14.2134E-03
            4103             208     13.2031E-03     14.2134E-03
            4102             208     13.2031E-03     14.2134E-03
             508             208     13.2031E-03     14.2134E-03
            4101             209     13.6210E-03     13.9746E-03
             509             209     13.6210E-03     13.9746E-03
             510             209     13.6210E-03     13.9746E-03
            4102             209     13.6210E-03     13.9746E-03
             510             210     13.7950E-03     14.0463E-03
             511             210     13.7950E-03     14.0463E-03
            4100             210     13.7950E-03     14.0463E-03
            4101             210     13.7950E-03     14.0463E-03
             512             211     13.9029E-03     13.7941E-03
            4100             211     13.9029E-03     13.7941E-03
            4099             211     13.9029E-03     13.7941E-03
             511             211     13.9029E-03     13.7941E-03
            4099             212     14.0173E-03     13.6124E-03
             513             212     14.0173E-03     13.6124E-03
             512             212     14.0173E-03     13.6124E-03
            4098             212     14.0173E-03     13.6124E-03
            4097             213     14.0744E-03     13.4735E-03
            4098             213     14.0744E-03     13.4735E-03
             514             213     14.0744E-03     13.4735E-03
             513             213     14.0744E-03     13.4735E-03
            4097             214     13.8875E-03     13.0995E-03
            4096             214     13.8875E-03     13.0995E-03
             514             214     13.8875E-03     13.0995E-03
             515             214     13.8875E-03     13.0995E-03
            4095             215     13.5417E-03     13.6118E-03
             515             215     13.5417E-03     13.6118E-03
             516             215     13.5417E-03     13.6118E-03
            4096             215     13.5417E-03     13.6118E-03
             517             216     13.9200E-03     14.0636E-03
            4094             216     13.9200E-03     14.0636E-03
             516             216     13.9200E-03     14.0636E-03
            4095             216     13.9200E-03     14.0636E-03
            4093             217     15.0844E-03     14.4643E-03
             518             217     15.0844E-03     14.4643E-03
             517             217     15.0844E-03     14.4643E-03
            4094             217     15.0844E-03     14.4643E-03
            4092             218     15.1696E-03     15.4724E-03
            4093             218     15.1696E-03     15.4724E-03
             518             218     15.1696E-03     15.4724E-03
             519             218     15.1696E-03     15.4724E-03
             520             219     14.5897E-03     15.4168E-03
            4092             219     14.5897E-03     15.4168E-03
            4091             219     14.5897E-03     15.4168E-03
             519             219     14.5897E-03     15.4168E-03
            4090             220     14.8532E-03     15.2003E-03
             520             220     14.8532E-03     15.2003E-03
             521             220     14.8532E-03     15.2003E-03
            4091             220     14.8532E-03     15.2003E-03
            4089             221     14.9319E-03     15.2156E-03
             522             221     14.9319E-03     15.2156E-03
            4090             221     14.9319E-03     15.2156E-03
             521             221     14.9319E-03     15.2156E-03
            4089             222     14.9946E-03     15.0033E-03
             523             222     14.9946E-03     15.0033E-03
             522             222     14.9946E-03     15.0033E-03
            4088             222     14.9946E-03     15.0033E-03
             523             223     15.1161E-03     14.7817E-03
            4088             223     15.1161E-03     14.7817E-03
            4087             223     15.1161E-03     14.7817E-03
             524             223     15.1161E-03     14.7817E-03
             524             224     15.1196E-03     14.6685E-03
             525             224     15.1196E-03     14.6685E-03
            4087             224     15.1196E-03     14.6685E-03
            4086             224     15.1196E-03     14.6685E-03
            4085             225     15.1717E-03     14.5762E-03
             525             225     15.1717E-03     14.5762E-03
             526             225     15.1717E-03     14.5762E-03
            4086             225     15.1717E-03     14.5762E-03
            4085             226     15.0136E-03     14.3850E-03
            4084             226     15.0136E-03     14.3850E-03
             526             226     15.0136E-03     14.3850E-03
             527             226     15.0136E-03     14.3850E-03
            4084             227     14.7997E-03     14.7310E-03
             527             227     14.7997E-03     14.7310E-03
             528             227     14.7997E-03     14.7310E-03
            4083             227     14.7997E-03     14.7310E-03
             528             228     15.4077E-03     15.3512E-03
             529             228     15.4077E-03     15.3512E-03
            4083             228     15.4077E-03     15.3512E-03
            4082             228     15.4077E-03     15.3512E-03
             530             229     16.5296E-03     16.0432E-03
             529             229     16.5296E-03     16.0432E-03
            4081             229     16.5296E-03     16.0432E-03
            4082             229     16.5296E-03     16.0432E-03
             531             230     16.5790E-03     16.6966E-03
            4080             230     16.5790E-03     16.6966E-03
             530             230     16.5790E-03     16.6966E-03
            4081             230     16.5790E-03     16.6966E-03
            4080             231     16.2209E-03     16.6113E-03
            4079             231     16.2209E-03     16.6113E-03
             532             231     16.2209E-03     16.6113E-03
             531             231     16.2209E-03     16.6113E-03
            4078             232     16.3910E-03     16.4662E-03
             532             232     16.3910E-03     16.4662E-03
             533             232     16.3910E-03     16.4662E-03
            4079             232     16.3910E-03     16.4662E-03
             534             233     16.4472E-03     16.4760E-03
             533             233     16.4472E-03     16.4760E-03
            4077             233     16.4472E-03     16.4760E-03
            4078             233     16.4472E-03     16.4760E-03
            4076             234     16.4881E-03     16.3729E-03
             534             234     16.4881E-03     16.3729E-03
             535             234     16.4881E-03     16.3729E-03
            4077             234     16.4881E-03     16.3729E-03
             535             235     16.5426E-03     16.3163E-03
            4075             235     16.5426E-03     16.3163E-03
            4076             235     16.5426E-03     16.3163E-03
             536             235     16.5426E-03     16.3163E-03
            4075             236     16.5564E-03     16.3058E-03
             536             236     16.5564E-03     16.3058E-03
            4074             236     16.5564E-03     16.3058E-03
             537             236     16.5564E-03     16.3058E-03
            4074             237     16.5671E-03     16.2520E-03
            4073             237     16.5671E-03     16.2520E-03
             537             237     16.5671E-03     16.2520E-03
             538             237     16.5671E-03     16.2520E-03
            4072             238     16.4612E-03     16.2824E-03
             538             238     16.4612E-03     16.2824E-03
             539             238     16.4612E-03     16.2824E-03
            4073             238     16.4612E-03     16.2824E-03
             539             239     16.9357E-03     16.8031E-03
            4072             239     16.9357E-03     16.8031E-03
            4071             239     16.9357E-03     16.8031E-03
             540             239     16.9357E-03     16.8031E-03
            4070             240     17.7213E-03     17.4100E-03
             540             240     17.7213E-03     17.4100E-03
             541             240     17.7213E-03     17.4100E-03
            4071             240     17.7213E-03     17.4100E-03
             541             241     17.7570E-03     17.6744E-03
             542             241     17.7570E-03     17.6744E-03
            4070             241     17.7570E-03     17.6744E-03
            4069             241     17.7570E-03     17.6744E-03
            4068             242     17.6729E-03     17.6415E-03
            4069             242     17.6729E-03     17.6415E-03
             543             242     17.6729E-03     17.6415E-03
             542             242     17.6729E-03     17.6415E-03
            4068             243     17.6694E-03     17.5165E-03
             544             243     17.6694E-03     17.5165E-03
            4067             243     17.6694E-03     17.5165E-03
             543             243     17.6694E-03     17.5165E-03
            6567             244     9.04197E-03     9.02159E-03
            6573             244     9.04197E-03     9.02159E-03
             544             244     9.04197E-03     9.02159E-03
             584             244     9.04197E-03     9.02159E-03
            6573             245     8.34841E-03     8.38628E-03
             624             245     8.34841E-03     8.38628E-03
            6579             245     8.34841E-03     8.38628E-03
             584             245     8.34841E-03     8.38628E-03
            6579             246     7.26125E-03     7.35287E-03
             664             246     7.26125E-03     7.35287E-03
            6585             246     7.26125E-03     7.35287E-03
             624             246     7.26125E-03     7.35287E-03
             704             247     5.73131E-03     5.93377E-03
             664             247     5.73131E-03     5.93377E-03
            6591             247     5.73131E-03     5.93377E-03
            6585             247     5.73131E-03     5.93377E-03
            6597             248     3.80836E-03     4.40104E-03
             744             248     3.80836E-03     4.40104E-03
            6591             248     3.80836E-03     4.40104E-03
             704             248     3.80836E-03     4.40104E-03
             784             249     3.01499E-03     4.22173E-03
             744             249     3.01499E-03     4.22173E-03
            6603             249     3.01499E-03     4.22173E-03
            6597             249     3.01499E-03     4.22173E-03
             783             250     4.59687E-03     5.46819E-03
             784             250     4.59687E-03     5.46819E-03
             783             251     3.52950E-03     3.62158E-03
             782             251     3.52950E-03     3.62158E-03
             781             252     6.73203E-03     5.89589E-03
             782             252     6.73203E-03     5.89589E-03
             780             253     10.7384E-03     11.0644E-03
             781             253     10.7384E-03     11.0644E-03
             780             254     8.32082E-03     9.44740E-03
             779             254     8.32082E-03     9.44740E-03
             778             255     5.98443E-03     5.23068E-03
             779             255     5.98443E-03     5.23068E-03
             777             256     8.24285E-03     7.93098E-03
             778             256     8.24285E-03     7.93098E-03
             777             257     11.2803E-03     10.9992E-03
             776             257     11.2803E-03     10.9992E-03
             776             258     14.1524E-03     14.0210E-03
             775             258     14.1524E-03     14.0210E-03
             774             259     17.0278E-03     16.8320E-03
             775             259     17.0278E-03     16.8320E-03
             774             260     19.7469E-03     19.7865E-03
             773             260     19.7469E-03     19.7865E-03
             772             261     22.8304E-03     22.2368E-03
             773             261     22.8304E-03     22.2368E-03
             772             262     25.0272E-03     26.1929E-03
             771             262     25.0272E-03     26.1929E-03
             770             263     30.2856E-03     28.5074E-03
             771             263     30.2856E-03     28.5074E-03
             770             264     33.6742E-03     32.9369E-03
             769             264     33.6742E-03     32.9369E-03
             768             265     28.6795E-03     32.1578E-03
             769             265     28.6795E-03     32.1578E-03
             768             266     27.4777E-03     25.6494E-03
             767             266     27.4777E-03     25.6494E-03
             767             267     29.3289E-03     27.6465E-03
             766             267     29.3289E-03     27.6465E-03
             765             268     30.4926E-03     30.7410E-03
             766             268     30.4926E-03     30.7410E-03
             765             269     33.2764E-03     32.6581E-03
             764             269     33.2764E-03     32.6581E-03
             763             270     35.5060E-03     35.2525E-03
             764             270     35.5060E-03     35.2525E-03
             763             271     37.8148E-03     37.5403E-03
             762             271     37.8148E-03     37.5403E-03
             762             272     40.0892E-03     40.0181E-03
             761             272     40.0892E-03     40.0181E-03
             761             273     42.8130E-03     41.8585E-03
             760             273     42.8130E-03     41.8585E-03
             759             274     44.2555E-03     45.8060E-03
             760             274     44.2555E-03     45.8060E-03
             759             275     50.1284E-03     47.2109E-03
             758             275     50.1284E-03     47.2109E-03
             757             276     53.2790E-03     51.6299E-03
             758             276     53.2790E-03     51.6299E-03
             756             277     47.1930E-03     52.9357E-03
             757             277     47.1930E-03     52.9357E-03
             755             278     47.6747E-03     45.0766E-03
             756             278     47.6747E-03     45.0766E-03
             754             279     48.8820E-03     46.1135E-03
             755             279     48.8820E-03     46.1135E-03
             754             280     48.4767E-03     49.1875E-03
             753             280     48.4767E-03     49.1875E-03
             752             281     51.1663E-03     50.2333E-03
             753             281     51.1663E-03     50.2333E-03
             752             282     52.9415E-03     52.6183E-03
             751             282     52.9415E-03     52.6183E-03
             751             283     54.8660E-03     54.7112E-03
             750             283     54.8660E-03     54.7112E-03
             749             284     57.2961E-03     56.0524E-03
             750             284     57.2961E-03     56.0524E-03
             748             285     58.1740E-03     59.9387E-03
             749             285     58.1740E-03     59.9387E-03
             748             286     64.3980E-03     60.6385E-03
             747             286     64.3980E-03     60.6385E-03
             747             287     67.3624E-03     64.9984E-03
             746             287     67.3624E-03     64.9984E-03
             745             288     59.7792E-03     64.7872E-03
             746             288     59.7792E-03     64.7872E-03
            1782             306     628.428E-06     647.988E-06
            1781             306     628.428E-06     647.988E-06
            1783             307     428.634E-06     376.302E-06
            1782             307     428.634E-06     376.302E-06
            1784             308     236.155E-06     362.961E-06
            1783             308     236.155E-06     362.961E-06
            1760             412     937.169E-06     930.208E-06
            1764             412     937.169E-06     930.208E-06
            1764             413     855.693E-06     847.351E-06
            1768             413     855.693E-06     847.351E-06
            1772             414     732.260E-06     722.452E-06
            1768             414     732.260E-06     722.452E-06
            1776             415     559.539E-06     546.024E-06
            1772             415     559.539E-06     546.024E-06
            1776             416     364.182E-06     333.512E-06
            1780             416     364.182E-06     333.512E-06
            1780             417     253.097E-06     310.833E-06
            1784             417     253.097E-06     310.833E-06
            3800             418     2.32154E-03     3.04498E-03
            1777             418     2.32154E-03     3.04498E-03
            3850             418     2.32154E-03     3.04498E-03
            1781             418     2.32154E-03     3.04498E-03
            3800             419     3.37101E-03     3.53661E-03
            1777             419     3.37101E-03     3.53661E-03
            3750             419     3.37101E-03     3.53661E-03
            1773             419     3.37101E-03     3.53661E-03
            3700             420     4.99377E-03     5.00221E-03
            3750             420     4.99377E-03     5.00221E-03
            1769             420     4.99377E-03     5.00221E-03
            1773             420     4.99377E-03     5.00221E-03
            3650             421     6.49793E-03     6.40788E-03
            3700             421     6.49793E-03     6.40788E-03
            1769             421     6.49793E-03     6.40788E-03
            1765             421     6.49793E-03     6.40788E-03
            3650             422     7.57068E-03     7.47315E-03
            1765             422     7.57068E-03     7.47315E-03
            1761             422     7.57068E-03     7.47315E-03
            3600             422     7.57068E-03     7.47315E-03
            3600             423     8.22282E-03     8.14320E-03
            1761             423     8.22282E-03     8.14320E-03
            3550             423     8.22282E-03     8.14320E-03
            1757             423     8.22282E-03     8.14320E-03
            3801             440     71.9385E-03     69.2065E-03
            3802             440     71.9385E-03     69.2065E-03
            3803             441     69.5864E-03     65.6006E-03
            3802             441     69.5864E-03     65.6006E-03
            3804             442     64.0026E-03     65.7567E-03
            3803             442     64.0026E-03     65.7567E-03
            3805             443     63.9766E-03     62.5672E-03
            3804             443     63.9766E-03     62.5672E-03
            3806             444     62.2118E-03     62.1631E-03
            3805             444     62.2118E-03     62.1631E-03
            3807             445     61.3655E-03     60.1170E-03
            3806             445     61.3655E-03     60.1170E-03
            3808             446     59.1110E-03     60.2722E-03
            3807             446     59.1110E-03     60.2722E-03
            3808             447     61.1771E-03     57.7317E-03
            3809             447     61.1771E-03     57.7317E-03
            3809             448     60.9683E-03     58.0215E-03
            3810             448     60.9683E-03     58.0215E-03
            3811             449     58.5571E-03     65.5309E-03
            3810             449     58.5571E-03     65.5309E-03
            3812             450     64.1596E-03     61.8202E-03
            3811             450     64.1596E-03     61.8202E-03
            3813             451     61.4455E-03     57.9777E-03
            3812             451     61.4455E-03     57.9777E-03
            3813             452     55.8708E-03     57.4968E-03
            3814             452     55.8708E-03     57.4968E-03
            3814             453     55.3077E-03     54.0767E-03
            3815             453     55.3077E-03     54.0767E-03
            3816             454     53.2193E-03     53.0703E-03
            3815             454     53.2193E-03     53.0703E-03
            3816             455     51.6313E-03     51.3314E-03
            3817             455     51.6313E-03     51.3314E-03
            3817             456     50.2329E-03     49.2645E-03
            3818             456     50.2329E-03     49.2645E-03
            3819             457     47.8535E-03     48.6125E-03
            3818             457     47.8535E-03     48.6125E-03
            3819             458     48.6502E-03     45.9597E-03
            3820             458     48.6502E-03     45.9597E-03
            3821             459     47.8861E-03     45.3576E-03
            3820             459     47.8861E-03     45.3576E-03
            3821             460     46.7781E-03     52.3511E-03
            3822             460     46.7781E-03     52.3511E-03
            3823             461     51.9804E-03     50.2538E-03
            3822             461     51.9804E-03     50.2538E-03
            3824             462     49.0007E-03     46.2265E-03
            3823             462     49.0007E-03     46.2265E-03
            3825             463     43.6107E-03     45.0369E-03
            3824             463     43.6107E-03     45.0369E-03
            3825             464     42.4412E-03     41.4517E-03
            3826             464     42.4412E-03     41.4517E-03
            3827             465     39.9930E-03     39.9197E-03
            3826             465     39.9930E-03     39.9197E-03
            3828             466     38.0003E-03     37.7379E-03
            3827             466     38.0003E-03     37.7379E-03
            3829             467     36.0645E-03     35.4152E-03
            3828             467     36.0645E-03     35.4152E-03
            3829             468     33.5373E-03     33.8883E-03
            3830             468     33.5373E-03     33.8883E-03
            3830             469     32.8944E-03     31.0943E-03
            3831             469     32.8944E-03     31.0943E-03
            3832             470     31.4281E-03     29.5286E-03
            3831             470     31.4281E-03     29.5286E-03
            3833             471     31.9576E-03     35.7870E-03
            3832             471     31.9576E-03     35.7870E-03
            3834             472     36.6774E-03     35.6999E-03
            3833             472     36.6774E-03     35.6999E-03
            3834             473     33.4737E-03     31.5722E-03
            3835             473     33.4737E-03     31.5722E-03
            3836             474     28.4511E-03     29.6135E-03
            3835             474     28.4511E-03     29.6135E-03
            3836             475     26.6318E-03     25.9459E-03
            3837             475     26.6318E-03     25.9459E-03
            3837             476     23.8473E-03     23.8620E-03
            3838             476     23.8473E-03     23.8620E-03
            3838             477     21.4529E-03     21.2406E-03
            3839             477     21.4529E-03     21.2406E-03
            3839             478     18.9615E-03     18.6930E-03
            3840             478     18.9615E-03     18.6930E-03
            3841             479     16.3282E-03     16.2119E-03
            3840             479     16.3282E-03     16.2119E-03
            3842             480     14.0640E-03     13.3493E-03
            3841             480     14.0640E-03     13.3493E-03
            3843             481     11.9387E-03     10.8195E-03
            3842             481     11.9387E-03     10.8195E-03
            3844             482     13.8147E-03     15.4992E-03
            3843             482     13.8147E-03     15.4992E-03
            3845             483     17.0534E-03     16.9392E-03
            3844             483     17.0534E-03     16.9392E-03
            3846             484     13.3894E-03     12.4305E-03
            3845             484     13.3894E-03     12.4305E-03
            3846             485     8.57888E-03     9.38296E-03
            3847             485     8.57888E-03     9.38296E-03
            3848             486     5.81809E-03     5.25261E-03
            3847             486     5.81809E-03     5.25261E-03
            3849             487     2.87461E-03     2.74123E-03
            3848             487     2.87461E-03     2.74123E-03
            3850             488     2.51989E-03     3.69738E-03
            3849             488     2.51989E-03     3.69738E-03
            2354             514     44.4912E-03     44.1552E-03
            3501             514     44.4912E-03     44.1552E-03
            2348             514     44.4912E-03     44.1552E-03
            3551             514     44.4912E-03     44.1552E-03
            3601             515     54.8079E-03     57.3638E-03
            3551             515     54.8079E-03     57.3638E-03
            2354             515     54.8079E-03     57.3638E-03
            2360             515     54.8079E-03     57.3638E-03
            2366             516     66.1960E-03     70.6747E-03
            3601             516     66.1960E-03     70.6747E-03
            2360             516     66.1960E-03     70.6747E-03
            3651             516     66.1960E-03     70.6747E-03
            3701             517     75.4861E-03     82.6774E-03
            3651             517     75.4861E-03     82.6774E-03
            2366             517     75.4861E-03     82.6774E-03
            2372             517     75.4861E-03     82.6774E-03
            2372             518     81.9633E-03     91.0821E-03
            3701             518     81.9633E-03     91.0821E-03
            3751             518     81.9633E-03     91.0821E-03
            2378             518     81.9633E-03     91.0821E-03
            3751             519     87.0958E-03     94.2672E-03
            2378             519     87.0958E-03     94.2672E-03
            2384             519     87.0958E-03     94.2672E-03
            3801             519     87.0958E-03     94.2672E-03
            2384             520     152.735E-03     153.187E-03
            2383             520     152.735E-03     153.187E-03
            2383             521     196.517E-03     193.476E-03
            2382             521     196.517E-03     193.476E-03
            2381             522     189.600E-03     187.911E-03
            2382             522     189.600E-03     187.911E-03
            2380             523     179.287E-03     180.964E-03
            2381             523     179.287E-03     180.964E-03
            2380             524     169.433E-03     175.021E-03
            2379             524     169.433E-03     175.021E-03
            2379             525     164.862E-03     171.424E-03
            5324             525     164.862E-03     171.424E-03
            2373             525     164.862E-03     171.424E-03
            5318             525     164.862E-03     171.424E-03
            5312             526     167.803E-03     167.208E-03
            2367             526     167.803E-03     167.208E-03
            2373             526     167.803E-03     167.208E-03
            5318             526     167.803E-03     167.208E-03
            5306             527     159.954E-03     156.884E-03
            5312             527     159.954E-03     156.884E-03
            2361             527     159.954E-03     156.884E-03
            2367             527     159.954E-03     156.884E-03
            2361             528     144.556E-03     143.166E-03
            5306             528     144.556E-03     143.166E-03
            5300             528     144.556E-03     143.166E-03
            2355             528     144.556E-03     143.166E-03
            2349             529     125.817E-03     127.225E-03
            5294             529     125.817E-03     127.225E-03
            2355             529     125.817E-03     127.225E-03
            5300             529     125.817E-03     127.225E-03
            5288             530     107.772E-03     112.640E-03
            2349             530     107.772E-03     112.640E-03
            2343             530     107.772E-03     112.640E-03
            5294             530     107.772E-03     112.640E-03
            5320             625     197.263E-03     193.468E-03
            5319             625     197.263E-03     193.468E-03
            5321             626     190.437E-03     188.969E-03
            5320             626     190.437E-03     188.969E-03
            5321             627     181.059E-03     182.946E-03
            5322             627     181.059E-03     182.946E-03
            5323             628     177.577E-03     178.280E-03
            5322             628     177.577E-03     178.280E-03
            5324             629     167.037E-03     173.687E-03
            5323             629     167.037E-03     173.687E-03
            5283             630     63.1339E-03     66.3701E-03
            5289             630     63.1339E-03     66.3701E-03
            4106             630     63.1339E-03     66.3701E-03
            4146             630     63.1339E-03     66.3701E-03
            4186             631     78.8804E-03     82.5376E-03
            4146             631     78.8804E-03     82.5376E-03
            5289             631     78.8804E-03     82.5376E-03
            5295             631     78.8804E-03     82.5376E-03
            4186             632     92.8376E-03     97.0660E-03
            5295             632     92.8376E-03     97.0660E-03
            4226             632     92.8376E-03     97.0660E-03
            5301             632     92.8376E-03     97.0660E-03
            4226             633     104.386E-03     110.118E-03
            5307             633     104.386E-03     110.118E-03
            5301             633     104.386E-03     110.118E-03
            4266             633     104.386E-03     110.118E-03
            5313             634     116.226E-03     120.510E-03
            4266             634     116.226E-03     120.510E-03
            4306             634     116.226E-03     120.510E-03
            5307             634     116.226E-03     120.510E-03
            5319             635     124.779E-03     125.753E-03
            4306             635     124.779E-03     125.753E-03
            5313             635     124.779E-03     125.753E-03
            4346             635     124.779E-03     125.753E-03
            4346             636     62.1588E-03     67.3366E-03
            4345             636     62.1588E-03     67.3366E-03
            4345             637     70.0521E-03     67.5633E-03
            4344             637     70.0521E-03     67.5633E-03
            4344             638     66.9872E-03     63.0561E-03
            4343             638     66.9872E-03     63.0561E-03
            4342             639     60.5688E-03     62.3869E-03
            4343             639     60.5688E-03     62.3869E-03
            4341             640     59.7261E-03     58.4172E-03
            4342             640     59.7261E-03     58.4172E-03
            4341             641     57.2756E-03     57.1009E-03
            4340             641     57.2756E-03     57.1009E-03
            4339             642     55.3513E-03     55.0077E-03
            4340             642     55.3513E-03     55.0077E-03
            4338             643     53.5963E-03     52.5971E-03
            4339             643     53.5963E-03     52.5971E-03
            4337             644     50.8712E-03     51.6343E-03
            4338             644     50.8712E-03     51.6343E-03
            4336             645     51.4689E-03     48.5277E-03
            4337             645     51.4689E-03     48.5277E-03
            4335             646     50.3527E-03     47.6323E-03
            4336             646     50.3527E-03     47.6323E-03
            4335             647     49.7106E-03     55.7941E-03
            4334             647     49.7106E-03     55.7941E-03
            4333             648     55.9756E-03     54.2019E-03
            4334             648     55.9756E-03     54.2019E-03
            4332             649     52.7281E-03     49.6377E-03
            4333             649     52.7281E-03     49.6377E-03
            4332             650     46.6590E-03     48.2670E-03
            4331             650     46.6590E-03     48.2670E-03
            4330             651     45.2575E-03     44.2374E-03
            4331             651     45.2575E-03     44.2374E-03
            4329             652     42.5116E-03     42.4249E-03
            4330             652     42.5116E-03     42.4249E-03
            4328             653     40.2406E-03     39.9408E-03
            4329             653     40.2406E-03     39.9408E-03
            4328             654     37.9286E-03     37.6584E-03
            4327             654     37.9286E-03     37.6584E-03
            4326             655     35.7209E-03     35.0349E-03
            4327             655     35.7209E-03     35.0349E-03
            4326             656     32.8958E-03     33.1993E-03
            4325             656     32.8958E-03     33.1993E-03
            4324             657     31.9241E-03     30.0660E-03
            4325             657     31.9241E-03     30.0660E-03
            4324             658     30.1481E-03     28.1993E-03
            4323             658     30.1481E-03     28.1993E-03
            4323             659     31.1846E-03     35.0058E-03
            4322             659     31.1846E-03     35.0058E-03
            4321             660     36.3638E-03     35.5014E-03
            4322             660     36.3638E-03     35.5014E-03
            4320             661     32.8741E-03     30.9248E-03
            4321             661     32.8741E-03     30.9248E-03
            4320             662     27.4193E-03     28.6395E-03
            4319             662     27.4193E-03     28.6395E-03
            4319             663     25.2556E-03     24.5979E-03
            4318             663     25.2556E-03     24.5979E-03
            4318             664     22.1499E-03     22.1701E-03
            4317             664     22.1499E-03     22.1701E-03
            4317             665     19.4295E-03     19.2123E-03
            4316             665     19.4295E-03     19.2123E-03
            4316             666     16.5728E-03     16.3728E-03
            4315             666     16.5728E-03     16.3728E-03
            4315             667     13.6697E-03     13.4300E-03
            4314             667     13.6697E-03     13.4300E-03
            4314             668     10.8127E-03     10.3011E-03
            4313             668     10.8127E-03     10.3011E-03
            4313             669     8.44411E-03     7.44090E-03
            4312             669     8.44411E-03     7.44090E-03
            4312             670     10.5527E-03     11.9094E-03
            4311             670     10.5527E-03     11.9094E-03
            4310             671     13.2378E-03     13.4132E-03
            4311             671     13.2378E-03     13.4132E-03
            4309             672     9.02627E-03     7.94866E-03
            4310             672     9.02627E-03     7.94866E-03
            4308             673     3.74037E-03     4.51446E-03
            4309             673     3.74037E-03     4.51446E-03
            4308             674     2.65635E-03     3.96212E-03
            4307             674     2.65635E-03     3.96212E-03
            6604             765     1.05207E-03     1.04535E-03
            6603             765     1.05207E-03     1.04535E-03
            6605             766     784.470E-06     739.948E-06
            6604             766     784.470E-06     739.948E-06
            6606             767     469.348E-06     515.547E-06
            6605             767     469.348E-06     515.547E-06
            6607             768     331.658E-06     300.620E-06
            6606             768     331.658E-06     300.620E-06
            6608             769     265.262E-06     351.258E-06
            6607             769     265.262E-06     351.258E-06
            6578             825     965.966E-06     958.406E-06
            6572             825     965.966E-06     958.406E-06
            6584             826     879.063E-06     870.398E-06
            6578             826     879.063E-06     870.398E-06
            6584             827     744.632E-06     732.364E-06
            6590             827     744.632E-06     732.364E-06
            6596             828     541.756E-06     541.457E-06
            6590             828     541.756E-06     541.457E-06
            6596             829     321.215E-06     338.721E-06
            6602             829     321.215E-06     338.721E-06
            6608             830     255.524E-06     342.715E-06
            6602             830     255.524E-06     342.715E-06
               2             831     942.261E-06     936.124E-06
               5             831     942.261E-06     936.124E-06
               6             831     942.261E-06     936.124E-06
               1             831     942.261E-06     936.124E-06
               3             832     954.547E-06     940.972E-06
               6             832     954.547E-06     940.972E-06
               7             832     954.547E-06     940.972E-06
               2             832     954.547E-06     940.972E-06
               8             833     948.820E-06     932.450E-06
               3             833     948.820E-06     932.450E-06
               7             833     948.820E-06     932.450E-06
               4             833     948.820E-06     932.450E-06
               5             834     863.268E-06     858.550E-06
              10             834     863.268E-06     858.550E-06
               6             834     863.268E-06     858.550E-06
               9             834     863.268E-06     858.550E-06
              10             835     881.947E-06     866.775E-06
               6             835     881.947E-06     866.775E-06
               7             835     881.947E-06     866.775E-06
              11             835     881.947E-06     866.775E-06
               8             836     875.229E-06     865.219E-06
              11             836     875.229E-06     865.219E-06
               7             836     875.229E-06     865.219E-06
              12             836     875.229E-06     865.219E-06
               9             837     737.197E-06     735.070E-06
              13             837     737.197E-06     735.070E-06
              10             837     737.197E-06     735.070E-06
              14             837     737.197E-06     735.070E-06
              11             838     765.812E-06     744.024E-06
              14             838     765.812E-06     744.024E-06
              10             838     765.812E-06     744.024E-06
              15             838     765.812E-06     744.024E-06
              16             839     766.296E-06     761.861E-06
              15             839     766.296E-06     761.861E-06
              12             839     766.296E-06     761.861E-06
              11             839     766.296E-06     761.861E-06
              13             840     566.707E-06     578.147E-06
              17             840     566.707E-06     578.147E-06
              14             840     566.707E-06     578.147E-06
              18             840     566.707E-06     578.147E-06
              15             841     615.380E-06     594.206E-06
              18             841     615.380E-06     594.206E-06
              14             841     615.380E-06     594.206E-06
              19             841     615.380E-06     594.206E-06
              19             842     622.556E-06     628.048E-06
              20             842     622.556E-06     628.048E-06
              15             842     622.556E-06     628.048E-06
              16             842     622.556E-06     628.048E-06
              17             843     361.985E-06     389.345E-06
              21             843     361.985E-06     389.345E-06
              18             843     361.985E-06     389.345E-06
              22             843     361.985E-06     389.345E-06
              19             844     454.108E-06     413.190E-06
              22             844     454.108E-06     413.190E-06
              18             844     454.108E-06     413.190E-06
              23             844     454.108E-06     413.190E-06
              23             845     474.731E-06     486.953E-06
              24             845     474.731E-06     486.953E-06
              19             845     474.731E-06     486.953E-06
              20             845     474.731E-06     486.953E-06
              25             846     245.695E-06     324.588E-06
              21             846     245.695E-06     324.588E-06
              22             846     245.695E-06     324.588E-06
              26             846     245.695E-06     324.588E-06
              27             847     400.847E-06     341.408E-06
              22             847     400.847E-06     341.408E-06
              26             847     400.847E-06     341.408E-06
              23             847     400.847E-06     341.408E-06
              23             848     520.211E-06     534.714E-06
              27             848     520.211E-06     534.714E-06
              28             848     520.211E-06     534.714E-06
              24             848     520.211E-06     534.714E-06
              30             849     15.5717E-03     15.4501E-03
              80             849     15.5717E-03     15.4501E-03
              79             849     15.5717E-03     15.4501E-03
              29             849     15.5717E-03     15.4501E-03
              30             850     15.6166E-03     15.5093E-03
              81             850     15.6166E-03     15.5093E-03
              80             850     15.6166E-03     15.5093E-03
              31             850     15.6166E-03     15.5093E-03
              32             851     15.5613E-03     15.4912E-03
              81             851     15.5613E-03     15.4912E-03
              82             851     15.5613E-03     15.4912E-03
              31             851     15.5613E-03     15.4912E-03
              83             852     15.5075E-03     15.5339E-03
              82             852     15.5075E-03     15.5339E-03
              33             852     15.5075E-03     15.5339E-03
              32             852     15.5075E-03     15.5339E-03
              33             853     15.6668E-03     15.5948E-03
              34             853     15.6668E-03     15.5948E-03
              84             853     15.6668E-03     15.5948E-03
              83             853     15.6668E-03     15.5948E-03
              34             854     15.6457E-03     15.3555E-03
              35             854     15.6457E-03     15.3555E-03
              85             854     15.6457E-03     15.3555E-03
              84             854     15.6457E-03     15.3555E-03
              35             855     14.6713E-03     14.5674E-03
              86             855     14.6713E-03     14.5674E-03
              36             855     14.6713E-03     14.5674E-03
              85             855     14.6713E-03     14.5674E-03
              36             856     13.9811E-03     13.8807E-03
              87             856     13.9811E-03     13.8807E-03
              37             856     13.9811E-03     13.8807E-03
              86             856     13.9811E-03     13.8807E-03
              37             857     14.1220E-03     13.8601E-03
              88             857     14.1220E-03     13.8601E-03
              38             857     14.1220E-03     13.8601E-03
              87             857     14.1220E-03     13.8601E-03
              38             858     14.2576E-03     14.0406E-03
              88             858     14.2576E-03     14.0406E-03
              39             858     14.2576E-03     14.0406E-03
              89             858     14.2576E-03     14.0406E-03
              90             859     14.3367E-03     14.1982E-03
              39             859     14.3367E-03     14.1982E-03
              89             859     14.3367E-03     14.1982E-03
              40             859     14.3367E-03     14.1982E-03
              90             860     14.4370E-03     14.4130E-03
              41             860     14.4370E-03     14.4130E-03
              40             860     14.4370E-03     14.4130E-03
              91             860     14.4370E-03     14.4130E-03
              92             861     14.5979E-03     14.6407E-03
              41             861     14.5979E-03     14.6407E-03
              91             861     14.5979E-03     14.6407E-03
              42             861     14.5979E-03     14.6407E-03
              42             862     14.7363E-03     14.7641E-03
              93             862     14.7363E-03     14.7641E-03
              92             862     14.7363E-03     14.7641E-03
              43             862     14.7363E-03     14.7641E-03
              43             863     14.6628E-03     15.0957E-03
              44             863     14.6628E-03     15.0957E-03
              94             863     14.6628E-03     15.0957E-03
              93             863     14.6628E-03     15.0957E-03
              95             864     15.2466E-03     15.1732E-03
              94             864     15.2466E-03     15.1732E-03
              44             864     15.2466E-03     15.1732E-03
              45             864     15.2466E-03     15.1732E-03
              96             865     15.2193E-03     14.6768E-03
              46             865     15.2193E-03     14.6768E-03
              45             865     15.2193E-03     14.6768E-03
              95             865     15.2193E-03     14.6768E-03
              47             866     13.7971E-03     14.0256E-03
              46             866     13.7971E-03     14.0256E-03
              97             866     13.7971E-03     14.0256E-03
              96             866     13.7971E-03     14.0256E-03
              97             867     13.3889E-03     13.3045E-03
              47             867     13.3889E-03     13.3045E-03
              98             867     13.3889E-03     13.3045E-03
              48             867     13.3889E-03     13.3045E-03
              48             868     13.7996E-03     13.2970E-03
              98             868     13.7996E-03     13.2970E-03
              99             868     13.7996E-03     13.2970E-03
              49             868     13.7996E-03     13.2970E-03
              50             869     14.0541E-03     13.8078E-03
             100             869     14.0541E-03     13.8078E-03
              99             869     14.0541E-03     13.8078E-03
              49             869     14.0541E-03     13.8078E-03
             100             870     14.2823E-03     14.0903E-03
              50             870     14.2823E-03     14.0903E-03
             101             870     14.2823E-03     14.0903E-03
              51             870     14.2823E-03     14.0903E-03
             101             871     14.4760E-03     14.4688E-03
             102             871     14.4760E-03     14.4688E-03
              51             871     14.4760E-03     14.4688E-03
              52             871     14.4760E-03     14.4688E-03
              52             872     14.7002E-03     14.8121E-03
             102             872     14.7002E-03     14.8121E-03
             103             872     14.7002E-03     14.8121E-03
              53             872     14.7002E-03     14.8121E-03
             104             873     14.8355E-03     14.9329E-03
              53             873     14.8355E-03     14.9329E-03
              54             873     14.8355E-03     14.9329E-03
             103             873     14.8355E-03     14.9329E-03
              55             874     14.6142E-03     15.3790E-03
             105             874     14.6142E-03     15.3790E-03
             104             874     14.6142E-03     15.3790E-03
              54             874     14.6142E-03     15.3790E-03
              56             875     15.4390E-03     15.2992E-03
             105             875     15.4390E-03     15.2992E-03
              55             875     15.4390E-03     15.2992E-03
             106             875     15.4390E-03     15.2992E-03
              57             876     15.2334E-03     14.5285E-03
             107             876     15.2334E-03     14.5285E-03
             106             876     15.2334E-03     14.5285E-03
              56             876     15.2334E-03     14.5285E-03
             107             877     13.4742E-03     14.1952E-03
             108             877     13.4742E-03     14.1952E-03
              57             877     13.4742E-03     14.1952E-03
              58             877     13.4742E-03     14.1952E-03
              59             878     13.7015E-03     13.5412E-03
             109             878     13.7015E-03     13.5412E-03
             108             878     13.7015E-03     13.5412E-03
              58             878     13.7015E-03     13.5412E-03
              60             879     14.3807E-03     13.6122E-03
              59             879     14.3807E-03     13.6122E-03
             110             879     14.3807E-03     13.6122E-03
             109             879     14.3807E-03     13.6122E-03
             111             880     14.5522E-03     14.4078E-03
             110             880     14.5522E-03     14.4078E-03
              60             880     14.5522E-03     14.4078E-03
              61             880     14.5522E-03     14.4078E-03
              61             881     14.9102E-03     14.6828E-03
             112             881     14.9102E-03     14.6828E-03
             111             881     14.9102E-03     14.6828E-03
              62             881     14.9102E-03     14.6828E-03
              62             882     15.1245E-03     15.1468E-03
             112             882     15.1245E-03     15.1468E-03
             113             882     15.1245E-03     15.1468E-03
              63             882     15.1245E-03     15.1468E-03
              63             883     15.3280E-03     15.5089E-03
             113             883     15.3280E-03     15.5089E-03
              64             883     15.3280E-03     15.5089E-03
             114             883     15.3280E-03     15.5089E-03
              64             884     15.3999E-03     15.5431E-03
              65             884     15.3999E-03     15.5431E-03
             114             884     15.3999E-03     15.5431E-03
             115             884     15.3999E-03     15.5431E-03
              66             885     15.0017E-03     16.0116E-03
             116             885     15.0017E-03     16.0116E-03
             115             885     15.0017E-03     16.0116E-03
              65             885     15.0017E-03     16.0116E-03
             117             886     15.9562E-03     15.7088E-03
              66             886     15.9562E-03     15.7088E-03
              67             886     15.9562E-03     15.7088E-03
             116             886     15.9562E-03     15.7088E-03
              67             887     15.5198E-03     14.7022E-03
             117             887     15.5198E-03     14.7022E-03
             118             887     15.5198E-03     14.7022E-03
              68             887     15.5198E-03     14.7022E-03
             118             888     13.4979E-03     14.7012E-03
              68             888     13.4979E-03     14.7012E-03
              69             888     13.4979E-03     14.7012E-03
             119             888     13.4979E-03     14.7012E-03
             119             889     14.3519E-03     14.1705E-03
             120             889     14.3519E-03     14.1705E-03
              69             889     14.3519E-03     14.1705E-03
              70             889     14.3519E-03     14.1705E-03
             120             890     15.2440E-03     14.3751E-03
              70             890     15.2440E-03     14.3751E-03
             121             890     15.2440E-03     14.3751E-03
              71             890     15.2440E-03     14.3751E-03
              72             891     15.1999E-03     15.3502E-03
              71             891     15.1999E-03     15.3502E-03
             121             891     15.1999E-03     15.3502E-03
             122             891     15.1999E-03     15.3502E-03
             123             892     15.5467E-03     15.6088E-03
              73             892     15.5467E-03     15.6088E-03
              72             892     15.5467E-03     15.6088E-03
             122             892     15.5467E-03     15.6088E-03
              74             893     15.8002E-03     15.9809E-03
             123             893     15.8002E-03     15.9809E-03
              73             893     15.8002E-03     15.9809E-03
             124             893     15.8002E-03     15.9809E-03
              75             894     15.7858E-03     16.0145E-03
             125             894     15.7858E-03     16.0145E-03
             124             894     15.7858E-03     16.0145E-03
              74             894     15.7858E-03     16.0145E-03
              75             895     15.2567E-03     16.4086E-03
             126             895     15.2567E-03     16.4086E-03
             125             895     15.2567E-03     16.4086E-03
              76             895     15.2567E-03     16.4086E-03
             127             896     16.2372E-03     15.8931E-03
              76             896     16.2372E-03     15.8931E-03
             126             896     16.2372E-03     15.8931E-03
              77             896     16.2372E-03     15.8931E-03
              78             897     15.5619E-03     14.7362E-03
             127             897     15.5619E-03     14.7362E-03
             128             897     15.5619E-03     14.7362E-03
              77             897     15.5619E-03     14.7362E-03
              79             898     14.3121E-03     14.2146E-03
              80             898     14.3121E-03     14.2146E-03
             130             898     14.3121E-03     14.2146E-03
             129             898     14.3121E-03     14.2146E-03
              81             899     14.3718E-03     14.2652E-03
              80             899     14.3718E-03     14.2652E-03
             130             899     14.3718E-03     14.2652E-03
             131             899     14.3718E-03     14.2652E-03
              82             900     14.3399E-03     14.2808E-03
             131             900     14.3399E-03     14.2808E-03
             132             900     14.3399E-03     14.2808E-03
              81             900     14.3399E-03     14.2808E-03
              83             901     14.3917E-03     14.5037E-03
             132             901     14.3917E-03     14.5037E-03
             133             901     14.3917E-03     14.5037E-03
              82             901     14.3917E-03     14.5037E-03
             134             902     14.8392E-03     14.6849E-03
              83             902     14.8392E-03     14.6849E-03
             133             902     14.8392E-03     14.6849E-03
              84             902     14.8392E-03     14.6849E-03
              84             903     14.8761E-03     14.6376E-03
             134             903     14.8761E-03     14.6376E-03
              85             903     14.8761E-03     14.6376E-03
             135             903     14.8761E-03     14.6376E-03
             135             904     13.7771E-03     13.9002E-03
             136             904     13.7771E-03     13.9002E-03
              85             904     13.7771E-03     13.9002E-03
              86             904     13.7771E-03     13.9002E-03
              86             905     13.2205E-03     13.1908E-03
             137             905     13.2205E-03     13.1908E-03
             136             905     13.2205E-03     13.1908E-03
              87             905     13.2205E-03     13.1908E-03
             138             906     13.5818E-03     13.5540E-03
              88             906     13.5818E-03     13.5540E-03
             137             906     13.5818E-03     13.5540E-03
              87             906     13.5818E-03     13.5540E-03
              89             907     14.0010E-03     14.1028E-03
             139             907     14.0010E-03     14.1028E-03
              88             907     14.0010E-03     14.1028E-03
             138             907     14.0010E-03     14.1028E-03
             139             908     14.5146E-03     14.5972E-03
             140             908     14.5146E-03     14.5972E-03
              90             908     14.5146E-03     14.5972E-03
              89             908     14.5146E-03     14.5972E-03
             141             909     15.0252E-03     15.1560E-03
              90             909     15.0252E-03     15.1560E-03
             140             909     15.0252E-03     15.1560E-03
              91             909     15.0252E-03     15.1560E-03
              91             910     15.7076E-03     15.6586E-03
             142             910     15.7076E-03     15.6586E-03
             141             910     15.7076E-03     15.6586E-03
              92             910     15.7076E-03     15.6586E-03
              93             911     16.3142E-03     16.0637E-03
             143             911     16.3142E-03     16.0637E-03
              92             911     16.3142E-03     16.0637E-03
             142             911     16.3142E-03     16.0637E-03
             144             912     16.5701E-03     17.0577E-03
              93             912     16.5701E-03     17.0577E-03
              94             912     16.5701E-03     17.0577E-03
             143             912     16.5701E-03     17.0577E-03
             144             913     18.0576E-03     17.1997E-03
             145             913     18.0576E-03     17.1997E-03
              94             913     18.0576E-03     17.1997E-03
              95             913     18.0576E-03     17.1997E-03
              96             914     17.8480E-03     17.1346E-03
              95             914     17.8480E-03     17.1346E-03
             145             914     17.8480E-03     17.1346E-03
             146             914     17.8480E-03     17.1346E-03
             146             915     15.5851E-03     16.8994E-03
             147             915     15.5851E-03     16.8994E-03
              97             915     15.5851E-03     16.8994E-03
              96             915     15.5851E-03     16.8994E-03
              98             916     16.1089E-03     15.8387E-03
             148             916     16.1089E-03     15.8387E-03
             147             916     16.1089E-03     15.8387E-03
              97             916     16.1089E-03     15.8387E-03
              98             917     17.1128E-03     16.6477E-03
              99             917     17.1128E-03     16.6477E-03
             149             917     17.1128E-03     16.6477E-03
             148             917     17.1128E-03     16.6477E-03
              99             918     17.3897E-03     17.8377E-03
             150             918     17.3897E-03     17.8377E-03
             100             918     17.3897E-03     17.8377E-03
             149             918     17.3897E-03     17.8377E-03
             101             919     18.3080E-03     18.2801E-03
             100             919     18.3080E-03     18.2801E-03
             151             919     18.3080E-03     18.2801E-03
             150             919     18.3080E-03     18.2801E-03
             151             920     18.9755E-03     19.0611E-03
             152             920     18.9755E-03     19.0611E-03
             102             920     18.9755E-03     19.0611E-03
             101             920     18.9755E-03     19.0611E-03
             153             921     19.7861E-03     19.6749E-03
             102             921     19.7861E-03     19.6749E-03
             103             921     19.7861E-03     19.6749E-03
             152             921     19.7861E-03     19.6749E-03
             153             922     20.4592E-03     20.0711E-03
             154             922     20.4592E-03     20.0711E-03
             103             922     20.4592E-03     20.0711E-03
             104             922     20.4592E-03     20.0711E-03
             105             923     20.4859E-03     21.3926E-03
             155             923     20.4859E-03     21.3926E-03
             104             923     20.4859E-03     21.3926E-03
             154             923     20.4859E-03     21.3926E-03
             155             924     22.4532E-03     21.1298E-03
             106             924     22.4532E-03     21.1298E-03
             105             924     22.4532E-03     21.1298E-03
             156             924     22.4532E-03     21.1298E-03
             106             925     21.7594E-03     20.7456E-03
             157             925     21.7594E-03     20.7456E-03
             107             925     21.7594E-03     20.7456E-03
             156             925     21.7594E-03     20.7456E-03
             107             926     18.5646E-03     21.0884E-03
             108             926     18.5646E-03     21.0884E-03
             157             926     18.5646E-03     21.0884E-03
             158             926     18.5646E-03     21.0884E-03
             159             927     20.4081E-03     19.8332E-03
             158             927     20.4081E-03     19.8332E-03
             108             927     20.4081E-03     19.8332E-03
             109             927     20.4081E-03     19.8332E-03
             110             928     21.9166E-03     20.9218E-03
             160             928     21.9166E-03     20.9218E-03
             109             928     21.9166E-03     20.9218E-03
             159             928     21.9166E-03     20.9218E-03
             111             929     21.6997E-03     22.5229E-03
             160             929     21.6997E-03     22.5229E-03
             161             929     21.6997E-03     22.5229E-03
             110             929     21.6997E-03     22.5229E-03
             162             930     22.8264E-03     22.6694E-03
             111             930     22.8264E-03     22.6694E-03
             161             930     22.8264E-03     22.6694E-03
             112             930     22.8264E-03     22.6694E-03
             163             931     23.4507E-03     23.4889E-03
             112             931     23.4507E-03     23.4889E-03
             162             931     23.4507E-03     23.4889E-03
             113             931     23.4507E-03     23.4889E-03
             114             932     24.1782E-03     24.0451E-03
             113             932     24.1782E-03     24.0451E-03
             163             932     24.1782E-03     24.0451E-03
             164             932     24.1782E-03     24.0451E-03
             114             933     24.7607E-03     24.2894E-03
             115             933     24.7607E-03     24.2894E-03
             165             933     24.7607E-03     24.2894E-03
             164             933     24.7607E-03     24.2894E-03
             116             934     24.4858E-03     25.7169E-03
             165             934     24.4858E-03     25.7169E-03
             115             934     24.4858E-03     25.7169E-03
             166             934     24.4858E-03     25.7169E-03
             167             935     26.6867E-03     25.0000E-03
             116             935     26.6867E-03     25.0000E-03
             166             935     26.6867E-03     25.0000E-03
             117             935     26.6867E-03     25.0000E-03
             167             936     25.5160E-03     24.2854E-03
             118             936     25.5160E-03     24.2854E-03
             117             936     25.5160E-03     24.2854E-03
             168             936     25.5160E-03     24.2854E-03
             118             937     21.5794E-03     25.0627E-03
             119             937     21.5794E-03     25.0627E-03
             169             937     21.5794E-03     25.0627E-03
             168             937     21.5794E-03     25.0627E-03
             170             938     24.4915E-03     23.6788E-03
             120             938     24.4915E-03     23.6788E-03
             119             938     24.4915E-03     23.6788E-03
             169             938     24.4915E-03     23.6788E-03
             121             939     26.3951E-03     24.9925E-03
             170             939     26.3951E-03     24.9925E-03
             171             939     26.3951E-03     24.9925E-03
             120             939     26.3951E-03     24.9925E-03
             171             940     25.7001E-03     26.8232E-03
             172             940     25.7001E-03     26.8232E-03
             122             940     25.7001E-03     26.8232E-03
             121             940     25.7001E-03     26.8232E-03
             123             941     26.7948E-03     26.8145E-03
             172             941     26.7948E-03     26.8145E-03
             173             941     26.7948E-03     26.8145E-03
             122             941     26.7948E-03     26.8145E-03
             124             942     27.5954E-03     27.4282E-03
             173             942     27.5954E-03     27.4282E-03
             174             942     27.5954E-03     27.4282E-03
             123             942     27.5954E-03     27.4282E-03
             174             943     27.8556E-03     27.6486E-03
             125             943     27.8556E-03     27.6486E-03
             175             943     27.8556E-03     27.6486E-03
             124             943     27.8556E-03     27.6486E-03
             125             944     27.4013E-03     28.9122E-03
             176             944     27.4013E-03     28.9122E-03
             126             944     27.4013E-03     28.9122E-03
             175             944     27.4013E-03     28.9122E-03
             176             945     29.6179E-03     27.7995E-03
             126             945     29.6179E-03     27.7995E-03
             127             945     29.6179E-03     27.7995E-03
             177             945     29.6179E-03     27.7995E-03
             127             946     28.0464E-03     26.7461E-03
             128             946     28.0464E-03     26.7461E-03
             177             946     28.0464E-03     26.7461E-03
             178             946     28.0464E-03     26.7461E-03
             129             947     12.2569E-03     12.2458E-03
             180             947     12.2569E-03     12.2458E-03
             130             947     12.2569E-03     12.2458E-03
             179             947     12.2569E-03     12.2458E-03
             131             948     12.3067E-03     12.3002E-03
             181             948     12.3067E-03     12.3002E-03
             130             948     12.3067E-03     12.3002E-03
             180             948     12.3067E-03     12.3002E-03
             132             949     12.3920E-03     12.4886E-03
             182             949     12.3920E-03     12.4886E-03
             131             949     12.3920E-03     12.4886E-03
             181             949     12.3920E-03     12.4886E-03
             182             950     12.6515E-03     12.9416E-03
             133             950     12.6515E-03     12.9416E-03
             183             950     12.6515E-03     12.9416E-03
             132             950     12.6515E-03     12.9416E-03
             133             951     13.6768E-03     13.1623E-03
             183             951     13.6768E-03     13.1623E-03
             184             951     13.6768E-03     13.1623E-03
             134             951     13.6768E-03     13.1623E-03
             184             952     13.8939E-03     13.5873E-03
             185             952     13.8939E-03     13.5873E-03
             135             952     13.8939E-03     13.5873E-03
             134             952     13.8939E-03     13.5873E-03
             136             953     12.6662E-03     13.3052E-03
             135             953     12.6662E-03     13.3052E-03
             186             953     12.6662E-03     13.3052E-03
             185             953     12.6662E-03     13.3052E-03
             136             954     12.5765E-03     12.7238E-03
             137             954     12.5765E-03     12.7238E-03
             187             954     12.5765E-03     12.7238E-03
             186             954     12.5765E-03     12.7238E-03
             138             955     13.2753E-03     13.5833E-03
             188             955     13.2753E-03     13.5833E-03
             187             955     13.2753E-03     13.5833E-03
             137             955     13.2753E-03     13.5833E-03
             189             956     14.0198E-03     14.4917E-03
             139             956     14.0198E-03     14.4917E-03
             138             956     14.0198E-03     14.4917E-03
             188             956     14.0198E-03     14.4917E-03
             140             957     15.0027E-03     15.1513E-03
             190             957     15.0027E-03     15.1513E-03
             139             957     15.0027E-03     15.1513E-03
             189             957     15.0027E-03     15.1513E-03
             140             958     15.9158E-03     16.0500E-03
             190             958     15.9158E-03     16.0500E-03
             141             958     15.9158E-03     16.0500E-03
             191             958     15.9158E-03     16.0500E-03
             142             959     17.0841E-03     16.9136E-03
             141             959     17.0841E-03     16.9136E-03
             192             959     17.0841E-03     16.9136E-03
             191             959     17.0841E-03     16.9136E-03
             143             960     18.1890E-03     17.7276E-03
             193             960     18.1890E-03     17.7276E-03
             192             960     18.1890E-03     17.7276E-03
             142             960     18.1890E-03     17.7276E-03
             144             961     18.8785E-03     19.5941E-03
             143             961     18.8785E-03     19.5941E-03
             194             961     18.8785E-03     19.5941E-03
             193             961     18.8785E-03     19.5941E-03
             145             962     21.7670E-03     19.9681E-03
             194             962     21.7670E-03     19.9681E-03
             195             962     21.7670E-03     19.9681E-03
             144             962     21.7670E-03     19.9681E-03
             146             963     21.5701E-03     20.7763E-03
             196             963     21.5701E-03     20.7763E-03
             145             963     21.5701E-03     20.7763E-03
             195             963     21.5701E-03     20.7763E-03
             196             964     18.3844E-03     21.5551E-03
             146             964     18.3844E-03     21.5551E-03
             147             964     18.3844E-03     21.5551E-03
             197             964     18.3844E-03     21.5551E-03
             197             965     20.3266E-03     20.0708E-03
             198             965     20.3266E-03     20.0708E-03
             148             965     20.3266E-03     20.0708E-03
             147             965     20.3266E-03     20.0708E-03
             199             966     21.8654E-03     21.2996E-03
             148             966     21.8654E-03     21.2996E-03
             198             966     21.8654E-03     21.2996E-03
             149             966     21.8654E-03     21.2996E-03
             199             967     21.7335E-03     22.7689E-03
             149             967     21.7335E-03     22.7689E-03
             150             967     21.7335E-03     22.7689E-03
             200             967     21.7335E-03     22.7689E-03
             150             968     23.0176E-03     22.9067E-03
             201             968     23.0176E-03     22.9067E-03
             151             968     23.0176E-03     22.9067E-03
             200             968     23.0176E-03     22.9067E-03
             201             969     23.8912E-03     23.9244E-03
             151             969     23.8912E-03     23.9244E-03
             202             969     23.8912E-03     23.9244E-03
             152             969     23.8912E-03     23.9244E-03
             202             970     25.0818E-03     24.8100E-03
             153             970     25.0818E-03     24.8100E-03
             152             970     25.0818E-03     24.8100E-03
             203             970     25.0818E-03     24.8100E-03
             203             971     26.2750E-03     25.5476E-03
             154             971     26.2750E-03     25.5476E-03
             153             971     26.2750E-03     25.5476E-03
             204             971     26.2750E-03     25.5476E-03
             155             972     26.7353E-03     27.9535E-03
             205             972     26.7353E-03     27.9535E-03
             204             972     26.7353E-03     27.9535E-03
             154             972     26.7353E-03     27.9535E-03
             156             973     30.4438E-03     27.8962E-03
             205             973     30.4438E-03     27.8962E-03
             206             973     30.4438E-03     27.8962E-03
             155             973     30.4438E-03     27.8962E-03
             207             974     29.5767E-03     28.4433E-03
             157             974     29.5767E-03     28.4433E-03
             156             974     29.5767E-03     28.4433E-03
             206             974     29.5767E-03     28.4433E-03
             208             975     24.9105E-03     30.1059E-03
             157             975     24.9105E-03     30.1059E-03
             158             975     24.9105E-03     30.1059E-03
             207             975     24.9105E-03     30.1059E-03
             209             976     28.6608E-03     28.0374E-03
             159             976     28.6608E-03     28.0374E-03
             158             976     28.6608E-03     28.0374E-03
             208             976     28.6608E-03     28.0374E-03
             209             977     30.7301E-03     29.2902E-03
             210             977     30.7301E-03     29.2902E-03
             160             977     30.7301E-03     29.2902E-03
             159             977     30.7301E-03     29.2902E-03
             160             978     29.5074E-03     31.0218E-03
             211             978     29.5074E-03     31.0218E-03
             161             978     29.5074E-03     31.0218E-03
             210             978     29.5074E-03     31.0218E-03
             211             979     30.8382E-03     30.4756E-03
             212             979     30.8382E-03     30.4756E-03
             161             979     30.8382E-03     30.4756E-03
             162             979     30.8382E-03     30.4756E-03
             163             980     31.4820E-03     31.4145E-03
             213             980     31.4820E-03     31.4145E-03
             212             980     31.4820E-03     31.4145E-03
             162             980     31.4820E-03     31.4145E-03
             163             981     32.4861E-03     32.1597E-03
             164             981     32.4861E-03     32.1597E-03
             213             981     32.4861E-03     32.1597E-03
             214             981     32.4861E-03     32.1597E-03
             164             982     33.5879E-03     32.6937E-03
             214             982     33.5879E-03     32.6937E-03
             165             982     33.5879E-03     32.6937E-03
             215             982     33.5879E-03     32.6937E-03
             166             983     33.7345E-03     35.3666E-03
             165             983     33.7345E-03     35.3666E-03
             215             983     33.7345E-03     35.3666E-03
             216             983     33.7345E-03     35.3666E-03
             216             984     37.9249E-03     34.8551E-03
             217             984     37.9249E-03     34.8551E-03
             166             984     37.9249E-03     34.8551E-03
             167             984     37.9249E-03     34.8551E-03
             167             985     36.4615E-03     35.0881E-03
             168             985     36.4615E-03     35.0881E-03
             217             985     36.4615E-03     35.0881E-03
             218             985     36.4615E-03     35.0881E-03
             168             986     30.5494E-03     37.2465E-03
             169             986     30.5494E-03     37.2465E-03
             219             986     30.5494E-03     37.2465E-03
             218             986     30.5494E-03     37.2465E-03
             220             987     35.5944E-03     34.6585E-03
             169             987     35.5944E-03     34.6585E-03
             170             987     35.5944E-03     34.6585E-03
             219             987     35.5944E-03     34.6585E-03
             171             988     38.1197E-03     35.8975E-03
             220             988     38.1197E-03     35.8975E-03
             221             988     38.1197E-03     35.8975E-03
             170             988     38.1197E-03     35.8975E-03
             172             989     36.0398E-03     37.7601E-03
             221             989     36.0398E-03     37.7601E-03
             171             989     36.0398E-03     37.7601E-03
             222             989     36.0398E-03     37.7601E-03
             222             990     37.2523E-03     36.9324E-03
             173             990     37.2523E-03     36.9324E-03
             223             990     37.2523E-03     36.9324E-03
             172             990     37.2523E-03     36.9324E-03
             174             991     38.2152E-03     37.5441E-03
             224             991     38.2152E-03     37.5441E-03
             223             991     38.2152E-03     37.5441E-03
             173             991     38.2152E-03     37.5441E-03
             175             992     38.7119E-03     37.9864E-03
             225             992     38.7119E-03     37.9864E-03
             174             992     38.7119E-03     37.9864E-03
             224             992     38.7119E-03     37.9864E-03
             175             993     38.6199E-03     40.4372E-03
             176             993     38.6199E-03     40.4372E-03
             226             993     38.6199E-03     40.4372E-03
             225             993     38.6199E-03     40.4372E-03
             176             994     42.9110E-03     39.5218E-03
             226             994     42.9110E-03     39.5218E-03
             227             994     42.9110E-03     39.5218E-03
             177             994     42.9110E-03     39.5218E-03
             177             995     40.9182E-03     39.3952E-03
             227             995     40.9182E-03     39.3952E-03
             178             995     40.9182E-03     39.3952E-03
             228             995     40.9182E-03     39.3952E-03
             180             996     9.35866E-03     9.65675E-03
             179             996     9.35866E-03     9.65675E-03
             229             996     9.35866E-03     9.65675E-03
             230             996     9.35866E-03     9.65675E-03
             181             997     9.57553E-03     9.71861E-03
             230             997     9.57553E-03     9.71861E-03
             180             997     9.57553E-03     9.71861E-03
             231             997     9.57553E-03     9.71861E-03
             182             998     9.93269E-03     9.97528E-03
             231             998     9.93269E-03     9.97528E-03
             232             998     9.93269E-03     9.97528E-03
             181             998     9.93269E-03     9.97528E-03
             182             999     10.4218E-03     10.8819E-03
             232             999     10.4218E-03     10.8819E-03
             233             999     10.4218E-03     10.8819E-03
             183             999     10.4218E-03     10.8819E-03
             184            1000     12.1718E-03     11.2536E-03
             233            1000     12.1718E-03     11.2536E-03
             234            1000     12.1718E-03     11.2536E-03
             183            1000     12.1718E-03     11.2536E-03
             185            1001     12.5793E-03     12.3869E-03
             234            1001     12.5793E-03     12.3869E-03
             184            1001     12.5793E-03     12.3869E-03
             235            1001     12.5793E-03     12.3869E-03
             236            1002     11.4875E-03     13.2622E-03
             186            1002     11.4875E-03     13.2622E-03
             235            1002     11.4875E-03     13.2622E-03
             185            1002     11.4875E-03     13.2622E-03
             237            1003     12.4462E-03     12.7940E-03
             187            1003     12.4462E-03     12.7940E-03
             186            1003     12.4462E-03     12.7940E-03
             236            1003     12.4462E-03     12.7940E-03
             187            1004     13.4257E-03     13.7456E-03
             237            1004     13.4257E-03     13.7456E-03
             238            1004     13.4257E-03     13.7456E-03
             188            1004     13.4257E-03     13.7456E-03
             239            1005     14.1137E-03     14.7342E-03
             188            1005     14.1137E-03     14.7342E-03
             189            1005     14.1137E-03     14.7342E-03
             238            1005     14.1137E-03     14.7342E-03
             189            1006     15.4457E-03     15.4955E-03
             190            1006     15.4457E-03     15.4955E-03
             239            1006     15.4457E-03     15.4955E-03
             240            1006     15.4457E-03     15.4955E-03
             240            1007     16.6135E-03     16.9418E-03
             190            1007     16.6135E-03     16.9418E-03
             241            1007     16.6135E-03     16.9418E-03
             191            1007     16.6135E-03     16.9418E-03
             192            1008     18.2854E-03     18.3323E-03
             242            1008     18.2854E-03     18.3323E-03
             191            1008     18.2854E-03     18.3323E-03
             241            1008     18.2854E-03     18.3323E-03
             242            1009     19.8871E-03     19.6710E-03
             192            1009     19.8871E-03     19.6710E-03
             193            1009     19.8871E-03     19.6710E-03
             243            1009     19.8871E-03     19.6710E-03
             194            1010     20.9060E-03     22.5199E-03
             244            1010     20.9060E-03     22.5199E-03
             193            1010     20.9060E-03     22.5199E-03
             243            1010     20.9060E-03     22.5199E-03
             195            1011     25.2532E-03     22.8678E-03
             244            1011     25.2532E-03     22.8678E-03
             194            1011     25.2532E-03     22.8678E-03
             245            1011     25.2532E-03     22.8678E-03
             195            1012     25.2781E-03     24.7225E-03
             196            1012     25.2781E-03     24.7225E-03
             246            1012     25.2781E-03     24.7225E-03
             245            1012     25.2781E-03     24.7225E-03
             246            1013     21.4729E-03     27.2866E-03
             197            1013     21.4729E-03     27.2866E-03
             247            1013     21.4729E-03     27.2866E-03
             196            1013     21.4729E-03     27.2866E-03
             198            1014     24.9481E-03     24.9248E-03
             197            1014     24.9481E-03     24.9248E-03
             248            1014     24.9481E-03     24.9248E-03
             247            1014     24.9481E-03     24.9248E-03
             249            1015     26.5796E-03     25.5899E-03
             198            1015     26.5796E-03     25.5899E-03
             199            1015     26.5796E-03     25.5899E-03
             248            1015     26.5796E-03     25.5899E-03
             199            1016     25.4786E-03     27.0541E-03
             250            1016     25.4786E-03     27.0541E-03
             249            1016     25.4786E-03     27.0541E-03
             200            1016     25.4786E-03     27.0541E-03
             200            1017     26.9334E-03     26.8980E-03
             251            1017     26.9334E-03     26.8980E-03
             201            1017     26.9334E-03     26.8980E-03
             250            1017     26.9334E-03     26.8980E-03
             252            1018     27.8391E-03     28.3822E-03
             202            1018     27.8391E-03     28.3822E-03
             251            1018     27.8391E-03     28.3822E-03
             201            1018     27.8391E-03     28.3822E-03
             253            1019     29.3709E-03     29.6523E-03
             202            1019     29.3709E-03     29.6523E-03
             203            1019     29.3709E-03     29.6523E-03
             252            1019     29.3709E-03     29.6523E-03
             204            1020     31.0124E-03     30.7179E-03
             203            1020     31.0124E-03     30.7179E-03
             254            1020     31.0124E-03     30.7179E-03
             253            1020     31.0124E-03     30.7179E-03
             254            1021     31.7400E-03     34.1578E-03
             255            1021     31.7400E-03     34.1578E-03
             205            1021     31.7400E-03     34.1578E-03
             204            1021     31.7400E-03     34.1578E-03
             205            1022     37.3412E-03     34.0103E-03
             255            1022     37.3412E-03     34.0103E-03
             256            1022     37.3412E-03     34.0103E-03
             206            1022     37.3412E-03     34.0103E-03
             257            1023     36.7510E-03     35.9464E-03
             256            1023     36.7510E-03     35.9464E-03
             207            1023     36.7510E-03     35.9464E-03
             206            1023     36.7510E-03     35.9464E-03
             208            1024     30.9784E-03     39.9100E-03
             257            1024     30.9784E-03     39.9100E-03
             207            1024     30.9784E-03     39.9100E-03
             258            1024     30.9784E-03     39.9100E-03
             208            1025     36.5717E-03     36.2741E-03
             209            1025     36.5717E-03     36.2741E-03
             258            1025     36.5717E-03     36.2741E-03
             259            1025     36.5717E-03     36.2741E-03
             210            1026     38.5788E-03     36.4691E-03
             259            1026     38.5788E-03     36.4691E-03
             209            1026     38.5788E-03     36.4691E-03
             260            1026     38.5788E-03     36.4691E-03
             261            1027     35.7651E-03     38.1595E-03
             260            1027     35.7651E-03     38.1595E-03
             210            1027     35.7651E-03     38.1595E-03
             211            1027     35.7651E-03     38.1595E-03
             262            1028     37.1574E-03     37.0330E-03
             261            1028     37.1574E-03     37.0330E-03
             212            1028     37.1574E-03     37.0330E-03
             211            1028     37.1574E-03     37.0330E-03
             263            1029     37.6903E-03     38.3775E-03
             212            1029     37.6903E-03     38.3775E-03
             213            1029     37.6903E-03     38.3775E-03
             262            1029     37.6903E-03     38.3775E-03
             263            1030     38.9410E-03     39.4116E-03
             214            1030     38.9410E-03     39.4116E-03
             213            1030     38.9410E-03     39.4116E-03
             264            1030     38.9410E-03     39.4116E-03
             215            1031     40.4882E-03     40.1404E-03
             214            1031     40.4882E-03     40.1404E-03
             265            1031     40.4882E-03     40.1404E-03
             264            1031     40.4882E-03     40.1404E-03
             215            1032     40.8774E-03     43.9360E-03
             266            1032     40.8774E-03     43.9360E-03
             265            1032     40.8774E-03     43.9360E-03
             216            1032     40.8774E-03     43.9360E-03
             216            1033     47.3429E-03     43.3304E-03
             267            1033     47.3429E-03     43.3304E-03
             266            1033     47.3429E-03     43.3304E-03
             217            1033     47.3429E-03     43.3304E-03
             217            1034     46.2085E-03     45.2408E-03
             218            1034     46.2085E-03     45.2408E-03
             267            1034     46.2085E-03     45.2408E-03
             268            1034     46.2085E-03     45.2408E-03
             218            1035     38.7353E-03     50.0233E-03
             219            1035     38.7353E-03     50.0233E-03
             269            1035     38.7353E-03     50.0233E-03
             268            1035     38.7353E-03     50.0233E-03
             219            1036     45.7618E-03     45.2325E-03
             220            1036     45.7618E-03     45.2325E-03
             270            1036     45.7618E-03     45.2325E-03
             269            1036     45.7618E-03     45.2325E-03
             220            1037     48.1530E-03     45.0457E-03
             221            1037     48.1530E-03     45.0457E-03
             271            1037     48.1530E-03     45.0457E-03
             270            1037     48.1530E-03     45.0457E-03
             272            1038     44.0344E-03     46.7916E-03
             271            1038     44.0344E-03     46.7916E-03
             222            1038     44.0344E-03     46.7916E-03
             221            1038     44.0344E-03     46.7916E-03
             222            1039     45.1474E-03     45.2945E-03
             223            1039     45.1474E-03     45.2945E-03
             273            1039     45.1474E-03     45.2945E-03
             272            1039     45.1474E-03     45.2945E-03
             223            1040     46.2130E-03     46.1832E-03
             273            1040     46.2130E-03     46.1832E-03
             274            1040     46.2130E-03     46.1832E-03
             224            1040     46.2130E-03     46.1832E-03
             274            1041     46.8749E-03     46.7497E-03
             225            1041     46.8749E-03     46.7497E-03
             224            1041     46.8749E-03     46.7497E-03
             275            1041     46.8749E-03     46.7497E-03
             276            1042     47.0768E-03     50.2886E-03
             226            1042     47.0768E-03     50.2886E-03
             225            1042     47.0768E-03     50.2886E-03
             275            1042     47.0768E-03     50.2886E-03
             227            1043     53.8851E-03     49.3744E-03
             277            1043     53.8851E-03     49.3744E-03
             226            1043     53.8851E-03     49.3744E-03
             276            1043     53.8851E-03     49.3744E-03
             227            1044     52.2349E-03     51.1460E-03
             228            1044     52.2349E-03     51.1460E-03
             278            1044     52.2349E-03     51.1460E-03
             277            1044     52.2349E-03     51.1460E-03
             230            1045     6.39600E-03     6.76589E-03
             229            1045     6.39600E-03     6.76589E-03
             280            1045     6.39600E-03     6.76589E-03
             279            1045     6.39600E-03     6.76589E-03
             281            1046     6.45799E-03     6.21817E-03
             230            1046     6.45799E-03     6.21817E-03
             280            1046     6.45799E-03     6.21817E-03
             231            1046     6.45799E-03     6.21817E-03
             282            1047     6.85941E-03     6.52760E-03
             232            1047     6.85941E-03     6.52760E-03
             231            1047     6.85941E-03     6.52760E-03
             281            1047     6.85941E-03     6.52760E-03
             282            1048     7.88641E-03     8.66294E-03
             232            1048     7.88641E-03     8.66294E-03
             233            1048     7.88641E-03     8.66294E-03
             283            1048     7.88641E-03     8.66294E-03
             283            1049     10.9915E-03     9.97013E-03
             284            1049     10.9915E-03     9.97013E-03
             233            1049     10.9915E-03     9.97013E-03
             234            1049     10.9915E-03     9.97013E-03
             284            1050     11.8231E-03     11.9626E-03
             234            1050     11.8231E-03     11.9626E-03
             235            1050     11.8231E-03     11.9626E-03
             285            1050     11.8231E-03     11.9626E-03
             285            1051     10.7782E-03     13.5824E-03
             286            1051     10.7782E-03     13.5824E-03
             235            1051     10.7782E-03     13.5824E-03
             236            1051     10.7782E-03     13.5824E-03
             286            1052     12.6049E-03     12.7245E-03
             236            1052     12.6049E-03     12.7245E-03
             287            1052     12.6049E-03     12.7245E-03
             237            1052     12.6049E-03     12.7245E-03
             288            1053     13.3519E-03     13.4540E-03
             287            1053     13.3519E-03     13.4540E-03
             238            1053     13.3519E-03     13.4540E-03
             237            1053     13.3519E-03     13.4540E-03
             239            1054     13.9291E-03     14.7050E-03
             238            1054     13.9291E-03     14.7050E-03
             288            1054     13.9291E-03     14.7050E-03
             289            1054     13.9291E-03     14.7050E-03
             290            1055     15.7433E-03     15.9982E-03
             239            1055     15.7433E-03     15.9982E-03
             240            1055     15.7433E-03     15.9982E-03
             289            1055     15.7433E-03     15.9982E-03
             291            1056     17.2681E-03     18.0968E-03
             290            1056     17.2681E-03     18.0968E-03
             241            1056     17.2681E-03     18.0968E-03
             240            1056     17.2681E-03     18.0968E-03
             242            1057     19.4423E-03     20.0843E-03
             291            1057     19.4423E-03     20.0843E-03
             292            1057     19.4423E-03     20.0843E-03
             241            1057     19.4423E-03     20.0843E-03
             242            1058     21.6548E-03     21.8545E-03
             292            1058     21.6548E-03     21.8545E-03
             243            1058     21.6548E-03     21.8545E-03
             293            1058     21.6548E-03     21.8545E-03
             243            1059     22.8361E-03     25.5337E-03
             244            1059     22.8361E-03     25.5337E-03
             293            1059     22.8361E-03     25.5337E-03
             294            1059     22.8361E-03     25.5337E-03
             294            1060     28.3326E-03     26.2348E-03
             295            1060     28.3326E-03     26.2348E-03
             244            1060     28.3326E-03     26.2348E-03
             245            1060     28.3326E-03     26.2348E-03
             245            1061     28.6331E-03     28.5606E-03
             295            1061     28.6331E-03     28.5606E-03
             246            1061     28.6331E-03     28.5606E-03
             296            1061     28.6331E-03     28.5606E-03
             247            1062     24.3441E-03     31.8532E-03
             296            1062     24.3441E-03     31.8532E-03
             246            1062     24.3441E-03     31.8532E-03
             297            1062     24.3441E-03     31.8532E-03
             248            1063     28.6145E-03     28.5838E-03
             297            1063     28.6145E-03     28.5838E-03
             247            1063     28.6145E-03     28.5838E-03
             298            1063     28.6145E-03     28.5838E-03
             298            1064     29.6676E-03     28.6938E-03
             248            1064     29.6676E-03     28.6938E-03
             249            1064     29.6676E-03     28.6938E-03
             299            1064     29.6676E-03     28.6938E-03
             249            1065     27.9659E-03     30.3632E-03
             299            1065     27.9659E-03     30.3632E-03
             250            1065     27.9659E-03     30.3632E-03
             300            1065     27.9659E-03     30.3632E-03
             301            1066     29.9910E-03     30.4962E-03
             300            1066     29.9910E-03     30.4962E-03
             250            1066     29.9910E-03     30.4962E-03
             251            1066     29.9910E-03     30.4962E-03
             301            1067     31.0505E-03     32.5478E-03
             302            1067     31.0505E-03     32.5478E-03
             251            1067     31.0505E-03     32.5478E-03
             252            1067     31.0505E-03     32.5478E-03
             253            1068     32.9183E-03     34.2497E-03
             302            1068     32.9183E-03     34.2497E-03
             252            1068     32.9183E-03     34.2497E-03
             303            1068     32.9183E-03     34.2497E-03
             253            1069     35.0745E-03     35.5204E-03
             254            1069     35.0745E-03     35.5204E-03
             304            1069     35.0745E-03     35.5204E-03
             303            1069     35.0745E-03     35.5204E-03
             305            1070     35.6627E-03     39.6691E-03
             255            1070     35.6627E-03     39.6691E-03
             304            1070     35.6627E-03     39.6691E-03
             254            1070     35.6627E-03     39.6691E-03
             256            1071     42.5876E-03     39.7485E-03
             255            1071     42.5876E-03     39.7485E-03
             306            1071     42.5876E-03     39.7485E-03
             305            1071     42.5876E-03     39.7485E-03
             257            1072     42.4960E-03     42.3239E-03
             256            1072     42.4960E-03     42.3239E-03
             307            1072     42.4960E-03     42.3239E-03
             306            1072     42.4960E-03     42.3239E-03
             258            1073     36.0358E-03     47.3516E-03
             257            1073     36.0358E-03     47.3516E-03
             308            1073     36.0358E-03     47.3516E-03
             307            1073     36.0358E-03     47.3516E-03
             259            1074     42.6035E-03     42.4836E-03
             309            1074     42.6035E-03     42.4836E-03
             308            1074     42.6035E-03     42.4836E-03
             258            1074     42.6035E-03     42.4836E-03
             260            1075     43.7996E-03     41.9062E-03
             310            1075     43.7996E-03     41.9062E-03
             259            1075     43.7996E-03     41.9062E-03
             309            1075     43.7996E-03     41.9062E-03
             310            1076     40.0162E-03     43.7571E-03
             261            1076     40.0162E-03     43.7571E-03
             311            1076     40.0162E-03     43.7571E-03
             260            1076     40.0162E-03     43.7571E-03
             312            1077     42.0712E-03     42.7572E-03
             262            1077     42.0712E-03     42.7572E-03
             311            1077     42.0712E-03     42.7572E-03
             261            1077     42.0712E-03     42.7572E-03
             263            1078     42.6264E-03     44.6422E-03
             312            1078     42.6264E-03     44.6422E-03
             313            1078     42.6264E-03     44.6422E-03
             262            1078     42.6264E-03     44.6422E-03
             314            1079     44.1247E-03     46.0075E-03
             264            1079     44.1247E-03     46.0075E-03
             313            1079     44.1247E-03     46.0075E-03
             263            1079     44.1247E-03     46.0075E-03
             314            1080     46.1496E-03     46.7879E-03
             315            1080     46.1496E-03     46.7879E-03
             265            1080     46.1496E-03     46.7879E-03
             264            1080     46.1496E-03     46.7879E-03
             316            1081     46.1891E-03     51.2252E-03
             265            1081     46.1891E-03     51.2252E-03
             315            1081     46.1891E-03     51.2252E-03
             266            1081     46.1891E-03     51.2252E-03
             316            1082     54.1665E-03     50.7713E-03
             317            1082     54.1665E-03     50.7713E-03
             267            1082     54.1665E-03     50.7713E-03
             266            1082     54.1665E-03     50.7713E-03
             267            1083     53.7312E-03     53.4936E-03
             318            1083     53.7312E-03     53.4936E-03
             268            1083     53.7312E-03     53.4936E-03
             317            1083     53.7312E-03     53.4936E-03
             269            1084     45.3881E-03     59.6738E-03
             318            1084     45.3881E-03     59.6738E-03
             268            1084     45.3881E-03     59.6738E-03
             319            1084     45.3881E-03     59.6738E-03
             319            1085     53.5667E-03     53.3729E-03
             269            1085     53.5667E-03     53.3729E-03
             320            1085     53.5667E-03     53.3729E-03
             270            1085     53.5667E-03     53.3729E-03
             270            1086     54.8856E-03     52.2787E-03
             271            1086     54.8856E-03     52.2787E-03
             321            1086     54.8856E-03     52.2787E-03
             320            1086     54.8856E-03     52.2787E-03
             271            1087     49.5893E-03     54.0851E-03
             272            1087     49.5893E-03     54.0851E-03
             322            1087     49.5893E-03     54.0851E-03
             321            1087     49.5893E-03     54.0851E-03
             272            1088     51.2320E-03     52.5446E-03
             273            1088     51.2320E-03     52.5446E-03
             323            1088     51.2320E-03     52.5446E-03
             322            1088     51.2320E-03     52.5446E-03
             274            1089     52.2606E-03     54.0504E-03
             273            1089     52.2606E-03     54.0504E-03
             323            1089     52.2606E-03     54.0504E-03
             324            1089     52.2606E-03     54.0504E-03
             275            1090     53.3545E-03     54.4899E-03
             324            1090     53.3545E-03     54.4899E-03
             274            1090     53.3545E-03     54.4899E-03
             325            1090     53.3545E-03     54.4899E-03
             275            1091     53.2222E-03     58.6636E-03
             276            1091     53.2222E-03     58.6636E-03
             325            1091     53.2222E-03     58.6636E-03
             326            1091     53.2222E-03     58.6636E-03
             277            1092     61.6312E-03     57.9179E-03
             276            1092     61.6312E-03     57.9179E-03
             326            1092     61.6312E-03     57.9179E-03
             327            1092     61.6312E-03     57.9179E-03
             277            1093     60.9205E-03     60.6432E-03
             278            1093     60.9205E-03     60.6432E-03
             328            1093     60.9205E-03     60.6432E-03
             327            1093     60.9205E-03     60.6432E-03
             280            1094     4.79613E-03     5.23924E-03
             330            1094     4.79613E-03     5.23924E-03
             279            1094     4.79613E-03     5.23924E-03
             329            1094     4.79613E-03     5.23924E-03
             281            1095     3.97234E-03     3.32204E-03
             331            1095     3.97234E-03     3.32204E-03
             280            1095     3.97234E-03     3.32204E-03
             330            1095     3.97234E-03     3.32204E-03
             281            1096     4.63584E-03     4.20494E-03
             332            1096     4.63584E-03     4.20494E-03
             282            1096     4.63584E-03     4.20494E-03
             331            1096     4.63584E-03     4.20494E-03
             333            1097     6.69229E-03     7.59318E-03
             283            1097     6.69229E-03     7.59318E-03
             282            1097     6.69229E-03     7.59318E-03
             332            1097     6.69229E-03     7.59318E-03
             283            1098     11.0245E-03     10.1180E-03
             333            1098     11.0245E-03     10.1180E-03
             284            1098     11.0245E-03     10.1180E-03
             334            1098     11.0245E-03     10.1180E-03
             285            1099     13.4202E-03     13.5588E-03
             334            1099     13.4202E-03     13.5588E-03
             335            1099     13.4202E-03     13.5588E-03
             284            1099     13.4202E-03     13.5588E-03
             285            1100     11.2936E-03     13.5275E-03
             335            1100     11.2936E-03     13.5275E-03
             286            1100     11.2936E-03     13.5275E-03
             336            1100     11.2936E-03     13.5275E-03
             287            1101     11.2695E-03     10.6711E-03
             286            1101     11.2695E-03     10.6711E-03
             336            1101     11.2695E-03     10.6711E-03
             337            1101     11.2695E-03     10.6711E-03
             287            1102     12.5453E-03     12.2825E-03
             288            1102     12.5453E-03     12.2825E-03
             338            1102     12.5453E-03     12.2825E-03
             337            1102     12.5453E-03     12.2825E-03
             338            1103     14.0942E-03     14.4792E-03
             288            1103     14.0942E-03     14.4792E-03
             289            1103     14.0942E-03     14.4792E-03
             339            1103     14.0942E-03     14.4792E-03
             289            1104     16.4554E-03     16.6007E-03
             340            1104     16.4554E-03     16.6007E-03
             290            1104     16.4554E-03     16.6007E-03
             339            1104     16.4554E-03     16.6007E-03
             291            1105     18.6079E-03     19.0526E-03
             340            1105     18.6079E-03     19.0526E-03
             290            1105     18.6079E-03     19.0526E-03
             341            1105     18.6079E-03     19.0526E-03
             341            1106     20.9896E-03     21.4969E-03
             342            1106     20.9896E-03     21.4969E-03
             291            1106     20.9896E-03     21.4969E-03
             292            1106     20.9896E-03     21.4969E-03
             293            1107     23.6567E-03     23.5182E-03
             342            1107     23.6567E-03     23.5182E-03
             292            1107     23.6567E-03     23.5182E-03
             343            1107     23.6567E-03     23.5182E-03
             344            1108     25.1937E-03     27.2988E-03
             294            1108     25.1937E-03     27.2988E-03
             293            1108     25.1937E-03     27.2988E-03
             343            1108     25.1937E-03     27.2988E-03
             294            1109     30.6144E-03     28.8975E-03
             344            1109     30.6144E-03     28.8975E-03
             295            1109     30.6144E-03     28.8975E-03
             345            1109     30.6144E-03     28.8975E-03
             346            1110     32.4382E-03     32.0826E-03
             295            1110     32.4382E-03     32.0826E-03
             345            1110     32.4382E-03     32.0826E-03
             296            1110     32.4382E-03     32.0826E-03
             297            1111     27.8325E-03     33.4498E-03
             346            1111     27.8325E-03     33.4498E-03
             347            1111     27.8325E-03     33.4498E-03
             296            1111     27.8325E-03     33.4498E-03
             298            1112     29.6701E-03     28.6783E-03
             297            1112     29.6701E-03     28.6783E-03
             347            1112     29.6701E-03     28.6783E-03
             348            1112     29.6701E-03     28.6783E-03
             298            1113     30.7237E-03     29.5746E-03
             348            1113     30.7237E-03     29.5746E-03
             349            1113     30.7237E-03     29.5746E-03
             299            1113     30.7237E-03     29.5746E-03
             350            1114     30.2882E-03     31.8732E-03
             300            1114     30.2882E-03     31.8732E-03
             349            1114     30.2882E-03     31.8732E-03
             299            1114     30.2882E-03     31.8732E-03
             350            1115     32.7519E-03     32.8911E-03
             351            1115     32.7519E-03     32.8911E-03
             300            1115     32.7519E-03     32.8911E-03
             301            1115     32.7519E-03     32.8911E-03
             302            1116     34.3359E-03     35.1809E-03
             351            1116     34.3359E-03     35.1809E-03
             301            1116     34.3359E-03     35.1809E-03
             352            1116     34.3359E-03     35.1809E-03
             353            1117     36.3247E-03     37.2226E-03
             302            1117     36.3247E-03     37.2226E-03
             352            1117     36.3247E-03     37.2226E-03
             303            1117     36.3247E-03     37.2226E-03
             304            1118     38.7726E-03     38.6752E-03
             303            1118     38.7726E-03     38.6752E-03
             354            1118     38.7726E-03     38.6752E-03
             353            1118     38.7726E-03     38.6752E-03
             305            1119     39.5864E-03     42.5983E-03
             304            1119     39.5864E-03     42.5983E-03
             354            1119     39.5864E-03     42.5983E-03
             355            1119     39.5864E-03     42.5983E-03
             355            1120     45.8810E-03     43.5032E-03
             305            1120     45.8810E-03     43.5032E-03
             356            1120     45.8810E-03     43.5032E-03
             306            1120     45.8810E-03     43.5032E-03
             306            1121     47.4653E-03     46.7230E-03
             356            1121     47.4653E-03     46.7230E-03
             307            1121     47.4653E-03     46.7230E-03
             357            1121     47.4653E-03     46.7230E-03
             307            1122     41.5169E-03     49.9353E-03
             357            1122     41.5169E-03     49.9353E-03
             358            1122     41.5169E-03     49.9353E-03
             308            1122     41.5169E-03     49.9353E-03
             359            1123     45.3760E-03     44.0745E-03
             309            1123     45.3760E-03     44.0745E-03
             308            1123     45.3760E-03     44.0745E-03
             358            1123     45.3760E-03     44.0745E-03
             360            1124     46.0877E-03     44.1737E-03
             359            1124     46.0877E-03     44.1737E-03
             310            1124     46.0877E-03     44.1737E-03
             309            1124     46.0877E-03     44.1737E-03
             360            1125     43.8485E-03     46.4221E-03
             311            1125     43.8485E-03     46.4221E-03
             310            1125     43.8485E-03     46.4221E-03
             361            1125     43.8485E-03     46.4221E-03
             361            1126     46.2975E-03     46.4177E-03
             312            1126     46.2975E-03     46.4177E-03
             362            1126     46.2975E-03     46.4177E-03
             311            1126     46.2975E-03     46.4177E-03
             362            1127     47.3210E-03     48.4894E-03
             312            1127     47.3210E-03     48.4894E-03
             313            1127     47.3210E-03     48.4894E-03
             363            1127     47.3210E-03     48.4894E-03
             363            1128     48.9059E-03     50.1180E-03
             364            1128     48.9059E-03     50.1180E-03
             313            1128     48.9059E-03     50.1180E-03
             314            1128     48.9059E-03     50.1180E-03
             364            1129     51.0951E-03     51.0340E-03
             365            1129     51.0951E-03     51.0340E-03
             314            1129     51.0951E-03     51.0340E-03
             315            1129     51.0951E-03     51.0340E-03
             316            1130     51.2570E-03     54.9804E-03
             315            1130     51.2570E-03     54.9804E-03
             366            1130     51.2570E-03     54.9804E-03
             365            1130     51.2570E-03     54.9804E-03
             316            1131     58.1590E-03     55.2618E-03
             317            1131     58.1590E-03     55.2618E-03
             367            1131     58.1590E-03     55.2618E-03
             366            1131     58.1590E-03     55.2618E-03
             317            1132     59.5030E-03     58.4410E-03
             318            1132     59.5030E-03     58.4410E-03
             367            1132     59.5030E-03     58.4410E-03
             368            1132     59.5030E-03     58.4410E-03
             318            1133     52.4120E-03     63.0563E-03
             369            1133     52.4120E-03     63.0563E-03
             319            1133     52.4120E-03     63.0563E-03
             368            1133     52.4120E-03     63.0563E-03
             320            1134     57.8005E-03     56.3043E-03
             319            1134     57.8005E-03     56.3043E-03
             369            1134     57.8005E-03     56.3043E-03
             370            1134     57.8005E-03     56.3043E-03
             320            1135     58.2191E-03     55.7208E-03
             321            1135     58.2191E-03     55.7208E-03
             370            1135     58.2191E-03     55.7208E-03
             371            1135     58.2191E-03     55.7208E-03
             322            1136     54.5532E-03     57.8202E-03
             371            1136     54.5532E-03     57.8202E-03
             372            1136     54.5532E-03     57.8202E-03
             321            1136     54.5532E-03     57.8202E-03
             322            1137     56.7667E-03     57.0963E-03
             373            1137     56.7667E-03     57.0963E-03
             323            1137     56.7667E-03     57.0963E-03
             372            1137     56.7667E-03     57.0963E-03
             323            1138     57.6111E-03     59.0196E-03
             373            1138     57.6111E-03     59.0196E-03
             374            1138     57.6111E-03     59.0196E-03
             324            1138     57.6111E-03     59.0196E-03
             325            1139     59.2479E-03     59.4059E-03
             324            1139     59.2479E-03     59.4059E-03
             375            1139     59.2479E-03     59.4059E-03
             374            1139     59.2479E-03     59.4059E-03
             375            1140     59.0111E-03     63.1035E-03
             326            1140     59.0111E-03     63.1035E-03
             376            1140     59.0111E-03     63.1035E-03
             325            1140     59.0111E-03     63.1035E-03
             326            1141     66.1205E-03     62.9178E-03
             377            1141     66.1205E-03     62.9178E-03
             376            1141     66.1205E-03     62.9178E-03
             327            1141     66.1205E-03     62.9178E-03
             378            1142     67.2226E-03     65.9711E-03
             327            1142     67.2226E-03     65.9711E-03
             377            1142     67.2226E-03     65.9711E-03
             328            1142     67.2226E-03     65.9711E-03
             379            1143     56.8793E-03     61.0251E-03
             385            1143     56.8793E-03     61.0251E-03
             380            1143     56.8793E-03     61.0251E-03
             386            1143     56.8793E-03     61.0251E-03
             380            1144     67.5414E-03     70.2725E-03
             387            1144     67.5414E-03     70.2725E-03
             381            1144     67.5414E-03     70.2725E-03
             386            1144     67.5414E-03     70.2725E-03
             388            1145     71.4692E-03     74.8486E-03
             381            1145     71.4692E-03     74.8486E-03
             382            1145     71.4692E-03     74.8486E-03
             387            1145     71.4692E-03     74.8486E-03
             383            1146     81.0319E-03     77.3614E-03
             388            1146     81.0319E-03     77.3614E-03
             382            1146     81.0319E-03     77.3614E-03
             389            1146     81.0319E-03     77.3614E-03
             390            1147     82.2054E-03     84.3175E-03
             383            1147     82.2054E-03     84.3175E-03
             384            1147     82.2054E-03     84.3175E-03
             389            1147     82.2054E-03     84.3175E-03
             386            1148     47.1338E-03     47.0588E-03
             385            1148     47.1338E-03     47.0588E-03
             391            1148     47.1338E-03     47.0588E-03
             392            1148     47.1338E-03     47.0588E-03
             387            1149     56.6343E-03     57.3994E-03
             393            1149     56.6343E-03     57.3994E-03
             386            1149     56.6343E-03     57.3994E-03
             392            1149     56.6343E-03     57.3994E-03
             394            1150     61.8997E-03     66.8323E-03
             388            1150     61.8997E-03     66.8323E-03
             393            1150     61.8997E-03     66.8323E-03
             387            1150     61.8997E-03     66.8323E-03
             389            1151     75.9804E-03     70.6561E-03
             395            1151     75.9804E-03     70.6561E-03
             394            1151     75.9804E-03     70.6561E-03
             388            1151     75.9804E-03     70.6561E-03
             390            1152     76.9201E-03     79.1971E-03
             389            1152     76.9201E-03     79.1971E-03
             395            1152     76.9201E-03     79.1971E-03
             396            1152     76.9201E-03     79.1971E-03
             397            1153     46.0817E-03     45.3317E-03
             391            1153     46.0817E-03     45.3317E-03
             392            1153     46.0817E-03     45.3317E-03
             398            1153     46.0817E-03     45.3317E-03
             393            1154     55.2263E-03     52.7957E-03
             399            1154     55.2263E-03     52.7957E-03
             392            1154     55.2263E-03     52.7957E-03
             398            1154     55.2263E-03     52.7957E-03
             394            1155     61.8142E-03     66.2418E-03
             393            1155     61.8142E-03     66.2418E-03
             400            1155     61.8142E-03     66.2418E-03
             399            1155     61.8142E-03     66.2418E-03
             401            1156     76.5297E-03     70.0583E-03
             400            1156     76.5297E-03     70.0583E-03
             395            1156     76.5297E-03     70.0583E-03
             394            1156     76.5297E-03     70.0583E-03
             401            1157     76.9837E-03     77.9554E-03
             402            1157     76.9837E-03     77.9554E-03
             396            1157     76.9837E-03     77.9554E-03
             395            1157     76.9837E-03     77.9554E-03
             398            1158     51.1748E-03     52.8576E-03
             404            1158     51.1748E-03     52.8576E-03
             403            1158     51.1748E-03     52.8576E-03
             397            1158     51.1748E-03     52.8576E-03
             404            1159     60.6893E-03     57.2583E-03
             398            1159     60.6893E-03     57.2583E-03
             405            1159     60.6893E-03     57.2583E-03
             399            1159     60.6893E-03     57.2583E-03
             399            1160     67.9391E-03     69.6054E-03
             405            1160     67.9391E-03     69.6054E-03
             400            1160     67.9391E-03     69.6054E-03
             406            1160     67.9391E-03     69.6054E-03
             406            1161     80.4227E-03     72.4406E-03
             407            1161     80.4227E-03     72.4406E-03
             400            1161     80.4227E-03     72.4406E-03
             401            1161     80.4227E-03     72.4406E-03
             407            1162     79.7067E-03     79.3822E-03
             402            1162     79.7067E-03     79.3822E-03
             401            1162     79.7067E-03     79.3822E-03
             408            1162     79.7067E-03     79.3822E-03
             403            1163     58.3957E-03     63.4043E-03
             404            1163     58.3957E-03     63.4043E-03
             409            1163     58.3957E-03     63.4043E-03
             410            1163     58.3957E-03     63.4043E-03
             411            1164     68.2377E-03     65.1269E-03
             404            1164     68.2377E-03     65.1269E-03
             410            1164     68.2377E-03     65.1269E-03
             405            1164     68.2377E-03     65.1269E-03
             412            1165     73.4102E-03     74.5612E-03
             411            1165     73.4102E-03     74.5612E-03
             406            1165     73.4102E-03     74.5612E-03
             405            1165     73.4102E-03     74.5612E-03
             412            1166     82.8835E-03     76.9049E-03
             407            1166     82.8835E-03     76.9049E-03
             413            1166     82.8835E-03     76.9049E-03
             406            1166     82.8835E-03     76.9049E-03
             408            1167     82.9596E-03     82.0533E-03
             414            1167     82.9596E-03     82.0533E-03
             407            1167     82.9596E-03     82.0533E-03
             413            1167     82.9596E-03     82.0533E-03
             410            1168     65.2613E-03     70.9725E-03
             415            1168     65.2613E-03     70.9725E-03
             416            1168     65.2613E-03     70.9725E-03
             409            1168     65.2613E-03     70.9725E-03
             410            1169     73.4397E-03     70.6005E-03
             416            1169     73.4397E-03     70.6005E-03
             411            1169     73.4397E-03     70.6005E-03
             417            1169     73.4397E-03     70.6005E-03
             411            1170     76.3380E-03     76.5604E-03
             412            1170     76.3380E-03     76.5604E-03
             417            1170     76.3380E-03     76.5604E-03
             418            1170     76.3380E-03     76.5604E-03
             412            1171     83.2995E-03     79.2076E-03
             419            1171     83.2995E-03     79.2076E-03
             413            1171     83.2995E-03     79.2076E-03
             418            1171     83.2995E-03     79.2076E-03
             420            1172     86.3611E-03     83.2948E-03
             419            1172     86.3611E-03     83.2948E-03
             413            1172     86.3611E-03     83.2948E-03
             414            1172     86.3611E-03     83.2948E-03
             421            1173     85.8810E-03     88.5207E-03
             428            1173     85.8810E-03     88.5207E-03
             427            1173     85.8810E-03     88.5207E-03
             422            1173     85.8810E-03     88.5207E-03
             423            1174     84.7061E-03     81.4282E-03
             428            1174     84.7061E-03     81.4282E-03
             422            1174     84.7061E-03     81.4282E-03
             429            1174     84.7061E-03     81.4282E-03
             423            1175     75.0033E-03     78.4402E-03
             424            1175     75.0033E-03     78.4402E-03
             429            1175     75.0033E-03     78.4402E-03
             430            1175     75.0033E-03     78.4402E-03
             424            1176     70.7637E-03     73.1884E-03
             425            1176     70.7637E-03     73.1884E-03
             431            1176     70.7637E-03     73.1884E-03
             430            1176     70.7637E-03     73.1884E-03
             432            1177     69.0968E-03     71.8224E-03
             426            1177     69.0968E-03     71.8224E-03
             431            1177     69.0968E-03     71.8224E-03
             425            1177     69.0968E-03     71.8224E-03
             433            1178     79.8342E-03     82.3416E-03
             427            1178     79.8342E-03     82.3416E-03
             434            1178     79.8342E-03     82.3416E-03
             428            1178     79.8342E-03     82.3416E-03
             428            1179     79.0606E-03     73.6485E-03
             434            1179     79.0606E-03     73.6485E-03
             429            1179     79.0606E-03     73.6485E-03
             435            1179     79.0606E-03     73.6485E-03
             429            1180     65.2389E-03     70.2592E-03
             435            1180     65.2389E-03     70.2592E-03
             430            1180     65.2389E-03     70.2592E-03
             436            1180     65.2389E-03     70.2592E-03
             430            1181     58.9147E-03     61.1993E-03
             437            1181     58.9147E-03     61.1993E-03
             436            1181     58.9147E-03     61.1993E-03
             431            1181     58.9147E-03     61.1993E-03
             437            1182     55.0933E-03     55.6031E-03
             431            1182     55.0933E-03     55.6031E-03
             432            1182     55.0933E-03     55.6031E-03
             438            1182     55.0933E-03     55.6031E-03
             439            1183     79.0283E-03     80.2506E-03
             433            1183     79.0283E-03     80.2506E-03
             434            1183     79.0283E-03     80.2506E-03
             440            1183     79.0283E-03     80.2506E-03
             440            1184     79.3250E-03     71.1787E-03
             434            1184     79.3250E-03     71.1787E-03
             441            1184     79.3250E-03     71.1787E-03
             435            1184     79.3250E-03     71.1787E-03
             441            1185     62.6156E-03     68.6539E-03
             436            1185     62.6156E-03     68.6539E-03
             435            1185     62.6156E-03     68.6539E-03
             442            1185     62.6156E-03     68.6539E-03
             437            1186     56.1301E-03     57.1420E-03
             443            1186     56.1301E-03     57.1420E-03
             436            1186     56.1301E-03     57.1420E-03
             442            1186     56.1301E-03     57.1420E-03
             444            1187     49.9871E-03     48.1517E-03
             437            1187     49.9871E-03     48.1517E-03
             443            1187     49.9871E-03     48.1517E-03
             438            1187     49.9871E-03     48.1517E-03
             446            1188     80.9375E-03     80.9693E-03
             439            1188     80.9375E-03     80.9693E-03
             440            1188     80.9375E-03     80.9693E-03
             445            1188     80.9375E-03     80.9693E-03
             447            1189     81.9459E-03     71.3345E-03
             440            1189     81.9459E-03     71.3345E-03
             446            1189     81.9459E-03     71.3345E-03
             441            1189     81.9459E-03     71.3345E-03
             447            1190     64.1839E-03     71.3048E-03
             448            1190     64.1839E-03     71.3048E-03
             442            1190     64.1839E-03     71.3048E-03
             441            1190     64.1839E-03     71.3048E-03
             442            1191     60.8883E-03     59.2375E-03
             448            1191     60.8883E-03     59.2375E-03
             449            1191     60.8883E-03     59.2375E-03
             443            1191     60.8883E-03     59.2375E-03
             443            1192     54.1766E-03     50.9609E-03
             449            1192     54.1766E-03     50.9609E-03
             444            1192     54.1766E-03     50.9609E-03
             450            1192     54.1766E-03     50.9609E-03
             445            1193     83.5582E-03     83.4706E-03
             452            1193     83.5582E-03     83.4706E-03
             451            1193     83.5582E-03     83.4706E-03
             446            1193     83.5582E-03     83.4706E-03
             446            1194     84.0436E-03     74.4504E-03
             453            1194     84.0436E-03     74.4504E-03
             447            1194     84.0436E-03     74.4504E-03
             452            1194     84.0436E-03     74.4504E-03
             453            1195     66.3644E-03     75.8415E-03
             448            1195     66.3644E-03     75.8415E-03
             454            1195     66.3644E-03     75.8415E-03
             447            1195     66.3644E-03     75.8415E-03
             448            1196     67.6491E-03     64.5402E-03
             454            1196     67.6491E-03     64.5402E-03
             455            1196     67.6491E-03     64.5402E-03
             449            1196     67.6491E-03     64.5402E-03
             456            1197     61.9529E-03     59.2764E-03
             450            1197     61.9529E-03     59.2764E-03
             449            1197     61.9529E-03     59.2764E-03
             455            1197     61.9529E-03     59.2764E-03
             451            1198     86.9958E-03     84.8225E-03
             452            1198     86.9958E-03     84.8225E-03
             458            1198     86.9958E-03     84.8225E-03
             457            1198     86.9958E-03     84.8225E-03
             453            1199     84.6441E-03     77.0781E-03
             459            1199     84.6441E-03     77.0781E-03
             458            1199     84.6441E-03     77.0781E-03
             452            1199     84.6441E-03     77.0781E-03
             460            1200     70.2226E-03     77.5524E-03
             459            1200     70.2226E-03     77.5524E-03
             453            1200     70.2226E-03     77.5524E-03
             454            1200     70.2226E-03     77.5524E-03
             454            1201     72.0345E-03     68.2308E-03
             460            1201     72.0345E-03     68.2308E-03
             461            1201     72.0345E-03     68.2308E-03
             455            1201     72.0345E-03     68.2308E-03
             455            1202     67.1147E-03     65.2558E-03
             462            1202     67.1147E-03     65.2558E-03
             456            1202     67.1147E-03     65.2558E-03
             461            1202     67.1147E-03     65.2558E-03
             469            1203     973.352E-06     961.760E-06
             464            1203     973.352E-06     961.760E-06
             470            1203     973.352E-06     961.760E-06
             463            1203     973.352E-06     961.760E-06
             470            1204     978.294E-06     967.050E-06
             464            1204     978.294E-06     967.050E-06
             465            1204     978.294E-06     967.050E-06
             471            1204     978.294E-06     967.050E-06
             465            1205     973.348E-06     974.642E-06
             471            1205     973.348E-06     974.642E-06
             466            1205     973.348E-06     974.642E-06
             472            1205     973.348E-06     974.642E-06
             467            1206     988.504E-06     977.527E-06
             472            1206     988.504E-06     977.527E-06
             473            1206     988.504E-06     977.527E-06
             466            1206     988.504E-06     977.527E-06
             467            1207     987.780E-06     966.273E-06
             468            1207     987.780E-06     966.273E-06
             474            1207     987.780E-06     966.273E-06
             473            1207     987.780E-06     966.273E-06
             476            1208     888.975E-06     877.610E-06
             469            1208     888.975E-06     877.610E-06
             475            1208     888.975E-06     877.610E-06
             470            1208     888.975E-06     877.610E-06
             471            1209     897.829E-06     886.997E-06
             470            1209     897.829E-06     886.997E-06
             477            1209     897.829E-06     886.997E-06
             476            1209     897.829E-06     886.997E-06
             477            1210     901.046E-06     906.230E-06
             472            1210     901.046E-06     906.230E-06
             478            1210     901.046E-06     906.230E-06
             471            1210     901.046E-06     906.230E-06
             473            1211     937.278E-06     919.843E-06
             478            1211     937.278E-06     919.843E-06
             472            1211     937.278E-06     919.843E-06
             479            1211     937.278E-06     919.843E-06
             473            1212     939.866E-06     925.796E-06
             480            1212     939.866E-06     925.796E-06
             479            1212     939.866E-06     925.796E-06
             474            1212     939.866E-06     925.796E-06
             475            1213     749.889E-06     743.214E-06
             481            1213     749.889E-06     743.214E-06
             476            1213     749.889E-06     743.214E-06
             482            1213     749.889E-06     743.214E-06
             482            1214     761.541E-06     762.714E-06
             477            1214     761.541E-06     762.714E-06
             476            1214     761.541E-06     762.714E-06
             483            1214     761.541E-06     762.714E-06
             483            1215     782.007E-06     801.057E-06
             484            1215     782.007E-06     801.057E-06
             478            1215     782.007E-06     801.057E-06
             477            1215     782.007E-06     801.057E-06
             484            1216     861.678E-06     822.795E-06
             485            1216     861.678E-06     822.795E-06
             478            1216     861.678E-06     822.795E-06
             479            1216     861.678E-06     822.795E-06
             486            1217     878.455E-06     860.587E-06
             479            1217     878.455E-06     860.587E-06
             485            1217     878.455E-06     860.587E-06
             480            1217     878.455E-06     860.587E-06
             482            1218     554.603E-06     563.142E-06
             488            1218     554.603E-06     563.142E-06
             481            1218     554.603E-06     563.142E-06
             487            1218     554.603E-06     563.142E-06
             488            1219     584.011E-06     598.129E-06
             489            1219     584.011E-06     598.129E-06
             483            1219     584.011E-06     598.129E-06
             482            1219     584.011E-06     598.129E-06
             490            1220     630.525E-06     664.498E-06
             483            1220     630.525E-06     664.498E-06
             484            1220     630.525E-06     664.498E-06
             489            1220     630.525E-06     664.498E-06
             485            1221     766.302E-06     694.753E-06
             484            1221     766.302E-06     694.753E-06
             491            1221     766.302E-06     694.753E-06
             490            1221     766.302E-06     694.753E-06
             486            1222     796.494E-06     785.104E-06
             492            1222     796.494E-06     785.104E-06
             491            1222     796.494E-06     785.104E-06
             485            1222     796.494E-06     785.104E-06
             493            1223     324.378E-06     351.833E-06
             494            1223     324.378E-06     351.833E-06
             487            1223     324.378E-06     351.833E-06
             488            1223     324.378E-06     351.833E-06
             495            1224     372.452E-06     371.058E-06
             494            1224     372.452E-06     371.058E-06
             488            1224     372.452E-06     371.058E-06
             489            1224     372.452E-06     371.058E-06
             490            1225     465.403E-06     504.841E-06
             495            1225     465.403E-06     504.841E-06
             489            1225     465.403E-06     504.841E-06
             496            1225     465.403E-06     504.841E-06
             496            1226     695.029E-06     615.553E-06
             497            1226     695.029E-06     615.553E-06
             491            1226     695.029E-06     615.553E-06
             490            1226     695.029E-06     615.553E-06
             492            1227     757.575E-06     768.728E-06
             491            1227     757.575E-06     768.728E-06
             498            1227     757.575E-06     768.728E-06
             497            1227     757.575E-06     768.728E-06
             500            1228     236.255E-06     296.341E-06
             493            1228     236.255E-06     296.341E-06
             499            1228     236.255E-06     296.341E-06
             494            1228     236.255E-06     296.341E-06
             495            1229     293.954E-06     268.611E-06
             500            1229     293.954E-06     268.611E-06
             501            1229     293.954E-06     268.611E-06
             494            1229     293.954E-06     268.611E-06
             495            1230     425.483E-06     468.954E-06
             501            1230     425.483E-06     468.954E-06
             502            1230     425.483E-06     468.954E-06
             496            1230     425.483E-06     468.954E-06
             502            1231     729.856E-06     671.989E-06
             496            1231     729.856E-06     671.989E-06
             503            1231     729.856E-06     671.989E-06
             497            1231     729.856E-06     671.989E-06
             498            1232     911.026E-06     917.507E-06
             503            1232     911.026E-06     917.507E-06
             497            1232     911.026E-06     917.507E-06
             504            1232     911.026E-06     917.507E-06
             546            1233     14.5464E-03     14.9688E-03
             505            1233     14.5464E-03     14.9688E-03
             545            1233     14.5464E-03     14.9688E-03
             506            1233     14.5464E-03     14.9688E-03
             507            1234     17.4984E-03     16.5876E-03
             546            1234     17.4984E-03     16.5876E-03
             547            1234     17.4984E-03     16.5876E-03
             506            1234     17.4984E-03     16.5876E-03
             508            1235     17.9543E-03     17.6739E-03
             507            1235     17.9543E-03     17.6739E-03
             547            1235     17.9543E-03     17.6739E-03
             548            1235     17.9543E-03     17.6739E-03
             509            1236     16.8872E-03     17.9789E-03
             549            1236     16.8872E-03     17.9789E-03
             508            1236     16.8872E-03     17.9789E-03
             548            1236     16.8872E-03     17.9789E-03
             509            1237     17.2738E-03     17.4559E-03
             510            1237     17.2738E-03     17.4559E-03
             549            1237     17.2738E-03     17.4559E-03
             550            1237     17.2738E-03     17.4559E-03
             550            1238     17.1954E-03     17.3846E-03
             551            1238     17.1954E-03     17.3846E-03
             511            1238     17.1954E-03     17.3846E-03
             510            1238     17.1954E-03     17.3846E-03
             511            1239     16.9573E-03     16.9890E-03
             551            1239     16.9573E-03     16.9890E-03
             552            1239     16.9573E-03     16.9890E-03
             512            1239     16.9573E-03     16.9890E-03
             552            1240     16.7192E-03     16.4959E-03
             513            1240     16.7192E-03     16.4959E-03
             512            1240     16.7192E-03     16.4959E-03
             553            1240     16.7192E-03     16.4959E-03
             514            1241     16.3695E-03     16.1698E-03
             513            1241     16.3695E-03     16.1698E-03
             554            1241     16.3695E-03     16.1698E-03
             553            1241     16.3695E-03     16.1698E-03
             554            1242     16.1389E-03     15.3464E-03
             555            1242     16.1389E-03     15.3464E-03
             515            1242     16.1389E-03     15.3464E-03
             514            1242     16.1389E-03     15.3464E-03
             515            1243     15.4472E-03     15.3195E-03
             555            1243     15.4472E-03     15.3195E-03
             556            1243     15.4472E-03     15.3195E-03
             516            1243     15.4472E-03     15.3195E-03
             556            1244     15.3106E-03     16.0114E-03
             557            1244     15.3106E-03     16.0114E-03
             517            1244     15.3106E-03     16.0114E-03
             516            1244     15.3106E-03     16.0114E-03
             557            1245     17.1747E-03     16.3844E-03
             558            1245     17.1747E-03     16.3844E-03
             518            1245     17.1747E-03     16.3844E-03
             517            1245     17.1747E-03     16.3844E-03
             519            1246     17.3726E-03     17.1866E-03
             558            1246     17.3726E-03     17.1866E-03
             518            1246     17.3726E-03     17.1866E-03
             559            1246     17.3726E-03     17.1866E-03
             560            1247     16.4471E-03     17.2488E-03
             520            1247     16.4471E-03     17.2488E-03
             519            1247     16.4471E-03     17.2488E-03
             559            1247     16.4471E-03     17.2488E-03
             560            1248     16.6428E-03     16.7596E-03
             561            1248     16.6428E-03     16.7596E-03
             521            1248     16.6428E-03     16.7596E-03
             520            1248     16.6428E-03     16.7596E-03
             562            1249     16.4899E-03     16.6113E-03
             561            1249     16.4899E-03     16.6113E-03
             521            1249     16.4899E-03     16.6113E-03
             522            1249     16.4899E-03     16.6113E-03
             562            1250     16.2443E-03     16.2986E-03
             523            1250     16.2443E-03     16.2986E-03
             563            1250     16.2443E-03     16.2986E-03
             522            1250     16.2443E-03     16.2986E-03
             524            1251     16.0615E-03     15.8902E-03
             563            1251     16.0615E-03     15.8902E-03
             564            1251     16.0615E-03     15.8902E-03
             523            1251     16.0615E-03     15.8902E-03
             524            1252     15.8153E-03     15.5560E-03
             564            1252     15.8153E-03     15.5560E-03
             565            1252     15.8153E-03     15.5560E-03
             525            1252     15.8153E-03     15.5560E-03
             525            1253     15.5867E-03     15.2389E-03
             566            1253     15.5867E-03     15.2389E-03
             526            1253     15.5867E-03     15.2389E-03
             565            1253     15.5867E-03     15.2389E-03
             526            1254     15.3173E-03     14.7952E-03
             527            1254     15.3173E-03     14.7952E-03
             567            1254     15.3173E-03     14.7952E-03
             566            1254     15.3173E-03     14.7952E-03
             527            1255     14.9315E-03     14.8602E-03
             568            1255     14.9315E-03     14.8602E-03
             567            1255     14.9315E-03     14.8602E-03
             528            1255     14.9315E-03     14.8602E-03
             529            1256     15.4762E-03     15.5973E-03
             569            1256     15.4762E-03     15.5973E-03
             528            1256     15.4762E-03     15.5973E-03
             568            1256     15.4762E-03     15.5973E-03
             570            1257     16.8693E-03     16.3124E-03
             529            1257     16.8693E-03     16.3124E-03
             530            1257     16.8693E-03     16.3124E-03
             569            1257     16.8693E-03     16.3124E-03
             570            1258     16.8863E-03     16.8042E-03
             530            1258     16.8863E-03     16.8042E-03
             571            1258     16.8863E-03     16.8042E-03
             531            1258     16.8863E-03     16.8042E-03
             572            1259     16.3315E-03     16.7164E-03
             531            1259     16.3315E-03     16.7164E-03
             532            1259     16.3315E-03     16.7164E-03
             571            1259     16.3315E-03     16.7164E-03
             532            1260     16.3902E-03     16.4079E-03
             573            1260     16.3902E-03     16.4079E-03
             572            1260     16.3902E-03     16.4079E-03
             533            1260     16.3902E-03     16.4079E-03
             574            1261     16.2698E-03     16.2977E-03
             573            1261     16.2698E-03     16.2977E-03
             534            1261     16.2698E-03     16.2977E-03
             533            1261     16.2698E-03     16.2977E-03
             574            1262     16.1355E-03     16.1073E-03
             575            1262     16.1355E-03     16.1073E-03
             534            1262     16.1355E-03     16.1073E-03
             535            1262     16.1355E-03     16.1073E-03
             535            1263     16.0691E-03     15.9338E-03
             536            1263     16.0691E-03     15.9338E-03
             575            1263     16.0691E-03     15.9338E-03
             576            1263     16.0691E-03     15.9338E-03
             537            1264     16.0255E-03     15.8266E-03
             536            1264     16.0255E-03     15.8266E-03
             576            1264     16.0255E-03     15.8266E-03
             577            1264     16.0255E-03     15.8266E-03
             577            1265     15.9541E-03     15.7078E-03
             538            1265     15.9541E-03     15.7078E-03
             578            1265     15.9541E-03     15.7078E-03
             537            1265     15.9541E-03     15.7078E-03
             578            1266     15.8551E-03     15.7261E-03
             538            1266     15.8551E-03     15.7261E-03
             539            1266     15.8551E-03     15.7261E-03
             579            1266     15.8551E-03     15.7261E-03
             580            1267     16.4093E-03     16.2702E-03
             579            1267     16.4093E-03     16.2702E-03
             540            1267     16.4093E-03     16.2702E-03
             539            1267     16.4093E-03     16.2702E-03
             581            1268     17.1989E-03     16.9222E-03
             580            1268     17.1989E-03     16.9222E-03
             540            1268     17.1989E-03     16.9222E-03
             541            1268     17.1989E-03     16.9222E-03
             541            1269     17.2337E-03     17.1762E-03
             582            1269     17.2337E-03     17.1762E-03
             581            1269     17.2337E-03     17.1762E-03
             542            1269     17.2337E-03     17.1762E-03
             542            1270     17.1957E-03     17.1524E-03
             543            1270     17.1957E-03     17.1524E-03
             583            1270     17.1957E-03     17.1524E-03
             582            1270     17.1957E-03     17.1524E-03
             543            1271     17.2096E-03     17.0720E-03
             544            1271     17.2096E-03     17.0720E-03
             584            1271     17.2096E-03     17.0720E-03
             583            1271     17.2096E-03     17.0720E-03
             545            1272     24.1234E-03     26.2528E-03
             546            1272     24.1234E-03     26.2528E-03
             586            1272     24.1234E-03     26.2528E-03
             585            1272     24.1234E-03     26.2528E-03
             586            1273     27.8635E-03     26.5390E-03
             547            1273     27.8635E-03     26.5390E-03
             587            1273     27.8635E-03     26.5390E-03
             546            1273     27.8635E-03     26.5390E-03
             588            1274     29.1378E-03     27.2494E-03
             547            1274     29.1378E-03     27.2494E-03
             548            1274     29.1378E-03     27.2494E-03
             587            1274     29.1378E-03     27.2494E-03
             548            1275     26.6763E-03     28.0119E-03
             588            1275     26.6763E-03     28.0119E-03
             549            1275     26.6763E-03     28.0119E-03
             589            1275     26.6763E-03     28.0119E-03
             589            1276     26.8743E-03     26.4363E-03
             590            1276     26.8743E-03     26.4363E-03
             549            1276     26.8743E-03     26.4363E-03
             550            1276     26.8743E-03     26.4363E-03
             550            1277     26.2299E-03     26.0862E-03
             591            1277     26.2299E-03     26.0862E-03
             551            1277     26.2299E-03     26.0862E-03
             590            1277     26.2299E-03     26.0862E-03
             551            1278     25.3735E-03     25.4398E-03
             591            1278     25.3735E-03     25.4398E-03
             552            1278     25.3735E-03     25.4398E-03
             592            1278     25.3735E-03     25.4398E-03
             552            1279     24.6241E-03     24.5247E-03
             593            1279     24.6241E-03     24.5247E-03
             592            1279     24.6241E-03     24.5247E-03
             553            1279     24.6241E-03     24.5247E-03
             593            1280     23.4230E-03     24.2473E-03
             594            1280     23.4230E-03     24.2473E-03
             553            1280     23.4230E-03     24.2473E-03
             554            1280     23.4230E-03     24.2473E-03
             554            1281     23.5306E-03     22.5031E-03
             594            1281     23.5306E-03     22.5031E-03
             555            1281     23.5306E-03     22.5031E-03
             595            1281     23.5306E-03     22.5031E-03
             555            1282     21.9223E-03     21.3661E-03
             595            1282     21.9223E-03     21.3661E-03
             596            1282     21.9223E-03     21.3661E-03
             556            1282     21.9223E-03     21.3661E-03
             597            1283     20.1908E-03     22.8329E-03
             596            1283     20.1908E-03     22.8329E-03
             556            1283     20.1908E-03     22.8329E-03
             557            1283     20.1908E-03     22.8329E-03
             598            1284     23.6681E-03     22.5805E-03
             597            1284     23.6681E-03     22.5805E-03
             558            1284     23.6681E-03     22.5805E-03
             557            1284     23.6681E-03     22.5805E-03
             558            1285     24.3956E-03     22.8805E-03
             599            1285     24.3956E-03     22.8805E-03
             559            1285     24.3956E-03     22.8805E-03
             598            1285     24.3956E-03     22.8805E-03
             599            1286     22.2151E-03     23.1096E-03
             600            1286     22.2151E-03     23.1096E-03
             559            1286     22.2151E-03     23.1096E-03
             560            1286     22.2151E-03     23.1096E-03
             600            1287     22.1088E-03     21.6535E-03
             561            1287     22.1088E-03     21.6535E-03
             560            1287     22.1088E-03     21.6535E-03
             601            1287     22.1088E-03     21.6535E-03
             561            1288     21.4161E-03     21.1337E-03
             602            1288     21.4161E-03     21.1337E-03
             562            1288     21.4161E-03     21.1337E-03
             601            1288     21.4161E-03     21.1337E-03
             603            1289     20.4674E-03     20.5386E-03
             563            1289     20.4674E-03     20.5386E-03
             602            1289     20.4674E-03     20.5386E-03
             562            1289     20.4674E-03     20.5386E-03
             564            1290     19.7978E-03     19.7707E-03
             563            1290     19.7978E-03     19.7707E-03
             603            1290     19.7978E-03     19.7707E-03
             604            1290     19.7978E-03     19.7707E-03
             605            1291     18.9837E-03     19.0568E-03
             564            1291     18.9837E-03     19.0568E-03
             565            1291     18.9837E-03     19.0568E-03
             604            1291     18.9837E-03     19.0568E-03
             606            1292     18.0921E-03     18.4911E-03
             605            1292     18.0921E-03     18.4911E-03
             566            1292     18.0921E-03     18.4911E-03
             565            1292     18.0921E-03     18.4911E-03
             606            1293     17.7111E-03     17.3341E-03
             566            1293     17.7111E-03     17.3341E-03
             567            1293     17.7111E-03     17.3341E-03
             607            1293     17.7111E-03     17.3341E-03
             607            1294     16.7816E-03     16.5969E-03
             568            1294     16.7816E-03     16.5969E-03
             608            1294     16.7816E-03     16.5969E-03
             567            1294     16.7816E-03     16.5969E-03
             609            1295     16.5470E-03     17.6748E-03
             608            1295     16.5470E-03     17.6748E-03
             569            1295     16.5470E-03     17.6748E-03
             568            1295     16.5470E-03     17.6748E-03
             570            1296     18.7314E-03     18.0416E-03
             569            1296     18.7314E-03     18.0416E-03
             609            1296     18.7314E-03     18.0416E-03
             610            1296     18.7314E-03     18.0416E-03
             570            1297     18.8955E-03     18.0693E-03
             611            1297     18.8955E-03     18.0693E-03
             571            1297     18.8955E-03     18.0693E-03
             610            1297     18.8955E-03     18.0693E-03
             571            1298     17.4584E-03     17.8847E-03
             612            1298     17.4584E-03     17.8847E-03
             572            1298     17.4584E-03     17.8847E-03
             611            1298     17.4584E-03     17.8847E-03
             613            1299     17.1582E-03     16.9556E-03
             612            1299     17.1582E-03     16.9556E-03
             572            1299     17.1582E-03     16.9556E-03
             573            1299     17.1582E-03     16.9556E-03
             574            1300     16.5887E-03     16.5598E-03
             573            1300     16.5887E-03     16.5598E-03
             613            1300     16.5887E-03     16.5598E-03
             614            1300     16.5887E-03     16.5598E-03
             574            1301     15.9523E-03     16.1025E-03
             614            1301     15.9523E-03     16.1025E-03
             615            1301     15.9523E-03     16.1025E-03
             575            1301     15.9523E-03     16.1025E-03
             616            1302     15.5053E-03     15.6044E-03
             576            1302     15.5053E-03     15.6044E-03
             575            1302     15.5053E-03     15.6044E-03
             615            1302     15.5053E-03     15.6044E-03
             616            1303     15.1039E-03     15.1550E-03
             576            1303     15.1039E-03     15.1550E-03
             617            1303     15.1039E-03     15.1550E-03
             577            1303     15.1039E-03     15.1550E-03
             617            1304     14.7686E-03     14.7533E-03
             577            1304     14.7686E-03     14.7533E-03
             618            1304     14.7686E-03     14.7533E-03
             578            1304     14.7686E-03     14.7533E-03
             619            1305     14.5309E-03     14.5119E-03
             618            1305     14.5309E-03     14.5119E-03
             578            1305     14.5309E-03     14.5119E-03
             579            1305     14.5309E-03     14.5119E-03
             580            1306     15.1002E-03     15.0967E-03
             620            1306     15.1002E-03     15.0967E-03
             619            1306     15.1002E-03     15.0967E-03
             579            1306     15.1002E-03     15.0967E-03
             621            1307     15.9610E-03     15.7820E-03
             620            1307     15.9610E-03     15.7820E-03
             580            1307     15.9610E-03     15.7820E-03
             581            1307     15.9610E-03     15.7820E-03
             622            1308     16.0017E-03     15.8885E-03
             581            1308     16.0017E-03     15.8885E-03
             582            1308     16.0017E-03     15.8885E-03
             621            1308     16.0017E-03     15.8885E-03
             622            1309     15.8989E-03     15.8311E-03
             623            1309     15.8989E-03     15.8311E-03
             583            1309     15.8989E-03     15.8311E-03
             582            1309     15.8989E-03     15.8311E-03
             624            1310     15.8798E-03     15.7749E-03
             584            1310     15.8798E-03     15.7749E-03
             623            1310     15.8798E-03     15.7749E-03
             583            1310     15.8798E-03     15.7749E-03
             625            1311     34.0545E-03     38.2949E-03
             585            1311     34.0545E-03     38.2949E-03
             626            1311     34.0545E-03     38.2949E-03
             586            1311     34.0545E-03     38.2949E-03
             586            1312     39.4696E-03     38.0037E-03
             627            1312     39.4696E-03     38.0037E-03
             626            1312     39.4696E-03     38.0037E-03
             587            1312     39.4696E-03     38.0037E-03
             588            1313     41.1205E-03     37.6240E-03
             587            1313     41.1205E-03     37.6240E-03
             628            1313     41.1205E-03     37.6240E-03
             627            1313     41.1205E-03     37.6240E-03
             629            1314     36.4666E-03     38.1986E-03
             628            1314     36.4666E-03     38.1986E-03
             588            1314     36.4666E-03     38.1986E-03
             589            1314     36.4666E-03     38.1986E-03
             630            1315     36.1658E-03     35.2623E-03
             629            1315     36.1658E-03     35.2623E-03
             589            1315     36.1658E-03     35.2623E-03
             590            1315     36.1658E-03     35.2623E-03
             590            1316     34.9569E-03     34.5560E-03
             631            1316     34.9569E-03     34.5560E-03
             591            1316     34.9569E-03     34.5560E-03
             630            1316     34.9569E-03     34.5560E-03
             631            1317     33.7609E-03     33.6841E-03
             591            1317     33.7609E-03     33.6841E-03
             632            1317     33.7609E-03     33.6841E-03
             592            1317     33.7609E-03     33.6841E-03
             632            1318     32.9147E-03     32.6231E-03
             633            1318     32.9147E-03     32.6231E-03
             593            1318     32.9147E-03     32.6231E-03
             592            1318     32.9147E-03     32.6231E-03
             634            1319     31.4437E-03     33.0264E-03
             594            1319     31.4437E-03     33.0264E-03
             633            1319     31.4437E-03     33.0264E-03
             593            1319     31.4437E-03     33.0264E-03
             594            1320     32.5439E-03     31.0544E-03
             595            1320     32.5439E-03     31.0544E-03
             634            1320     32.5439E-03     31.0544E-03
             635            1320     32.5439E-03     31.0544E-03
             595            1321     30.2513E-03     29.6507E-03
             636            1321     30.2513E-03     29.6507E-03
             635            1321     30.2513E-03     29.6507E-03
             596            1321     30.2513E-03     29.6507E-03
             596            1322     26.5412E-03     32.1053E-03
             637            1322     26.5412E-03     32.1053E-03
             636            1322     26.5412E-03     32.1053E-03
             597            1322     26.5412E-03     32.1053E-03
             597            1323     31.7180E-03     30.5652E-03
             598            1323     31.7180E-03     30.5652E-03
             638            1323     31.7180E-03     30.5652E-03
             637            1323     31.7180E-03     30.5652E-03
             639            1324     32.6688E-03     29.8184E-03
             598            1324     32.6688E-03     29.8184E-03
             638            1324     32.6688E-03     29.8184E-03
             599            1324     32.6688E-03     29.8184E-03
             600            1325     28.5616E-03     29.8579E-03
             640            1325     28.5616E-03     29.8579E-03
             639            1325     28.5616E-03     29.8579E-03
             599            1325     28.5616E-03     29.8579E-03
             640            1326     27.9317E-03     27.2196E-03
             600            1326     27.9317E-03     27.2196E-03
             601            1326     27.9317E-03     27.2196E-03
             641            1326     27.9317E-03     27.2196E-03
             601            1327     26.6495E-03     26.1926E-03
             642            1327     26.6495E-03     26.1926E-03
             602            1327     26.6495E-03     26.1926E-03
             641            1327     26.6495E-03     26.1926E-03
             603            1328     25.1162E-03     25.2352E-03
             602            1328     25.1162E-03     25.2352E-03
             642            1328     25.1162E-03     25.2352E-03
             643            1328     25.1162E-03     25.2352E-03
             644            1329     24.1629E-03     24.0849E-03
             604            1329     24.1629E-03     24.0849E-03
             643            1329     24.1629E-03     24.0849E-03
             603            1329     24.1629E-03     24.0849E-03
             645            1330     23.0796E-03     23.1877E-03
             605            1330     23.0796E-03     23.1877E-03
             644            1330     23.0796E-03     23.1877E-03
             604            1330     23.0796E-03     23.1877E-03
             605            1331     21.7529E-03     22.8427E-03
             645            1331     21.7529E-03     22.8427E-03
             606            1331     21.7529E-03     22.8427E-03
             646            1331     21.7529E-03     22.8427E-03
             607            1332     21.6884E-03     21.3061E-03
             606            1332     21.6884E-03     21.3061E-03
             646            1332     21.6884E-03     21.3061E-03
             647            1332     21.6884E-03     21.3061E-03
             608            1333     20.1772E-03     20.0625E-03
             647            1333     20.1772E-03     20.0625E-03
             648            1333     20.1772E-03     20.0625E-03
             607            1333     20.1772E-03     20.0625E-03
             608            1334     18.5488E-03     21.5019E-03
             648            1334     18.5488E-03     21.5019E-03
             609            1334     18.5488E-03     21.5019E-03
             649            1334     18.5488E-03     21.5019E-03
             609            1335     21.6112E-03     20.8606E-03
             649            1335     21.6112E-03     20.8606E-03
             610            1335     21.6112E-03     20.8606E-03
             650            1335     21.6112E-03     20.8606E-03
             610            1336     21.7414E-03     19.9465E-03
             651            1336     21.7414E-03     19.9465E-03
             650            1336     21.7414E-03     19.9465E-03
             611            1336     21.7414E-03     19.9465E-03
             612            1337     18.8861E-03     19.5229E-03
             611            1337     18.8861E-03     19.5229E-03
             652            1337     18.8861E-03     19.5229E-03
             651            1337     18.8861E-03     19.5229E-03
             652            1338     18.1147E-03     17.7270E-03
             653            1338     18.1147E-03     17.7270E-03
             613            1338     18.1147E-03     17.7270E-03
             612            1338     18.1147E-03     17.7270E-03
             614            1339     17.0417E-03     16.8810E-03
             653            1339     17.0417E-03     16.8810E-03
             654            1339     17.0417E-03     16.8810E-03
             613            1339     17.0417E-03     16.8810E-03
             654            1340     15.8814E-03     16.0448E-03
             615            1340     15.8814E-03     16.0448E-03
             614            1340     15.8814E-03     16.0448E-03
             655            1340     15.8814E-03     16.0448E-03
             616            1341     14.9787E-03     15.1942E-03
             655            1341     14.9787E-03     15.1942E-03
             615            1341     14.9787E-03     15.1942E-03
             656            1341     14.9787E-03     15.1942E-03
             657            1342     14.0982E-03     14.4881E-03
             656            1342     14.0982E-03     14.4881E-03
             616            1342     14.0982E-03     14.4881E-03
             617            1342     14.0982E-03     14.4881E-03
             617            1343     13.3177E-03     13.7323E-03
             657            1343     13.3177E-03     13.7323E-03
             658            1343     13.3177E-03     13.7323E-03
             618            1343     13.3177E-03     13.7323E-03
             658            1344     12.8358E-03     13.0599E-03
             659            1344     12.8358E-03     13.0599E-03
             619            1344     12.8358E-03     13.0599E-03
             618            1344     12.8358E-03     13.0599E-03
             619            1345     13.3014E-03     13.5466E-03
             620            1345     13.3014E-03     13.5466E-03
             660            1345     13.3014E-03     13.5466E-03
             659            1345     13.3014E-03     13.5466E-03
             621            1346     14.2273E-03     14.0863E-03
             660            1346     14.2273E-03     14.0863E-03
             620            1346     14.2273E-03     14.0863E-03
             661            1346     14.2273E-03     14.0863E-03
             661            1347     14.0773E-03     13.8778E-03
             621            1347     14.0773E-03     13.8778E-03
             662            1347     14.0773E-03     13.8778E-03
             622            1347     14.0773E-03     13.8778E-03
             663            1348     13.7206E-03     13.7682E-03
             662            1348     13.7206E-03     13.7682E-03
             622            1348     13.7206E-03     13.7682E-03
             623            1348     13.7206E-03     13.7682E-03
             663            1349     13.7597E-03     13.7292E-03
             624            1349     13.7597E-03     13.7292E-03
             664            1349     13.7597E-03     13.7292E-03
             623            1349     13.7597E-03     13.7292E-03
             626            1350     42.7600E-03     49.7367E-03
             665            1350     42.7600E-03     49.7367E-03
             625            1350     42.7600E-03     49.7367E-03
             666            1350     42.7600E-03     49.7367E-03
             627            1351     49.8834E-03     48.8825E-03
             626            1351     49.8834E-03     48.8825E-03
             666            1351     49.8834E-03     48.8825E-03
             667            1351     49.8834E-03     48.8825E-03
             668            1352     51.2432E-03     46.6334E-03
             628            1352     51.2432E-03     46.6334E-03
             627            1352     51.2432E-03     46.6334E-03
             667            1352     51.2432E-03     46.6334E-03
             628            1353     44.0833E-03     47.3427E-03
             668            1353     44.0833E-03     47.3427E-03
             629            1353     44.0833E-03     47.3427E-03
             669            1353     44.0833E-03     47.3427E-03
             670            1354     43.4638E-03     43.1514E-03
             669            1354     43.4638E-03     43.1514E-03
             630            1354     43.4638E-03     43.1514E-03
             629            1354     43.4638E-03     43.1514E-03
             631            1355     41.7728E-03     42.1703E-03
             671            1355     41.7728E-03     42.1703E-03
             670            1355     41.7728E-03     42.1703E-03
             630            1355     41.7728E-03     42.1703E-03
             631            1356     40.2752E-03     40.9531E-03
             672            1356     40.2752E-03     40.9531E-03
             671            1356     40.2752E-03     40.9531E-03
             632            1356     40.2752E-03     40.9531E-03
             633            1357     39.5055E-03     39.4385E-03
             673            1357     39.5055E-03     39.4385E-03
             672            1357     39.5055E-03     39.4385E-03
             632            1357     39.5055E-03     39.4385E-03
             633            1358     37.9703E-03     40.4481E-03
             634            1358     37.9703E-03     40.4481E-03
             673            1358     37.9703E-03     40.4481E-03
             674            1358     37.9703E-03     40.4481E-03
             675            1359     40.7375E-03     38.5036E-03
             674            1359     40.7375E-03     38.5036E-03
             635            1359     40.7375E-03     38.5036E-03
             634            1359     40.7375E-03     38.5036E-03
             676            1360     38.4231E-03     38.1842E-03
             635            1360     38.4231E-03     38.1842E-03
             675            1360     38.4231E-03     38.1842E-03
             636            1360     38.4231E-03     38.1842E-03
             637            1361     32.7521E-03     42.3570E-03
             676            1361     32.7521E-03     42.3570E-03
             636            1361     32.7521E-03     42.3570E-03
             677            1361     32.7521E-03     42.3570E-03
             677            1362     39.1960E-03     38.4285E-03
             637            1362     39.1960E-03     38.4285E-03
             678            1362     39.1960E-03     38.4285E-03
             638            1362     39.1960E-03     38.4285E-03
             639            1363     39.9332E-03     36.2103E-03
             678            1363     39.9332E-03     36.2103E-03
             638            1363     39.9332E-03     36.2103E-03
             679            1363     39.9332E-03     36.2103E-03
             680            1364     33.7843E-03     36.4032E-03
             679            1364     33.7843E-03     36.4032E-03
             639            1364     33.7843E-03     36.4032E-03
             640            1364     33.7843E-03     36.4032E-03
             681            1365     32.8053E-03     32.6824E-03
             641            1365     32.8053E-03     32.6824E-03
             680            1365     32.8053E-03     32.6824E-03
             640            1365     32.8053E-03     32.6824E-03
             682            1366     31.0685E-03     31.1959E-03
             642            1366     31.0685E-03     31.1959E-03
             681            1366     31.0685E-03     31.1959E-03
             641            1366     31.0685E-03     31.1959E-03
             682            1367     28.9609E-03     29.7893E-03
             642            1367     28.9609E-03     29.7893E-03
             643            1367     28.9609E-03     29.7893E-03
             683            1367     28.9609E-03     29.7893E-03
             643            1368     27.8515E-03     28.1127E-03
             684            1368     27.8515E-03     28.1127E-03
             644            1368     27.8515E-03     28.1127E-03
             683            1368     27.8515E-03     28.1127E-03
             685            1369     26.6192E-03     26.8142E-03
             645            1369     26.6192E-03     26.8142E-03
             684            1369     26.6192E-03     26.8142E-03
             644            1369     26.6192E-03     26.8142E-03
             645            1370     25.1033E-03     26.6800E-03
             686            1370     25.1033E-03     26.6800E-03
             685            1370     25.1033E-03     26.6800E-03
             646            1370     25.1033E-03     26.6800E-03
             686            1371     25.9568E-03     25.1484E-03
             687            1371     25.9568E-03     25.1484E-03
             647            1371     25.9568E-03     25.1484E-03
             646            1371     25.9568E-03     25.1484E-03
             688            1372     24.2322E-03     24.3827E-03
             648            1372     24.2322E-03     24.3827E-03
             687            1372     24.2322E-03     24.3827E-03
             647            1372     24.2322E-03     24.3827E-03
             648            1373     20.9920E-03     26.5968E-03
             649            1373     20.9920E-03     26.5968E-03
             689            1373     20.9920E-03     26.5968E-03
             688            1373     20.9920E-03     26.5968E-03
             690            1374     24.6076E-03     24.1143E-03
             650            1374     24.6076E-03     24.1143E-03
             689            1374     24.6076E-03     24.1143E-03
             649            1374     24.6076E-03     24.1143E-03
             650            1375     24.5420E-03     22.1100E-03
             690            1375     24.5420E-03     22.1100E-03
             691            1375     24.5420E-03     22.1100E-03
             651            1375     24.5420E-03     22.1100E-03
             652            1376     20.1817E-03     21.7005E-03
             691            1376     20.1817E-03     21.7005E-03
             692            1376     20.1817E-03     21.7005E-03
             651            1376     20.1817E-03     21.7005E-03
             692            1377     19.0093E-03     18.8312E-03
             652            1377     19.0093E-03     18.8312E-03
             693            1377     19.0093E-03     18.8312E-03
             653            1377     19.0093E-03     18.8312E-03
             693            1378     17.3867E-03     17.3408E-03
             654            1378     17.3867E-03     17.3408E-03
             653            1378     17.3867E-03     17.3408E-03
             694            1378     17.3867E-03     17.3408E-03
             654            1379     15.6286E-03     15.9026E-03
             655            1379     15.6286E-03     15.9026E-03
             694            1379     15.6286E-03     15.9026E-03
             695            1379     15.6286E-03     15.9026E-03
             696            1380     14.3860E-03     14.4587E-03
             695            1380     14.3860E-03     14.4587E-03
             656            1380     14.3860E-03     14.4587E-03
             655            1380     14.3860E-03     14.4587E-03
             697            1381     13.0959E-03     13.5617E-03
             696            1381     13.0959E-03     13.5617E-03
             657            1381     13.0959E-03     13.5617E-03
             656            1381     13.0959E-03     13.5617E-03
             658            1382     12.1143E-03     12.7209E-03
             698            1382     12.1143E-03     12.7209E-03
             657            1382     12.1143E-03     12.7209E-03
             697            1382     12.1143E-03     12.7209E-03
             659            1383     11.3210E-03     11.8126E-03
             658            1383     11.3210E-03     11.8126E-03
             699            1383     11.3210E-03     11.8126E-03
             698            1383     11.3210E-03     11.8126E-03
             659            1384     11.1052E-03     11.9794E-03
             700            1384     11.1052E-03     11.9794E-03
             699            1384     11.1052E-03     11.9794E-03
             660            1384     11.1052E-03     11.9794E-03
             700            1385     11.8537E-03     11.7775E-03
             701            1385     11.8537E-03     11.7775E-03
             661            1385     11.8537E-03     11.7775E-03
             660            1385     11.8537E-03     11.7775E-03
             661            1386     11.6054E-03     11.2493E-03
             702            1386     11.6054E-03     11.2493E-03
             662            1386     11.6054E-03     11.2493E-03
             701            1386     11.6054E-03     11.2493E-03
             663            1387     10.8389E-03     11.1842E-03
             702            1387     10.8389E-03     11.1842E-03
             662            1387     10.8389E-03     11.1842E-03
             703            1387     10.8389E-03     11.1842E-03
             703            1388     10.7721E-03     10.9257E-03
             663            1388     10.7721E-03     10.9257E-03
             664            1388     10.7721E-03     10.9257E-03
             704            1388     10.7721E-03     10.9257E-03
             706            1389     49.5266E-03     58.4281E-03
             705            1389     49.5266E-03     58.4281E-03
             666            1389     49.5266E-03     58.4281E-03
             665            1389     49.5266E-03     58.4281E-03
             666            1390     58.0084E-03     57.8273E-03
             667            1390     58.0084E-03     57.8273E-03
             707            1390     58.0084E-03     57.8273E-03
             706            1390     58.0084E-03     57.8273E-03
             707            1391     58.6607E-03     54.6816E-03
             667            1391     58.6607E-03     54.6816E-03
             708            1391     58.6607E-03     54.6816E-03
             668            1391     58.6607E-03     54.6816E-03
             669            1392     49.7797E-03     55.2148E-03
             668            1392     49.7797E-03     55.2148E-03
             708            1392     49.7797E-03     55.2148E-03
             709            1392     49.7797E-03     55.2148E-03
             669            1393     49.4846E-03     50.2497E-03
             710            1393     49.4846E-03     50.2497E-03
             670            1393     49.4846E-03     50.2497E-03
             709            1393     49.4846E-03     50.2497E-03
             670            1394     47.2431E-03     49.1621E-03
             671            1394     47.2431E-03     49.1621E-03
             711            1394     47.2431E-03     49.1621E-03
             710            1394     47.2431E-03     49.1621E-03
             671            1395     45.4343E-03     47.5395E-03
             672            1395     45.4343E-03     47.5395E-03
             712            1395     45.4343E-03     47.5395E-03
             711            1395     45.4343E-03     47.5395E-03
             672            1396     44.6097E-03     45.3993E-03
             712            1396     44.6097E-03     45.3993E-03
             673            1396     44.6097E-03     45.3993E-03
             713            1396     44.6097E-03     45.3993E-03
             713            1397     42.3646E-03     46.2470E-03
             674            1397     42.3646E-03     46.2470E-03
             714            1397     42.3646E-03     46.2470E-03
             673            1397     42.3646E-03     46.2470E-03
             675            1398     46.1822E-03     44.1121E-03
             714            1398     46.1822E-03     44.1121E-03
             715            1398     46.1822E-03     44.1121E-03
             674            1398     46.1822E-03     44.1121E-03
             716            1399     44.7142E-03     44.6354E-03
             676            1399     44.7142E-03     44.6354E-03
             715            1399     44.7142E-03     44.6354E-03
             675            1399     44.7142E-03     44.6354E-03
             677            1400     37.9966E-03     50.1650E-03
             717            1400     37.9966E-03     50.1650E-03
             676            1400     37.9966E-03     50.1650E-03
             716            1400     37.9966E-03     50.1650E-03
             718            1401     45.2437E-03     45.1270E-03
             717            1401     45.2437E-03     45.1270E-03
             678            1401     45.2437E-03     45.1270E-03
             677            1401     45.2437E-03     45.1270E-03
             719            1402     45.5279E-03     42.2634E-03
             718            1402     45.5279E-03     42.2634E-03
             679            1402     45.5279E-03     42.2634E-03
             678            1402     45.5279E-03     42.2634E-03
             679            1403     37.9596E-03     42.2195E-03
             719            1403     37.9596E-03     42.2195E-03
             720            1403     37.9596E-03     42.2195E-03
             680            1403     37.9596E-03     42.2195E-03
             681            1404     37.0766E-03     37.7167E-03
             721            1404     37.0766E-03     37.7167E-03
             720            1404     37.0766E-03     37.7167E-03
             680            1404     37.0766E-03     37.7167E-03
             722            1405     34.8404E-03     36.0071E-03
             721            1405     34.8404E-03     36.0071E-03
             682            1405     34.8404E-03     36.0071E-03
             681            1405     34.8404E-03     36.0071E-03
             683            1406     32.3334E-03     34.0956E-03
             682            1406     32.3334E-03     34.0956E-03
             723            1406     32.3334E-03     34.0956E-03
             722            1406     32.3334E-03     34.0956E-03
             723            1407     30.9091E-03     31.9877E-03
             724            1407     30.9091E-03     31.9877E-03
             683            1407     30.9091E-03     31.9877E-03
             684            1407     30.9091E-03     31.9877E-03
             684            1408     29.3310E-03     30.0610E-03
             725            1408     29.3310E-03     30.0610E-03
             724            1408     29.3310E-03     30.0610E-03
             685            1408     29.3310E-03     30.0610E-03
             685            1409     27.3272E-03     29.5453E-03
             726            1409     27.3272E-03     29.5453E-03
             725            1409     27.3272E-03     29.5453E-03
             686            1409     27.3272E-03     29.5453E-03
             687            1410     28.7032E-03     27.8212E-03
             726            1410     28.7032E-03     27.8212E-03
             686            1410     28.7032E-03     27.8212E-03
             727            1410     28.7032E-03     27.8212E-03
             687            1411     27.5575E-03     27.6028E-03
             727            1411     27.5575E-03     27.6028E-03
             728            1411     27.5575E-03     27.6028E-03
             688            1411     27.5575E-03     27.6028E-03
             688            1412     23.4445E-03     30.7686E-03
             689            1412     23.4445E-03     30.7686E-03
             728            1412     23.4445E-03     30.7686E-03
             729            1412     23.4445E-03     30.7686E-03
             689            1413     27.5556E-03     27.5592E-03
             729            1413     27.5556E-03     27.5592E-03
             690            1413     27.5556E-03     27.5592E-03
             730            1413     27.5556E-03     27.5592E-03
             691            1414     27.2674E-03     25.0544E-03
             731            1414     27.2674E-03     25.0544E-03
             690            1414     27.2674E-03     25.0544E-03
             730            1414     27.2674E-03     25.0544E-03
             732            1415     21.6399E-03     24.2238E-03
             731            1415     21.6399E-03     24.2238E-03
             691            1415     21.6399E-03     24.2238E-03
             692            1415     21.6399E-03     24.2238E-03
             692            1416     20.1758E-03     20.3719E-03
             733            1416     20.1758E-03     20.3719E-03
             732            1416     20.1758E-03     20.3719E-03
             693            1416     20.1758E-03     20.3719E-03
             734            1417     17.8325E-03     18.3062E-03
             693            1417     17.8325E-03     18.3062E-03
             694            1417     17.8325E-03     18.3062E-03
             733            1417     17.8325E-03     18.3062E-03
             694            1418     15.4321E-03     16.1388E-03
             735            1418     15.4321E-03     16.1388E-03
             734            1418     15.4321E-03     16.1388E-03
             695            1418     15.4321E-03     16.1388E-03
             735            1419     13.7233E-03     13.9211E-03
             695            1419     13.7233E-03     13.9211E-03
             696            1419     13.7233E-03     13.9211E-03
             736            1419     13.7233E-03     13.9211E-03
             697            1420     11.9272E-03     12.3534E-03
             696            1420     11.9272E-03     12.3534E-03
             737            1420     11.9272E-03     12.3534E-03
             736            1420     11.9272E-03     12.3534E-03
             738            1421     10.9133E-03     11.2496E-03
             697            1421     10.9133E-03     11.2496E-03
             737            1421     10.9133E-03     11.2496E-03
             698            1421     10.9133E-03     11.2496E-03
             699            1422     10.2860E-03     10.4915E-03
             698            1422     10.2860E-03     10.4915E-03
             738            1422     10.2860E-03     10.4915E-03
             739            1422     10.2860E-03     10.4915E-03
             699            1423     9.00864E-03     10.7495E-03
             740            1423     9.00864E-03     10.7495E-03
             739            1423     9.00864E-03     10.7495E-03
             700            1423     9.00864E-03     10.7495E-03
             700            1424     9.37537E-03     9.65628E-03
             740            1424     9.37537E-03     9.65628E-03
             701            1424     9.37537E-03     9.65628E-03
             741            1424     9.37537E-03     9.65628E-03
             701            1425     8.84116E-03     7.88862E-03
             742            1425     8.84116E-03     7.88862E-03
             702            1425     8.84116E-03     7.88862E-03
             741            1425     8.84116E-03     7.88862E-03
             702            1426     7.34137E-03     7.50963E-03
             743            1426     7.34137E-03     7.50963E-03
             742            1426     7.34137E-03     7.50963E-03
             703            1426     7.34137E-03     7.50963E-03
             704            1427     7.24953E-03     7.58422E-03
             703            1427     7.24953E-03     7.58422E-03
             744            1427     7.24953E-03     7.58422E-03
             743            1427     7.24953E-03     7.58422E-03
             705            1428     56.0762E-03     63.2084E-03
             746            1428     56.0762E-03     63.2084E-03
             745            1428     56.0762E-03     63.2084E-03
             706            1428     56.0762E-03     63.2084E-03
             747            1429     64.4654E-03     63.3872E-03
             746            1429     64.4654E-03     63.3872E-03
             706            1429     64.4654E-03     63.3872E-03
             707            1429     64.4654E-03     63.3872E-03
             747            1430     63.0485E-03     59.6857E-03
             748            1430     63.0485E-03     59.6857E-03
             708            1430     63.0485E-03     59.6857E-03
             707            1430     63.0485E-03     59.6857E-03
             708            1431     55.2479E-03     59.3107E-03
             748            1431     55.2479E-03     59.3107E-03
             749            1431     55.2479E-03     59.3107E-03
             709            1431     55.2479E-03     59.3107E-03
             710            1432     54.8207E-03     54.8074E-03
             749            1432     54.8207E-03     54.8074E-03
             750            1432     54.8207E-03     54.8074E-03
             709            1432     54.8207E-03     54.8074E-03
             750            1433     52.3152E-03     53.5735E-03
             711            1433     52.3152E-03     53.5735E-03
             751            1433     52.3152E-03     53.5735E-03
             710            1433     52.3152E-03     53.5735E-03
             752            1434     50.3946E-03     51.6208E-03
             711            1434     50.3946E-03     51.6208E-03
             751            1434     50.3946E-03     51.6208E-03
             712            1434     50.3946E-03     51.6208E-03
             753            1435     49.0449E-03     49.2297E-03
             713            1435     49.0449E-03     49.2297E-03
             712            1435     49.0449E-03     49.2297E-03
             752            1435     49.0449E-03     49.2297E-03
             714            1436     46.3050E-03     48.9746E-03
             754            1436     46.3050E-03     48.9746E-03
             713            1436     46.3050E-03     48.9746E-03
             753            1436     46.3050E-03     48.9746E-03
             754            1437     48.4447E-03     46.3415E-03
             714            1437     48.4447E-03     46.3415E-03
             755            1437     48.4447E-03     46.3415E-03
             715            1437     48.4447E-03     46.3415E-03
             756            1438     47.4420E-03     46.0581E-03
             715            1438     47.4420E-03     46.0581E-03
             716            1438     47.4420E-03     46.0581E-03
             755            1438     47.4420E-03     46.0581E-03
             756            1439     43.7556E-03     52.8250E-03
             716            1439     43.7556E-03     52.8250E-03
             757            1439     43.7556E-03     52.8250E-03
             717            1439     43.7556E-03     52.8250E-03
             717            1440     50.6427E-03     49.9167E-03
             718            1440     50.6427E-03     49.9167E-03
             758            1440     50.6427E-03     49.9167E-03
             757            1440     50.6427E-03     49.9167E-03
             718            1441     49.0266E-03     46.3064E-03
             758            1441     49.0266E-03     46.3064E-03
             759            1441     49.0266E-03     46.3064E-03
             719            1441     49.0266E-03     46.3064E-03
             719            1442     42.0671E-03     45.2927E-03
             759            1442     42.0671E-03     45.2927E-03
             720            1442     42.0671E-03     45.2927E-03
             760            1442     42.0671E-03     45.2927E-03
             721            1443     40.9871E-03     40.9527E-03
             761            1443     40.9871E-03     40.9527E-03
             720            1443     40.9871E-03     40.9527E-03
             760            1443     40.9871E-03     40.9527E-03
             721            1444     38.3391E-03     39.1462E-03
             762            1444     38.3391E-03     39.1462E-03
             761            1444     38.3391E-03     39.1462E-03
             722            1444     38.3391E-03     39.1462E-03
             762            1445     35.9225E-03     36.8287E-03
             723            1445     35.9225E-03     36.8287E-03
             722            1445     35.9225E-03     36.8287E-03
             763            1445     35.9225E-03     36.8287E-03
             764            1446     33.9161E-03     34.5582E-03
             723            1446     33.9161E-03     34.5582E-03
             763            1446     33.9161E-03     34.5582E-03
             724            1446     33.9161E-03     34.5582E-03
             765            1447     31.9198E-03     32.1506E-03
             724            1447     31.9198E-03     32.1506E-03
             764            1447     31.9198E-03     32.1506E-03
             725            1447     31.9198E-03     32.1506E-03
             725            1448     29.3254E-03     30.7559E-03
             765            1448     29.3254E-03     30.7559E-03
             766            1448     29.3254E-03     30.7559E-03
             726            1448     29.3254E-03     30.7559E-03
             767            1449     29.3983E-03     28.2563E-03
             766            1449     29.3983E-03     28.2563E-03
             726            1449     29.3983E-03     28.2563E-03
             727            1449     29.3983E-03     28.2563E-03
             728            1450     28.1632E-03     27.1530E-03
             768            1450     28.1632E-03     27.1530E-03
             767            1450     28.1632E-03     27.1530E-03
             727            1450     28.1632E-03     27.1530E-03
             769            1451     26.6824E-03     32.1634E-03
             728            1451     26.6824E-03     32.1634E-03
             768            1451     26.6824E-03     32.1634E-03
             729            1451     26.6824E-03     32.1634E-03
             770            1452     31.4206E-03     31.1712E-03
             729            1452     31.4206E-03     31.1712E-03
             769            1452     31.4206E-03     31.1712E-03
             730            1452     31.4206E-03     31.1712E-03
             770            1453     29.4775E-03     27.6738E-03
             730            1453     29.4775E-03     27.6738E-03
             771            1453     29.4775E-03     27.6738E-03
             731            1453     29.4775E-03     27.6738E-03
             731            1454     23.7533E-03     25.8203E-03
             772            1454     23.7533E-03     25.8203E-03
             732            1454     23.7533E-03     25.8203E-03
             771            1454     23.7533E-03     25.8203E-03
             732            1455     21.8632E-03     21.7370E-03
             772            1455     21.8632E-03     21.7370E-03
             773            1455     21.8632E-03     21.7370E-03
             733            1455     21.8632E-03     21.7370E-03
             773            1456     18.9390E-03     19.3645E-03
             774            1456     18.9390E-03     19.3645E-03
             734            1456     18.9390E-03     19.3645E-03
             733            1456     18.9390E-03     19.3645E-03
             734            1457     16.2435E-03     16.6258E-03
             775            1457     16.2435E-03     16.6258E-03
             735            1457     16.2435E-03     16.6258E-03
             774            1457     16.2435E-03     16.6258E-03
             735            1458     13.7785E-03     13.9310E-03
             776            1458     13.7785E-03     13.9310E-03
             736            1458     13.7785E-03     13.9310E-03
             775            1458     13.7785E-03     13.9310E-03
             777            1459     11.2889E-03     11.3786E-03
             776            1459     11.2889E-03     11.3786E-03
             737            1459     11.2889E-03     11.3786E-03
             736            1459     11.2889E-03     11.3786E-03
             737            1460     9.20585E-03     9.11787E-03
             777            1460     9.20585E-03     9.11787E-03
             738            1460     9.20585E-03     9.11787E-03
             778            1460     9.20585E-03     9.11787E-03
             779            1461     7.93854E-03     7.46880E-03
             778            1461     7.93854E-03     7.46880E-03
             738            1461     7.93854E-03     7.46880E-03
             739            1461     7.93854E-03     7.46880E-03
             779            1462     8.23719E-03     9.85460E-03
             780            1462     8.23719E-03     9.85460E-03
             739            1462     8.23719E-03     9.85460E-03
             740            1462     8.23719E-03     9.85460E-03
             741            1463     9.53114E-03     9.96861E-03
             780            1463     9.53114E-03     9.96861E-03
             740            1463     9.53114E-03     9.96861E-03
             781            1463     9.53114E-03     9.96861E-03
             781            1464     7.06755E-03     5.94087E-03
             782            1464     7.06755E-03     5.94087E-03
             742            1464     7.06755E-03     5.94087E-03
             741            1464     7.06755E-03     5.94087E-03
             782            1465     4.45989E-03     4.42537E-03
             743            1465     4.45989E-03     4.42537E-03
             742            1465     4.45989E-03     4.42537E-03
             783            1465     4.45989E-03     4.42537E-03
             743            1466     5.03823E-03     5.66498E-03
             744            1466     5.03823E-03     5.66498E-03
             783            1466     5.03823E-03     5.66498E-03
             784            1466     5.03823E-03     5.66498E-03
            1761            2351     948.820E-06     932.450E-06
            1757            2351     948.820E-06     932.450E-06
            1762            2351     948.820E-06     932.450E-06
            1758            2351     948.820E-06     932.450E-06
            1759            2352     954.547E-06     940.972E-06
            1758            2352     954.547E-06     940.972E-06
            1763            2352     954.547E-06     940.972E-06
            1762            2352     954.547E-06     940.972E-06
            1760            2353     942.261E-06     936.124E-06
            1759            2353     942.261E-06     936.124E-06
            1763            2353     942.261E-06     936.124E-06
            1764            2353     942.261E-06     936.124E-06
            1765            2354     875.229E-06     865.219E-06
            1762            2354     875.229E-06     865.219E-06
            1766            2354     875.229E-06     865.219E-06
            1761            2354     875.229E-06     865.219E-06
            1766            2355     881.947E-06     866.775E-06
            1767            2355     881.947E-06     866.775E-06
            1762            2355     881.947E-06     866.775E-06
            1763            2355     881.947E-06     866.775E-06
            1767            2356     863.268E-06     858.550E-06
            1768            2356     863.268E-06     858.550E-06
            1763            2356     863.268E-06     858.550E-06
            1764            2356     863.268E-06     858.550E-06
            1769            2357     766.296E-06     761.861E-06
            1765            2357     766.296E-06     761.861E-06
            1770            2357     766.296E-06     761.861E-06
            1766            2357     766.296E-06     761.861E-06
            1766            2358     765.812E-06     744.024E-06
            1770            2358     765.812E-06     744.024E-06
            1771            2358     765.812E-06     744.024E-06
            1767            2358     765.812E-06     744.024E-06
            1771            2359     737.197E-06     735.070E-06
            1767            2359     737.197E-06     735.070E-06
            1772            2359     737.197E-06     735.070E-06
            1768            2359     737.197E-06     735.070E-06
            1773            2360     622.556E-06     628.048E-06
            1769            2360     622.556E-06     628.048E-06
            1770            2360     622.556E-06     628.048E-06
            1774            2360     622.556E-06     628.048E-06
            1770            2361     615.380E-06     594.206E-06
            1775            2361     615.380E-06     594.206E-06
            1774            2361     615.380E-06     594.206E-06
            1771            2361     615.380E-06     594.206E-06
            1772            2362     566.707E-06     578.147E-06
            1775            2362     566.707E-06     578.147E-06
            1771            2362     566.707E-06     578.147E-06
            1776            2362     566.707E-06     578.147E-06
            1773            2363     474.731E-06     486.953E-06
            1777            2363     474.731E-06     486.953E-06
            1774            2363     474.731E-06     486.953E-06
            1778            2363     474.731E-06     486.953E-06
            1775            2364     454.108E-06     413.190E-06
            1774            2364     454.108E-06     413.190E-06
            1779            2364     454.108E-06     413.190E-06
            1778            2364     454.108E-06     413.190E-06
            1779            2365     361.985E-06     389.345E-06
            1775            2365     361.985E-06     389.345E-06
            1776            2365     361.985E-06     389.345E-06
            1780            2365     361.985E-06     389.345E-06
            1782            2366     520.211E-06     534.714E-06
            1781            2366     520.211E-06     534.714E-06
            1777            2366     520.211E-06     534.714E-06
            1778            2366     520.211E-06     534.714E-06
            1778            2367     400.847E-06     341.408E-06
            1782            2367     400.847E-06     341.408E-06
            1783            2367     400.847E-06     341.408E-06
            1779            2367     400.847E-06     341.408E-06
            1780            2368     245.695E-06     324.588E-06
            1779            2368     245.695E-06     324.588E-06
            1783            2368     245.695E-06     324.588E-06
            1784            2368     245.695E-06     324.588E-06
            2349            2836     107.042E-03     109.030E-03
            2344            2836     107.042E-03     109.030E-03
            2343            2836     107.042E-03     109.030E-03
            2350            2836     107.042E-03     109.030E-03
            2351            2837     106.975E-03     107.484E-03
            2344            2837     106.975E-03     107.484E-03
            2350            2837     106.975E-03     107.484E-03
            2345            2837     106.975E-03     107.484E-03
            2351            2838     103.595E-03     106.631E-03
            2345            2838     103.595E-03     106.631E-03
            2352            2838     103.595E-03     106.631E-03
            2346            2838     103.595E-03     106.631E-03
            2347            2839     105.141E-03     107.605E-03
            2346            2839     105.141E-03     107.605E-03
            2353            2839     105.141E-03     107.605E-03
            2352            2839     105.141E-03     107.605E-03
            2353            2840     91.0129E-03     90.3270E-03
            2347            2840     91.0129E-03     90.3270E-03
            2354            2840     91.0129E-03     90.3270E-03
            2348            2840     91.0129E-03     90.3270E-03
            2356            2841     124.795E-03     125.962E-03
            2355            2841     124.795E-03     125.962E-03
            2349            2841     124.795E-03     125.962E-03
            2350            2841     124.795E-03     125.962E-03
            2351            2842     125.601E-03     126.841E-03
            2356            2842     125.601E-03     126.841E-03
            2357            2842     125.601E-03     126.841E-03
            2350            2842     125.601E-03     126.841E-03
            2351            2843     125.659E-03     126.177E-03
            2352            2843     125.659E-03     126.177E-03
            2357            2843     125.659E-03     126.177E-03
            2358            2843     125.659E-03     126.177E-03
            2353            2844     127.614E-03     130.377E-03
            2358            2844     127.614E-03     130.377E-03
            2359            2844     127.614E-03     130.377E-03
            2352            2844     127.614E-03     130.377E-03
            2359            2845     106.305E-03     109.680E-03
            2360            2845     106.305E-03     109.680E-03
            2354            2845     106.305E-03     109.680E-03
            2353            2845     106.305E-03     109.680E-03
            2361            2846     144.360E-03     143.695E-03
            2355            2846     144.360E-03     143.695E-03
            2356            2846     144.360E-03     143.695E-03
            2362            2846     144.360E-03     143.695E-03
            2362            2847     145.303E-03     146.338E-03
            2357            2847     145.303E-03     146.338E-03
            2356            2847     145.303E-03     146.338E-03
            2363            2847     145.303E-03     146.338E-03
            2358            2848     146.038E-03     146.527E-03
            2357            2848     146.038E-03     146.527E-03
            2363            2848     146.038E-03     146.527E-03
            2364            2848     146.038E-03     146.527E-03
            2364            2849     146.107E-03     149.503E-03
            2365            2849     146.107E-03     149.503E-03
            2359            2849     146.107E-03     149.503E-03
            2358            2849     146.107E-03     149.503E-03
            2360            2850     120.362E-03     124.642E-03
            2365            2850     120.362E-03     124.642E-03
            2359            2850     120.362E-03     124.642E-03
            2366            2850     120.362E-03     124.642E-03
            2367            2851     161.375E-03     158.408E-03
            2368            2851     161.375E-03     158.408E-03
            2362            2851     161.375E-03     158.408E-03
            2361            2851     161.375E-03     158.408E-03
            2368            2852     162.263E-03     162.748E-03
            2363            2852     162.263E-03     162.748E-03
            2369            2852     162.263E-03     162.748E-03
            2362            2852     162.263E-03     162.748E-03
            2370            2853     162.424E-03     163.586E-03
            2363            2853     162.424E-03     163.586E-03
            2364            2853     162.424E-03     163.586E-03
            2369            2853     162.424E-03     163.586E-03
            2371            2854     162.033E-03     166.229E-03
            2365            2854     162.033E-03     166.229E-03
            2370            2854     162.033E-03     166.229E-03
            2364            2854     162.033E-03     166.229E-03
            2365            2855     132.622E-03     137.860E-03
            2371            2855     132.622E-03     137.860E-03
            2366            2855     132.622E-03     137.860E-03
            2372            2855     132.622E-03     137.860E-03
            2374            2856     170.657E-03     168.776E-03
            2367            2856     170.657E-03     168.776E-03
            2373            2856     170.657E-03     168.776E-03
            2368            2856     170.657E-03     168.776E-03
            2374            2857     172.509E-03     174.627E-03
            2375            2857     172.509E-03     174.627E-03
            2368            2857     172.509E-03     174.627E-03
            2369            2857     172.509E-03     174.627E-03
            2369            2858     175.965E-03     177.506E-03
            2375            2858     175.965E-03     177.506E-03
            2376            2858     175.965E-03     177.506E-03
            2370            2858     175.965E-03     177.506E-03
            2371            2859     178.857E-03     180.686E-03
            2370            2859     178.857E-03     180.686E-03
            2376            2859     178.857E-03     180.686E-03
            2377            2859     178.857E-03     180.686E-03
            2377            2860     144.128E-03     148.276E-03
            2372            2860     144.128E-03     148.276E-03
            2378            2860     144.128E-03     148.276E-03
            2371            2860     144.128E-03     148.276E-03
            2373            2861     171.141E-03     174.098E-03
            2379            2861     171.141E-03     174.098E-03
            2380            2861     171.141E-03     174.098E-03
            2374            2861     171.141E-03     174.098E-03
            2375            2862     177.394E-03     180.296E-03
            2381            2862     177.394E-03     180.296E-03
            2374            2862     177.394E-03     180.296E-03
            2380            2862     177.394E-03     180.296E-03
            2382            2863     185.785E-03     185.966E-03
            2381            2863     185.785E-03     185.966E-03
            2376            2863     185.785E-03     185.966E-03
            2375            2863     185.785E-03     185.966E-03
            2383            2864     192.099E-03     190.163E-03
            2377            2864     192.099E-03     190.163E-03
            2382            2864     192.099E-03     190.163E-03
            2376            2864     192.099E-03     190.163E-03
            2377            2865     151.443E-03     152.735E-03
            2383            2865     151.443E-03     152.735E-03
            2378            2865     151.443E-03     152.735E-03
            2384            2865     151.443E-03     152.735E-03
            3502            3869     17.5705E-03     16.7051E-03
            3551            3869     17.5705E-03     16.7051E-03
            3552            3869     17.5705E-03     16.7051E-03
            3501            3869     17.5705E-03     16.7051E-03
            3502            3870     18.4157E-03     17.8581E-03
            3553            3870     18.4157E-03     17.8581E-03
            3552            3870     18.4157E-03     17.8581E-03
            3503            3870     18.4157E-03     17.8581E-03
            3503            3871     17.2771E-03     18.5232E-03
            3554            3871     17.2771E-03     18.5232E-03
            3504            3871     17.2771E-03     18.5232E-03
            3553            3871     17.2771E-03     18.5232E-03
            3504            3872     17.8380E-03     18.0625E-03
            3554            3872     17.8380E-03     18.0625E-03
            3555            3872     17.8380E-03     18.0625E-03
            3505            3872     17.8380E-03     18.0625E-03
            3555            3873     17.8552E-03     18.0467E-03
            3556            3873     17.8552E-03     18.0467E-03
            3506            3873     17.8552E-03     18.0467E-03
            3505            3873     17.8552E-03     18.0467E-03
            3557            3874     17.5564E-03     17.6362E-03
            3507            3874     17.5564E-03     17.6362E-03
            3506            3874     17.5564E-03     17.6362E-03
            3556            3874     17.5564E-03     17.6362E-03
            3558            3875     17.0985E-03     17.4410E-03
            3507            3875     17.0985E-03     17.4410E-03
            3557            3875     17.0985E-03     17.4410E-03
            3508            3875     17.0985E-03     17.4410E-03
            3509            3876     17.3212E-03     16.3334E-03
            3559            3876     17.3212E-03     16.3334E-03
            3558            3876     17.3212E-03     16.3334E-03
            3508            3876     17.3212E-03     16.3334E-03
            3510            3877     16.2668E-03     15.9290E-03
            3559            3877     16.2668E-03     15.9290E-03
            3560            3877     16.2668E-03     15.9290E-03
            3509            3877     16.2668E-03     15.9290E-03
            3511            3878     14.9592E-03     16.5687E-03
            3561            3878     14.9592E-03     16.5687E-03
            3510            3878     14.9592E-03     16.5687E-03
            3560            3878     14.9592E-03     16.5687E-03
            3511            3879     17.2791E-03     16.4195E-03
            3561            3879     17.2791E-03     16.4195E-03
            3562            3879     17.2791E-03     16.4195E-03
            3512            3879     17.2791E-03     16.4195E-03
            3562            3880     17.8750E-03     17.4248E-03
            3563            3880     17.8750E-03     17.4248E-03
            3513            3880     17.8750E-03     17.4248E-03
            3512            3880     17.8750E-03     17.4248E-03
            3513            3881     16.7607E-03     17.8666E-03
            3563            3881     16.7607E-03     17.8666E-03
            3564            3881     16.7607E-03     17.8666E-03
            3514            3881     16.7607E-03     17.8666E-03
            3514            3882     17.2091E-03     17.3178E-03
            3565            3882     17.2091E-03     17.3178E-03
            3515            3882     17.2091E-03     17.3178E-03
            3564            3882     17.2091E-03     17.3178E-03
            3516            3883     17.1153E-03     17.3129E-03
            3565            3883     17.1153E-03     17.3129E-03
            3515            3883     17.1153E-03     17.3129E-03
            3566            3883     17.1153E-03     17.3129E-03
            3516            3884     16.8847E-03     16.9443E-03
            3517            3884     16.8847E-03     16.9443E-03
            3567            3884     16.8847E-03     16.9443E-03
            3566            3884     16.8847E-03     16.9443E-03
            3568            3885     16.6433E-03     16.4144E-03
            3517            3885     16.6433E-03     16.4144E-03
            3518            3885     16.6433E-03     16.4144E-03
            3567            3885     16.6433E-03     16.4144E-03
            3518            3886     16.1637E-03     16.1916E-03
            3569            3886     16.1637E-03     16.1916E-03
            3568            3886     16.1637E-03     16.1916E-03
            3519            3886     16.1637E-03     16.1916E-03
            3570            3887     16.1374E-03     15.2566E-03
            3519            3887     16.1374E-03     15.2566E-03
            3520            3887     16.1374E-03     15.2566E-03
            3569            3887     16.1374E-03     15.2566E-03
            3520            3888     15.2996E-03     14.9930E-03
            3571            3888     15.2996E-03     14.9930E-03
            3570            3888     15.2996E-03     14.9930E-03
            3521            3888     15.2996E-03     14.9930E-03
            3522            3889     14.6557E-03     15.7393E-03
            3571            3889     14.6557E-03     15.7393E-03
            3521            3889     14.6557E-03     15.7393E-03
            3572            3889     14.6557E-03     15.7393E-03
            3572            3890     16.6761E-03     15.9333E-03
            3523            3890     16.6761E-03     15.9333E-03
            3522            3890     16.6761E-03     15.9333E-03
            3573            3890     16.6761E-03     15.9333E-03
            3574            3891     17.0124E-03     16.7017E-03
            3573            3891     17.0124E-03     16.7017E-03
            3523            3891     17.0124E-03     16.7017E-03
            3524            3891     17.0124E-03     16.7017E-03
            3524            3892     16.0239E-03     16.8934E-03
            3574            3892     16.0239E-03     16.8934E-03
            3575            3892     16.0239E-03     16.8934E-03
            3525            3892     16.0239E-03     16.8934E-03
            3525            3893     16.2822E-03     16.3591E-03
            3526            3893     16.2822E-03     16.3591E-03
            3576            3893     16.2822E-03     16.3591E-03
            3575            3893     16.2822E-03     16.3591E-03
            3526            3894     16.1186E-03     16.2469E-03
            3576            3894     16.1186E-03     16.2469E-03
            3527            3894     16.1186E-03     16.2469E-03
            3577            3894     16.1186E-03     16.2469E-03
            3528            3895     15.8550E-03     15.8769E-03
            3578            3895     15.8550E-03     15.8769E-03
            3527            3895     15.8550E-03     15.8769E-03
            3577            3895     15.8550E-03     15.8769E-03
            3528            3896     15.6218E-03     15.4213E-03
            3529            3896     15.6218E-03     15.4213E-03
            3578            3896     15.6218E-03     15.4213E-03
            3579            3896     15.6218E-03     15.4213E-03
            3529            3897     15.2738E-03     15.1530E-03
            3530            3897     15.2738E-03     15.1530E-03
            3580            3897     15.2738E-03     15.1530E-03
            3579            3897     15.2738E-03     15.1530E-03
            3530            3898     15.1015E-03     14.5039E-03
            3531            3898     15.1015E-03     14.5039E-03
            3580            3898     15.1015E-03     14.5039E-03
            3581            3898     15.1015E-03     14.5039E-03
            3532            3899     14.5446E-03     14.3326E-03
            3582            3899     14.5446E-03     14.3326E-03
            3581            3899     14.5446E-03     14.3326E-03
            3531            3899     14.5446E-03     14.3326E-03
            3532            3900     14.6097E-03     15.1242E-03
            3533            3900     14.6097E-03     15.1242E-03
            3582            3900     14.6097E-03     15.1242E-03
            3583            3900     14.6097E-03     15.1242E-03
            3584            3901     16.2360E-03     15.6657E-03
            3534            3901     16.2360E-03     15.6657E-03
            3583            3901     16.2360E-03     15.6657E-03
            3533            3901     16.2360E-03     15.6657E-03
            3534            3902     16.3431E-03     16.1394E-03
            3535            3902     16.3431E-03     16.1394E-03
            3584            3902     16.3431E-03     16.1394E-03
            3585            3902     16.3431E-03     16.1394E-03
            3586            3903     15.5905E-03     16.1237E-03
            3535            3903     15.5905E-03     16.1237E-03
            3536            3903     15.5905E-03     16.1237E-03
            3585            3903     15.5905E-03     16.1237E-03
            3586            3904     15.6675E-03     15.6871E-03
            3587            3904     15.6675E-03     15.6871E-03
            3537            3904     15.6675E-03     15.6871E-03
            3536            3904     15.6675E-03     15.6871E-03
            3587            3905     15.4790E-03     15.5317E-03
            3538            3905     15.4790E-03     15.5317E-03
            3588            3905     15.4790E-03     15.5317E-03
            3537            3905     15.4790E-03     15.5317E-03
            3538            3906     15.2490E-03     15.2447E-03
            3589            3906     15.2490E-03     15.2447E-03
            3588            3906     15.2490E-03     15.2447E-03
            3539            3906     15.2490E-03     15.2447E-03
            3590            3907     15.0832E-03     14.9347E-03
            3540            3907     15.0832E-03     14.9347E-03
            3589            3907     15.0832E-03     14.9347E-03
            3539            3907     15.0832E-03     14.9347E-03
            3591            3908     14.8927E-03     14.7252E-03
            3541            3908     14.8927E-03     14.7252E-03
            3540            3908     14.8927E-03     14.7252E-03
            3590            3908     14.8927E-03     14.7252E-03
            3541            3909     14.7272E-03     14.4277E-03
            3542            3909     14.7272E-03     14.4277E-03
            3592            3909     14.7272E-03     14.4277E-03
            3591            3909     14.7272E-03     14.4277E-03
            3593            3910     14.4798E-03     14.2972E-03
            3592            3910     14.4798E-03     14.2972E-03
            3543            3910     14.4798E-03     14.2972E-03
            3542            3910     14.4798E-03     14.2972E-03
            3543            3911     14.9856E-03     15.0069E-03
            3544            3911     14.9856E-03     15.0069E-03
            3594            3911     14.9856E-03     15.0069E-03
            3593            3911     14.9856E-03     15.0069E-03
            3594            3912     16.0262E-03     15.7446E-03
            3595            3912     16.0262E-03     15.7446E-03
            3544            3912     16.0262E-03     15.7446E-03
            3545            3912     16.0262E-03     15.7446E-03
            3546            3913     16.0424E-03     15.9132E-03
            3595            3913     16.0424E-03     15.9132E-03
            3596            3913     16.0424E-03     15.9132E-03
            3545            3913     16.0424E-03     15.9132E-03
            3597            3914     15.7453E-03     15.8231E-03
            3547            3914     15.7453E-03     15.8231E-03
            3546            3914     15.7453E-03     15.8231E-03
            3596            3914     15.7453E-03     15.8231E-03
            3548            3915     15.7454E-03     15.6721E-03
            3547            3915     15.7454E-03     15.6721E-03
            3597            3915     15.7454E-03     15.6721E-03
            3598            3915     15.7454E-03     15.6721E-03
            3599            3916     15.7198E-03     15.6263E-03
            3548            3916     15.7198E-03     15.6263E-03
            3549            3916     15.7198E-03     15.6263E-03
            3598            3916     15.7198E-03     15.6263E-03
            3550            3917     15.6188E-03     15.4656E-03
            3600            3917     15.6188E-03     15.4656E-03
            3549            3917     15.6188E-03     15.4656E-03
            3599            3917     15.6188E-03     15.4656E-03
            3551            3918     30.3851E-03     29.0079E-03
            3552            3918     30.3851E-03     29.0079E-03
            3601            3918     30.3851E-03     29.0079E-03
            3602            3918     30.3851E-03     29.0079E-03
            3552            3919     32.1150E-03     30.1178E-03
            3602            3919     32.1150E-03     30.1178E-03
            3603            3919     32.1150E-03     30.1178E-03
            3553            3919     32.1150E-03     30.1178E-03
            3604            3920     29.7271E-03     31.3627E-03
            3554            3920     29.7271E-03     31.3627E-03
            3603            3920     29.7271E-03     31.3627E-03
            3553            3920     29.7271E-03     31.3627E-03
            3604            3921     30.2412E-03     30.0214E-03
            3605            3921     30.2412E-03     30.0214E-03
            3554            3921     30.2412E-03     30.0214E-03
            3555            3921     30.2412E-03     30.0214E-03
            3556            3922     30.0056E-03     29.8195E-03
            3605            3922     30.0056E-03     29.8195E-03
            3606            3922     30.0056E-03     29.8195E-03
            3555            3922     30.0056E-03     29.8195E-03
            3557            3923     29.1887E-03     29.1868E-03
            3556            3923     29.1887E-03     29.1868E-03
            3607            3923     29.1887E-03     29.1868E-03
            3606            3923     29.1887E-03     29.1868E-03
            3608            3924     28.0202E-03     29.2798E-03
            3558            3924     28.0202E-03     29.2798E-03
            3607            3924     28.0202E-03     29.2798E-03
            3557            3924     28.0202E-03     29.2798E-03
            3559            3925     28.9015E-03     27.3281E-03
            3608            3925     28.9015E-03     27.3281E-03
            3609            3925     28.9015E-03     27.3281E-03
            3558            3925     28.9015E-03     27.3281E-03
            3609            3926     26.8364E-03     25.8899E-03
            3560            3926     26.8364E-03     25.8899E-03
            3610            3926     26.8364E-03     25.8899E-03
            3559            3926     26.8364E-03     25.8899E-03
            3561            3927     23.4903E-03     27.4037E-03
            3610            3927     23.4903E-03     27.4037E-03
            3560            3927     23.4903E-03     27.4037E-03
            3611            3927     23.4903E-03     27.4037E-03
            3562            3928     27.7687E-03     26.4681E-03
            3612            3928     27.7687E-03     26.4681E-03
            3611            3928     27.7687E-03     26.4681E-03
            3561            3928     27.7687E-03     26.4681E-03
            3562            3929     29.0949E-03     27.2277E-03
            3612            3929     29.0949E-03     27.2277E-03
            3563            3929     29.0949E-03     27.2277E-03
            3613            3929     29.0949E-03     27.2277E-03
            3563            3930     26.7160E-03     28.0829E-03
            3613            3930     26.7160E-03     28.0829E-03
            3614            3930     26.7160E-03     28.0829E-03
            3564            3930     26.7160E-03     28.0829E-03
            3564            3931     27.0586E-03     26.5568E-03
            3615            3931     27.0586E-03     26.5568E-03
            3614            3931     27.0586E-03     26.5568E-03
            3565            3931     27.0586E-03     26.5568E-03
            3565            3932     26.4695E-03     26.3392E-03
            3615            3932     26.4695E-03     26.3392E-03
            3616            3932     26.4695E-03     26.3392E-03
            3566            3932     26.4695E-03     26.3392E-03
            3566            3933     25.7422E-03     25.7801E-03
            3617            3933     25.7422E-03     25.7801E-03
            3567            3933     25.7422E-03     25.7801E-03
            3616            3933     25.7422E-03     25.7801E-03
            3618            3934     25.1211E-03     24.9156E-03
            3568            3934     25.1211E-03     24.9156E-03
            3617            3934     25.1211E-03     24.9156E-03
            3567            3934     25.1211E-03     24.9156E-03
            3569            3935     23.8992E-03     24.8617E-03
            3619            3935     23.8992E-03     24.8617E-03
            3618            3935     23.8992E-03     24.8617E-03
            3568            3935     23.8992E-03     24.8617E-03
            3619            3936     24.2981E-03     23.1271E-03
            3620            3936     24.2981E-03     23.1271E-03
            3569            3936     24.2981E-03     23.1271E-03
            3570            3936     24.2981E-03     23.1271E-03
            3620            3937     22.6188E-03     21.8916E-03
            3570            3937     22.6188E-03     21.8916E-03
            3621            3937     22.6188E-03     21.8916E-03
            3571            3937     22.6188E-03     21.8916E-03
            3572            3938     20.3095E-03     23.2713E-03
            3621            3938     20.3095E-03     23.2713E-03
            3571            3938     20.3095E-03     23.2713E-03
            3622            3938     20.3095E-03     23.2713E-03
            3573            3939     23.8333E-03     22.7594E-03
            3572            3939     23.8333E-03     22.7594E-03
            3623            3939     23.8333E-03     22.7594E-03
            3622            3939     23.8333E-03     22.7594E-03
            3574            3940     24.6766E-03     23.1707E-03
            3573            3940     24.6766E-03     23.1707E-03
            3623            3940     24.6766E-03     23.1707E-03
            3624            3940     24.6766E-03     23.1707E-03
            3625            3941     22.5174E-03     23.5665E-03
            3574            3941     22.5174E-03     23.5665E-03
            3575            3941     22.5174E-03     23.5665E-03
            3624            3941     22.5174E-03     23.5665E-03
            3575            3942     22.5472E-03     22.1305E-03
            3576            3942     22.5472E-03     22.1305E-03
            3625            3942     22.5472E-03     22.1305E-03
            3626            3942     22.5472E-03     22.1305E-03
            3627            3943     21.8549E-03     21.7438E-03
            3576            3943     21.8549E-03     21.7438E-03
            3577            3943     21.8549E-03     21.7438E-03
            3626            3943     21.8549E-03     21.7438E-03
            3578            3944     21.0264E-03     21.1102E-03
            3577            3944     21.0264E-03     21.1102E-03
            3627            3944     21.0264E-03     21.1102E-03
            3628            3944     21.0264E-03     21.1102E-03
            3579            3945     20.3422E-03     20.2632E-03
            3578            3945     20.3422E-03     20.2632E-03
            3629            3945     20.3422E-03     20.2632E-03
            3628            3945     20.3422E-03     20.2632E-03
            3580            3946     19.3064E-03     19.8854E-03
            3579            3946     19.3064E-03     19.8854E-03
            3630            3946     19.3064E-03     19.8854E-03
            3629            3946     19.3064E-03     19.8854E-03
            3581            3947     19.1762E-03     18.5402E-03
            3580            3947     19.1762E-03     18.5402E-03
            3631            3947     19.1762E-03     18.5402E-03
            3630            3947     19.1762E-03     18.5402E-03
            3582            3948     17.9846E-03     17.5464E-03
            3631            3948     17.9846E-03     17.5464E-03
            3632            3948     17.9846E-03     17.5464E-03
            3581            3948     17.9846E-03     17.5464E-03
            3583            3949     16.9861E-03     18.7214E-03
            3633            3949     16.9861E-03     18.7214E-03
            3582            3949     16.9861E-03     18.7214E-03
            3632            3949     16.9861E-03     18.7214E-03
            3583            3950     19.5474E-03     18.7866E-03
            3633            3950     19.5474E-03     18.7866E-03
            3634            3950     19.5474E-03     18.7866E-03
            3584            3950     19.5474E-03     18.7866E-03
            3634            3951     19.8732E-03     18.8363E-03
            3584            3951     19.8732E-03     18.8363E-03
            3635            3951     19.8732E-03     18.8363E-03
            3585            3951     19.8732E-03     18.8363E-03
            3635            3952     18.1539E-03     18.7875E-03
            3586            3952     18.1539E-03     18.7875E-03
            3585            3952     18.1539E-03     18.7875E-03
            3636            3952     18.1539E-03     18.7875E-03
            3587            3953     17.9100E-03     17.6307E-03
            3636            3953     17.9100E-03     17.6307E-03
            3637            3953     17.9100E-03     17.6307E-03
            3586            3953     17.9100E-03     17.6307E-03
            3587            3954     17.2376E-03     17.1789E-03
            3637            3954     17.2376E-03     17.1789E-03
            3588            3954     17.2376E-03     17.1789E-03
            3638            3954     17.2376E-03     17.1789E-03
            3588            3955     16.4726E-03     16.6023E-03
            3589            3955     16.4726E-03     16.6023E-03
            3639            3955     16.4726E-03     16.6023E-03
            3638            3955     16.4726E-03     16.6023E-03
            3590            3956     15.8823E-03     15.9222E-03
            3639            3956     15.8823E-03     15.9222E-03
            3589            3956     15.8823E-03     15.9222E-03
            3640            3956     15.8823E-03     15.9222E-03
            3591            3957     15.2053E-03     15.3858E-03
            3640            3957     15.2053E-03     15.3858E-03
            3641            3957     15.2053E-03     15.3858E-03
            3590            3957     15.2053E-03     15.3858E-03
            3641            3958     14.7700E-03     14.6530E-03
            3591            3958     14.7700E-03     14.6530E-03
            3642            3958     14.7700E-03     14.6530E-03
            3592            3958     14.7700E-03     14.6530E-03
            3642            3959     14.2242E-03     14.0467E-03
            3593            3959     14.2242E-03     14.0467E-03
            3592            3959     14.2242E-03     14.0467E-03
            3643            3959     14.2242E-03     14.0467E-03
            3593            3960     14.4221E-03     14.7932E-03
            3594            3960     14.4221E-03     14.7932E-03
            3644            3960     14.4221E-03     14.7932E-03
            3643            3960     14.4221E-03     14.7932E-03
            3644            3961     15.6445E-03     15.4034E-03
            3645            3961     15.6445E-03     15.4034E-03
            3595            3961     15.6445E-03     15.4034E-03
            3594            3961     15.6445E-03     15.4034E-03
            3645            3962     15.6089E-03     15.3285E-03
            3646            3962     15.6089E-03     15.3285E-03
            3595            3962     15.6089E-03     15.3285E-03
            3596            3962     15.6089E-03     15.3285E-03
            3597            3963     14.8949E-03     15.0980E-03
            3596            3963     14.8949E-03     15.0980E-03
            3647            3963     14.8949E-03     15.0980E-03
            3646            3963     14.8949E-03     15.0980E-03
            3648            3964     14.7165E-03     14.6461E-03
            3597            3964     14.7165E-03     14.6461E-03
            3647            3964     14.7165E-03     14.6461E-03
            3598            3964     14.7165E-03     14.6461E-03
            3649            3965     14.5680E-03     14.4962E-03
            3599            3965     14.5680E-03     14.4962E-03
            3598            3965     14.5680E-03     14.4962E-03
            3648            3965     14.5680E-03     14.4962E-03
            3650            3966     14.3922E-03     14.2395E-03
            3649            3966     14.3922E-03     14.2395E-03
            3599            3966     14.3922E-03     14.2395E-03
            3600            3966     14.3922E-03     14.2395E-03
            3652            3967     43.2676E-03     41.6613E-03
            3601            3967     43.2676E-03     41.6613E-03
            3602            3967     43.2676E-03     41.6613E-03
            3651            3967     43.2676E-03     41.6613E-03
            3653            3968     45.4074E-03     41.8430E-03
            3652            3968     45.4074E-03     41.8430E-03
            3602            3968     45.4074E-03     41.8430E-03
            3603            3968     45.4074E-03     41.8430E-03
            3654            3969     40.9330E-03     42.8691E-03
            3653            3969     40.9330E-03     42.8691E-03
            3603            3969     40.9330E-03     42.8691E-03
            3604            3969     40.9330E-03     42.8691E-03
            3655            3970     41.0798E-03     40.3312E-03
            3604            3970     41.0798E-03     40.3312E-03
            3605            3970     41.0798E-03     40.3312E-03
            3654            3970     41.0798E-03     40.3312E-03
            3656            3971     40.6043E-03     39.9005E-03
            3655            3971     40.6043E-03     39.9005E-03
            3605            3971     40.6043E-03     39.9005E-03
            3606            3971     40.6043E-03     39.9005E-03
            3657            3972     39.6280E-03     39.2712E-03
            3656            3972     39.6280E-03     39.2712E-03
            3606            3972     39.6280E-03     39.2712E-03
            3607            3972     39.6280E-03     39.2712E-03
            3658            3973     38.3606E-03     40.1868E-03
            3657            3973     38.3606E-03     40.1868E-03
            3607            3973     38.3606E-03     40.1868E-03
            3608            3973     38.3606E-03     40.1868E-03
            3659            3974     40.6338E-03     38.2205E-03
            3608            3974     40.6338E-03     38.2205E-03
            3609            3974     40.6338E-03     38.2205E-03
            3658            3974     40.6338E-03     38.2205E-03
            3660            3975     37.9592E-03     36.9033E-03
            3659            3975     37.9592E-03     36.9033E-03
            3609            3975     37.9592E-03     36.9033E-03
            3610            3975     37.9592E-03     36.9033E-03
            3660            3976     32.5191E-03     39.6409E-03
            3610            3976     32.5191E-03     39.6409E-03
            3611            3976     32.5191E-03     39.6409E-03
            3661            3976     32.5191E-03     39.6409E-03
            3662            3977     38.7869E-03     37.3351E-03
            3661            3977     38.7869E-03     37.3351E-03
            3611            3977     38.7869E-03     37.3351E-03
            3612            3977     38.7869E-03     37.3351E-03
            3663            3978     40.3936E-03     37.1509E-03
            3662            3978     40.3936E-03     37.1509E-03
            3612            3978     40.3936E-03     37.1509E-03
            3613            3978     40.3936E-03     37.1509E-03
            3664            3979     36.0132E-03     37.7757E-03
            3663            3979     36.0132E-03     37.7757E-03
            3613            3979     36.0132E-03     37.7757E-03
            3614            3979     36.0132E-03     37.7757E-03
            3665            3980     35.9281E-03     34.9953E-03
            3614            3980     35.9281E-03     34.9953E-03
            3615            3980     35.9281E-03     34.9953E-03
            3664            3980     35.9281E-03     34.9953E-03
            3666            3981     34.8168E-03     34.4832E-03
            3665            3981     34.8168E-03     34.4832E-03
            3615            3981     34.8168E-03     34.4832E-03
            3616            3981     34.8168E-03     34.4832E-03
            3667            3982     33.8144E-03     33.7330E-03
            3616            3982     33.8144E-03     33.7330E-03
            3617            3982     33.8144E-03     33.7330E-03
            3666            3982     33.8144E-03     33.7330E-03
            3668            3983     33.1835E-03     32.7570E-03
            3667            3983     33.1835E-03     32.7570E-03
            3617            3983     33.1835E-03     32.7570E-03
            3618            3983     33.1835E-03     32.7570E-03
            3669            3984     31.7863E-03     33.4069E-03
            3668            3984     31.7863E-03     33.4069E-03
            3618            3984     31.7863E-03     33.4069E-03
            3619            3984     31.7863E-03     33.4069E-03
            3670            3985     33.2074E-03     31.5683E-03
            3619            3985     33.2074E-03     31.5683E-03
            3620            3985     33.2074E-03     31.5683E-03
            3669            3985     33.2074E-03     31.5683E-03
            3670            3986     30.9866E-03     30.2298E-03
            3620            3986     30.9866E-03     30.2298E-03
            3671            3986     30.9866E-03     30.2298E-03
            3621            3986     30.9866E-03     30.2298E-03
            3622            3987     26.8157E-03     32.4480E-03
            3671            3987     26.8157E-03     32.4480E-03
            3672            3987     26.8157E-03     32.4480E-03
            3621            3987     26.8157E-03     32.4480E-03
            3672            3988     31.8283E-03     30.6247E-03
            3623            3988     31.8283E-03     30.6247E-03
            3622            3988     31.8283E-03     30.6247E-03
            3673            3988     31.8283E-03     30.6247E-03
            3624            3989     32.8376E-03     30.1153E-03
            3674            3989     32.8376E-03     30.1153E-03
            3623            3989     32.8376E-03     30.1153E-03
            3673            3989     32.8376E-03     30.1153E-03
            3625            3990     28.9292E-03     30.2838E-03
            3624            3990     28.9292E-03     30.2838E-03
            3674            3990     28.9292E-03     30.2838E-03
            3675            3990     28.9292E-03     30.2838E-03
            3676            3991     28.5231E-03     27.7582E-03
            3625            3991     28.5231E-03     27.7582E-03
            3675            3991     28.5231E-03     27.7582E-03
            3626            3991     28.5231E-03     27.7582E-03
            3677            3992     27.3123E-03     27.0316E-03
            3676            3992     27.3123E-03     27.0316E-03
            3626            3992     27.3123E-03     27.0316E-03
            3627            3992     27.3123E-03     27.0316E-03
            3628            3993     26.1144E-03     26.1305E-03
            3627            3993     26.1144E-03     26.1305E-03
            3678            3993     26.1144E-03     26.1305E-03
            3677            3993     26.1144E-03     26.1305E-03
            3628            3994     25.2457E-03     25.0631E-03
            3629            3994     25.2457E-03     25.0631E-03
            3678            3994     25.2457E-03     25.0631E-03
            3679            3994     25.2457E-03     25.0631E-03
            3629            3995     23.8835E-03     25.0197E-03
            3680            3995     23.8835E-03     25.0197E-03
            3630            3995     23.8835E-03     25.0197E-03
            3679            3995     23.8835E-03     25.0197E-03
            3631            3996     24.2072E-03     23.4318E-03
            3630            3996     24.2072E-03     23.4318E-03
            3681            3996     24.2072E-03     23.4318E-03
            3680            3996     24.2072E-03     23.4318E-03
            3631            3997     22.5005E-03     22.0914E-03
            3632            3997     22.5005E-03     22.0914E-03
            3681            3997     22.5005E-03     22.0914E-03
            3682            3997     22.5005E-03     22.0914E-03
            3682            3998     20.1013E-03     23.7253E-03
            3683            3998     20.1013E-03     23.7253E-03
            3632            3998     20.1013E-03     23.7253E-03
            3633            3998     20.1013E-03     23.7253E-03
            3684            3999     23.6217E-03     22.7680E-03
            3683            3999     23.6217E-03     22.7680E-03
            3633            3999     23.6217E-03     22.7680E-03
            3634            3999     23.6217E-03     22.7680E-03
            3635            4000     23.9464E-03     21.9624E-03
            3634            4000     23.9464E-03     21.9624E-03
            3684            4000     23.9464E-03     21.9624E-03
            3685            4000     23.9464E-03     21.9624E-03
            3635            4001     20.8154E-03     21.6746E-03
            3686            4001     20.8154E-03     21.6746E-03
            3636            4001     20.8154E-03     21.6746E-03
            3685            4001     20.8154E-03     21.6746E-03
            3637            4002     20.1430E-03     19.6394E-03
            3636            4002     20.1430E-03     19.6394E-03
            3687            4002     20.1430E-03     19.6394E-03
            3686            4002     20.1430E-03     19.6394E-03
            3637            4003     18.9750E-03     18.7883E-03
            3638            4003     18.9750E-03     18.7883E-03
            3687            4003     18.9750E-03     18.7883E-03
            3688            4003     18.9750E-03     18.7883E-03
            3638            4004     17.7399E-03     17.8575E-03
            3689            4004     17.7399E-03     17.8575E-03
            3639            4004     17.7399E-03     17.8575E-03
            3688            4004     17.7399E-03     17.8575E-03
            3689            4005     16.7725E-03     16.8488E-03
            3690            4005     16.7725E-03     16.8488E-03
            3639            4005     16.7725E-03     16.8488E-03
            3640            4005     16.7725E-03     16.8488E-03
            3691            4006     15.6477E-03     16.1962E-03
            3690            4006     15.6477E-03     16.1962E-03
            3641            4006     15.6477E-03     16.1962E-03
            3640            4006     15.6477E-03     16.1962E-03
            3642            4007     14.9679E-03     15.1152E-03
            3641            4007     14.9679E-03     15.1152E-03
            3691            4007     14.9679E-03     15.1152E-03
            3692            4007     14.9679E-03     15.1152E-03
            3693            4008     14.0547E-03     14.0274E-03
            3642            4008     14.0547E-03     14.0274E-03
            3643            4008     14.0547E-03     14.0274E-03
            3692            4008     14.0547E-03     14.0274E-03
            3694            4009     13.6550E-03     14.6705E-03
            3643            4009     13.6550E-03     14.6705E-03
            3644            4009     13.6550E-03     14.6705E-03
            3693            4009     13.6550E-03     14.6705E-03
            3644            4010     15.0669E-03     14.7273E-03
            3695            4010     15.0669E-03     14.7273E-03
            3694            4010     15.0669E-03     14.7273E-03
            3645            4010     15.0669E-03     14.7273E-03
            3646            4011     14.8561E-03     14.1311E-03
            3696            4011     14.8561E-03     14.1311E-03
            3645            4011     14.8561E-03     14.1311E-03
            3695            4011     14.8561E-03     14.1311E-03
            3697            4012     13.4411E-03     13.8274E-03
            3647            4012     13.4411E-03     13.8274E-03
            3696            4012     13.4411E-03     13.8274E-03
            3646            4012     13.4411E-03     13.8274E-03
            3647            4013     12.9886E-03     13.0581E-03
            3698            4013     12.9886E-03     13.0581E-03
            3648            4013     12.9886E-03     13.0581E-03
            3697            4013     12.9886E-03     13.0581E-03
            3648            4014     12.5954E-03     12.6750E-03
            3649            4014     12.5954E-03     12.6750E-03
            3699            4014     12.5954E-03     12.6750E-03
            3698            4014     12.5954E-03     12.6750E-03
            3700            4015     12.3445E-03     12.2764E-03
            3650            4015     12.3445E-03     12.2764E-03
            3649            4015     12.3445E-03     12.2764E-03
            3699            4015     12.3445E-03     12.2764E-03
            3702            4016     54.5422E-03     53.3737E-03
            3651            4016     54.5422E-03     53.3737E-03
            3652            4016     54.5422E-03     53.3737E-03
            3701            4016     54.5422E-03     53.3737E-03
            3702            4017     56.3172E-03     51.6187E-03
            3652            4017     56.3172E-03     51.6187E-03
            3653            4017     56.3172E-03     51.6187E-03
            3703            4017     56.3172E-03     51.6187E-03
            3654            4018     49.2975E-03     52.6305E-03
            3653            4018     49.2975E-03     52.6305E-03
            3703            4018     49.2975E-03     52.6305E-03
            3704            4018     49.2975E-03     52.6305E-03
            3655            4019     49.1369E-03     48.9948E-03
            3654            4019     49.1369E-03     48.9948E-03
            3704            4019     49.1369E-03     48.9948E-03
            3705            4019     49.1369E-03     48.9948E-03
            3655            4020     48.4917E-03     48.4372E-03
            3705            4020     48.4917E-03     48.4372E-03
            3706            4020     48.4917E-03     48.4372E-03
            3656            4020     48.4917E-03     48.4372E-03
            3657            4021     47.4085E-03     47.5330E-03
            3656            4021     47.4085E-03     47.5330E-03
            3706            4021     47.4085E-03     47.5330E-03
            3707            4021     47.4085E-03     47.5330E-03
            3708            4022     46.2512E-03     49.1234E-03
            3658            4022     46.2512E-03     49.1234E-03
            3657            4022     46.2512E-03     49.1234E-03
            3707            4022     46.2512E-03     49.1234E-03
            3658            4023     50.5863E-03     47.2788E-03
            3659            4023     50.5863E-03     47.2788E-03
            3708            4023     50.5863E-03     47.2788E-03
            3709            4023     50.5863E-03     47.2788E-03
            3710            4024     48.0706E-03     47.4401E-03
            3659            4024     48.0706E-03     47.4401E-03
            3660            4024     48.0706E-03     47.4401E-03
            3709            4024     48.0706E-03     47.4401E-03
            3661            4025     40.6777E-03     52.4303E-03
            3710            4025     40.6777E-03     52.4303E-03
            3711            4025     40.6777E-03     52.4303E-03
            3660            4025     40.6777E-03     52.4303E-03
            3661            4026     48.5173E-03     47.4714E-03
            3662            4026     48.5173E-03     47.4714E-03
            3712            4026     48.5173E-03     47.4714E-03
            3711            4026     48.5173E-03     47.4714E-03
            3663            4027     49.7719E-03     45.5738E-03
            3662            4027     49.7719E-03     45.5738E-03
            3713            4027     49.7719E-03     45.5738E-03
            3712            4027     49.7719E-03     45.5738E-03
            3663            4028     43.0903E-03     46.2797E-03
            3713            4028     43.0903E-03     46.2797E-03
            3664            4028     43.0903E-03     46.2797E-03
            3714            4028     43.0903E-03     46.2797E-03
            3714            4029     42.7496E-03     42.3673E-03
            3715            4029     42.7496E-03     42.3673E-03
            3665            4029     42.7496E-03     42.3673E-03
            3664            4029     42.7496E-03     42.3673E-03
            3715            4030     41.1845E-03     41.6595E-03
            3666            4030     41.1845E-03     41.6595E-03
            3665            4030     41.1845E-03     41.6595E-03
            3716            4030     41.1845E-03     41.6595E-03
            3667            4031     39.9313E-03     40.6215E-03
            3716            4031     39.9313E-03     40.6215E-03
            3666            4031     39.9313E-03     40.6215E-03
            3717            4031     39.9313E-03     40.6215E-03
            3668            4032     39.4124E-03     39.2446E-03
            3667            4032     39.4124E-03     39.2446E-03
            3717            4032     39.4124E-03     39.2446E-03
            3718            4032     39.4124E-03     39.2446E-03
            3668            4033     37.9659E-03     40.4814E-03
            3719            4033     37.9659E-03     40.4814E-03
            3669            4033     37.9659E-03     40.4814E-03
            3718            4033     37.9659E-03     40.4814E-03
            3670            4034     41.0018E-03     38.6887E-03
            3719            4034     41.0018E-03     38.6887E-03
            3720            4034     41.0018E-03     38.6887E-03
            3669            4034     41.0018E-03     38.6887E-03
            3671            4035     38.8735E-03     38.4667E-03
            3670            4035     38.8735E-03     38.4667E-03
            3721            4035     38.8735E-03     38.4667E-03
            3720            4035     38.8735E-03     38.4667E-03
            3721            4036     32.8993E-03     42.3035E-03
            3722            4036     32.8993E-03     42.3035E-03
            3672            4036     32.8993E-03     42.3035E-03
            3671            4036     32.8993E-03     42.3035E-03
            3722            4037     39.0336E-03     38.1550E-03
            3723            4037     39.0336E-03     38.1550E-03
            3672            4037     39.0336E-03     38.1550E-03
            3673            4037     39.0336E-03     38.1550E-03
            3674            4038     39.7435E-03     36.2261E-03
            3723            4038     39.7435E-03     36.2261E-03
            3724            4038     39.7435E-03     36.2261E-03
            3673            4038     39.7435E-03     36.2261E-03
            3725            4039     33.9210E-03     36.4724E-03
            3724            4039     33.9210E-03     36.4724E-03
            3675            4039     33.9210E-03     36.4724E-03
            3674            4039     33.9210E-03     36.4724E-03
            3676            4040     33.2374E-03     32.9100E-03
            3725            4040     33.2374E-03     32.9100E-03
            3726            4040     33.2374E-03     32.9100E-03
            3675            4040     33.2374E-03     32.9100E-03
            3727            4041     31.5730E-03     31.8600E-03
            3677            4041     31.5730E-03     31.8600E-03
            3726            4041     31.5730E-03     31.8600E-03
            3676            4041     31.5730E-03     31.8600E-03
            3678            4042     30.0328E-03     30.5802E-03
            3677            4042     30.0328E-03     30.5802E-03
            3728            4042     30.0328E-03     30.5802E-03
            3727            4042     30.0328E-03     30.5802E-03
            3729            4043     29.1363E-03     29.0551E-03
            3679            4043     29.1363E-03     29.0551E-03
            3678            4043     29.1363E-03     29.0551E-03
            3728            4043     29.1363E-03     29.0551E-03
            3680            4044     27.6218E-03     29.3152E-03
            3730            4044     27.6218E-03     29.3152E-03
            3729            4044     27.6218E-03     29.3152E-03
            3679            4044     27.6218E-03     29.3152E-03
            3731            4045     28.9465E-03     27.7429E-03
            3681            4045     28.9465E-03     27.7429E-03
            3730            4045     28.9465E-03     27.7429E-03
            3680            4045     28.9465E-03     27.7429E-03
            3732            4046     27.1872E-03     27.0411E-03
            3681            4046     27.1872E-03     27.0411E-03
            3682            4046     27.1872E-03     27.0411E-03
            3731            4046     27.1872E-03     27.0411E-03
            3683            4047     23.3121E-03     29.6111E-03
            3733            4047     23.3121E-03     29.6111E-03
            3682            4047     23.3121E-03     29.6111E-03
            3732            4047     23.3121E-03     29.6111E-03
            3734            4048     27.4783E-03     26.8528E-03
            3683            4048     27.4783E-03     26.8528E-03
            3733            4048     27.4783E-03     26.8528E-03
            3684            4048     27.4783E-03     26.8528E-03
            3684            4049     27.5661E-03     24.9855E-03
            3734            4049     27.5661E-03     24.9855E-03
            3735            4049     27.5661E-03     24.9855E-03
            3685            4049     27.5661E-03     24.9855E-03
            3686            4050     22.9720E-03     24.7254E-03
            3735            4050     22.9720E-03     24.7254E-03
            3736            4050     22.9720E-03     24.7254E-03
            3685            4050     22.9720E-03     24.7254E-03
            3736            4051     21.9742E-03     21.7272E-03
            3737            4051     21.9742E-03     21.7272E-03
            3686            4051     21.9742E-03     21.7272E-03
            3687            4051     21.9742E-03     21.7272E-03
            3738            4052     20.3198E-03     20.3757E-03
            3688            4052     20.3198E-03     20.3757E-03
            3687            4052     20.3198E-03     20.3757E-03
            3737            4052     20.3198E-03     20.3757E-03
            3689            4053     18.5979E-03     18.9398E-03
            3688            4053     18.5979E-03     18.9398E-03
            3739            4053     18.5979E-03     18.9398E-03
            3738            4053     18.5979E-03     18.9398E-03
            3689            4054     17.3974E-03     17.4023E-03
            3740            4054     17.3974E-03     17.4023E-03
            3739            4054     17.3974E-03     17.4023E-03
            3690            4054     17.3974E-03     17.4023E-03
            3691            4055     15.9575E-03     16.6822E-03
            3740            4055     15.9575E-03     16.6822E-03
            3741            4055     15.9575E-03     16.6822E-03
            3690            4055     15.9575E-03     16.6822E-03
            3742            4056     15.4299E-03     15.5394E-03
            3691            4056     15.4299E-03     15.5394E-03
            3741            4056     15.4299E-03     15.5394E-03
            3692            4056     15.4299E-03     15.5394E-03
            3743            4057     14.2769E-03     14.4663E-03
            3742            4057     14.2769E-03     14.4663E-03
            3693            4057     14.2769E-03     14.4663E-03
            3692            4057     14.2769E-03     14.4663E-03
            3743            4058     12.8134E-03     15.0826E-03
            3744            4058     12.8134E-03     15.0826E-03
            3693            4058     12.8134E-03     15.0826E-03
            3694            4058     12.8134E-03     15.0826E-03
            3695            4059     14.1579E-03     13.8915E-03
            3745            4059     14.1579E-03     13.8915E-03
            3694            4059     14.1579E-03     13.8915E-03
            3744            4059     14.1579E-03     13.8915E-03
            3745            4060     13.7413E-03     12.5612E-03
            3696            4060     13.7413E-03     12.5612E-03
            3695            4060     13.7413E-03     12.5612E-03
            3746            4060     13.7413E-03     12.5612E-03
            3747            4061     11.5118E-03     12.1046E-03
            3746            4061     11.5118E-03     12.1046E-03
            3696            4061     11.5118E-03     12.1046E-03
            3697            4061     11.5118E-03     12.1046E-03
            3698            4062     10.7757E-03     10.7683E-03
            3697            4062     10.7757E-03     10.7683E-03
            3748            4062     10.7757E-03     10.7683E-03
            3747            4062     10.7757E-03     10.7683E-03
            3698            4063     9.98292E-03     10.2532E-03
            3748            4063     9.98292E-03     10.2532E-03
            3749            4063     9.98292E-03     10.2532E-03
            3699            4063     9.98292E-03     10.2532E-03
            3700            4064     9.46410E-03     9.70214E-03
            3699            4064     9.46410E-03     9.70214E-03
            3750            4064     9.46410E-03     9.70214E-03
            3749            4064     9.46410E-03     9.70214E-03
            3701            4065     63.1524E-03     62.8107E-03
            3751            4065     63.1524E-03     62.8107E-03
            3752            4065     63.1524E-03     62.8107E-03
            3702            4065     63.1524E-03     62.8107E-03
            3702            4066     63.9465E-03     60.0719E-03
            3753            4066     63.9465E-03     60.0719E-03
            3752            4066     63.9465E-03     60.0719E-03
            3703            4066     63.9465E-03     60.0719E-03
            3753            4067     55.3000E-03     60.8893E-03
            3704            4067     55.3000E-03     60.8893E-03
            3703            4067     55.3000E-03     60.8893E-03
            3754            4067     55.3000E-03     60.8893E-03
            3755            4068     55.4709E-03     56.6084E-03
            3704            4068     55.4709E-03     56.6084E-03
            3705            4068     55.4709E-03     56.6084E-03
            3754            4068     55.4709E-03     56.6084E-03
            3756            4069     54.3820E-03     56.1843E-03
            3705            4069     54.3820E-03     56.1843E-03
            3755            4069     54.3820E-03     56.1843E-03
            3706            4069     54.3820E-03     56.1843E-03
            3756            4070     53.3444E-03     54.6597E-03
            3757            4070     53.3444E-03     54.6597E-03
            3706            4070     53.3444E-03     54.6597E-03
            3707            4070     53.3444E-03     54.6597E-03
            3707            4071     51.6573E-03     56.3042E-03
            3757            4071     51.6573E-03     56.3042E-03
            3758            4071     51.6573E-03     56.3042E-03
            3708            4071     51.6573E-03     56.3042E-03
            3708            4072     57.1900E-03     54.4217E-03
            3758            4072     57.1900E-03     54.4217E-03
            3709            4072     57.1900E-03     54.4217E-03
            3759            4072     57.1900E-03     54.4217E-03
            3710            4073     55.7857E-03     55.5232E-03
            3759            4073     55.7857E-03     55.5232E-03
            3760            4073     55.7857E-03     55.5232E-03
            3709            4073     55.7857E-03     55.5232E-03
            3711            4074     47.2618E-03     62.0463E-03
            3760            4074     47.2618E-03     62.0463E-03
            3710            4074     47.2618E-03     62.0463E-03
            3761            4074     47.2618E-03     62.0463E-03
            3762            4075     55.9736E-03     55.6716E-03
            3711            4075     55.9736E-03     55.6716E-03
            3761            4075     55.9736E-03     55.6716E-03
            3712            4075     55.9736E-03     55.6716E-03
            3763            4076     56.4912E-03     52.9330E-03
            3762            4076     56.4912E-03     52.9330E-03
            3713            4076     56.4912E-03     52.9330E-03
            3712            4076     56.4912E-03     52.9330E-03
            3763            4077     48.2698E-03     53.4640E-03
            3714            4077     48.2698E-03     53.4640E-03
            3764            4077     48.2698E-03     53.4640E-03
            3713            4077     48.2698E-03     53.4640E-03
            3764            4078     48.2815E-03     48.9028E-03
            3714            4078     48.2815E-03     48.9028E-03
            3765            4078     48.2815E-03     48.9028E-03
            3715            4078     48.2815E-03     48.9028E-03
            3715            4079     46.2281E-03     48.1460E-03
            3716            4079     46.2281E-03     48.1460E-03
            3766            4079     46.2281E-03     48.1460E-03
            3765            4079     46.2281E-03     48.1460E-03
            3716            4080     44.7265E-03     46.7791E-03
            3766            4080     44.7265E-03     46.7791E-03
            3717            4080     44.7265E-03     46.7791E-03
            3767            4080     44.7265E-03     46.7791E-03
            3718            4081     44.1940E-03     44.8651E-03
            3768            4081     44.1940E-03     44.8651E-03
            3767            4081     44.1940E-03     44.8651E-03
            3717            4081     44.1940E-03     44.8651E-03
            3719            4082     42.0796E-03     45.9838E-03
            3768            4082     42.0796E-03     45.9838E-03
            3718            4082     42.0796E-03     45.9838E-03
            3769            4082     42.0796E-03     45.9838E-03
            3719            4083     46.1049E-03     44.0494E-03
            3770            4083     46.1049E-03     44.0494E-03
            3720            4083     46.1049E-03     44.0494E-03
            3769            4083     46.1049E-03     44.0494E-03
            3721            4084     44.8238E-03     44.6336E-03
            3770            4084     44.8238E-03     44.6336E-03
            3720            4084     44.8238E-03     44.6336E-03
            3771            4084     44.8238E-03     44.6336E-03
            3771            4085     37.9048E-03     49.7232E-03
            3772            4085     37.9048E-03     49.7232E-03
            3721            4085     37.9048E-03     49.7232E-03
            3722            4085     37.9048E-03     49.7232E-03
            3723            4086     44.7326E-03     44.4964E-03
            3772            4086     44.7326E-03     44.4964E-03
            3722            4086     44.7326E-03     44.4964E-03
            3773            4086     44.7326E-03     44.4964E-03
            3774            4087     44.9060E-03     41.9025E-03
            3723            4087     44.9060E-03     41.9025E-03
            3724            4087     44.9060E-03     41.9025E-03
            3773            4087     44.9060E-03     41.9025E-03
            3774            4088     37.7355E-03     41.9002E-03
            3724            4088     37.7355E-03     41.9002E-03
            3775            4088     37.7355E-03     41.9002E-03
            3725            4088     37.7355E-03     41.9002E-03
            3775            4089     37.1966E-03     37.6261E-03
            3776            4089     37.1966E-03     37.6261E-03
            3726            4089     37.1966E-03     37.6261E-03
            3725            4089     37.1966E-03     37.6261E-03
            3727            4090     35.0097E-03     36.3773E-03
            3776            4090     35.0097E-03     36.3773E-03
            3726            4090     35.0097E-03     36.3773E-03
            3777            4090     35.0097E-03     36.3773E-03
            3778            4091     33.1353E-03     34.6716E-03
            3728            4091     33.1353E-03     34.6716E-03
            3777            4091     33.1353E-03     34.6716E-03
            3727            4091     33.1353E-03     34.6716E-03
            3779            4092     32.0947E-03     32.5870E-03
            3729            4092     32.0947E-03     32.5870E-03
            3728            4092     32.0947E-03     32.5870E-03
            3778            4092     32.0947E-03     32.5870E-03
            3729            4093     30.0043E-03     32.5681E-03
            3779            4093     30.0043E-03     32.5681E-03
            3780            4093     30.0043E-03     32.5681E-03
            3730            4093     30.0043E-03     32.5681E-03
            3780            4094     31.9451E-03     30.8083E-03
            3781            4094     31.9451E-03     30.8083E-03
            3731            4094     31.9451E-03     30.8083E-03
            3730            4094     31.9451E-03     30.8083E-03
            3781            4095     30.8037E-03     30.6993E-03
            3732            4095     30.8037E-03     30.6993E-03
            3782            4095     30.8037E-03     30.6993E-03
            3731            4095     30.8037E-03     30.6993E-03
            3732            4096     26.1822E-03     34.1986E-03
            3783            4096     26.1822E-03     34.1986E-03
            3733            4096     26.1822E-03     34.1986E-03
            3782            4096     26.1822E-03     34.1986E-03
            3733            4097     30.8455E-03     30.7078E-03
            3734            4097     30.8455E-03     30.7078E-03
            3783            4097     30.8455E-03     30.7078E-03
            3784            4097     30.8455E-03     30.7078E-03
            3785            4098     30.6248E-03     28.3574E-03
            3734            4098     30.6248E-03     28.3574E-03
            3784            4098     30.6248E-03     28.3574E-03
            3735            4098     30.6248E-03     28.3574E-03
            3736            4099     24.8745E-03     27.7331E-03
            3735            4099     24.8745E-03     27.7331E-03
            3786            4099     24.8745E-03     27.7331E-03
            3785            4099     24.8745E-03     27.7331E-03
            3786            4100     23.7346E-03     23.9205E-03
            3736            4100     23.7346E-03     23.9205E-03
            3787            4100     23.7346E-03     23.9205E-03
            3737            4100     23.7346E-03     23.9205E-03
            3737            4101     21.4798E-03     22.1630E-03
            3787            4101     21.4798E-03     22.1630E-03
            3738            4101     21.4798E-03     22.1630E-03
            3788            4101     21.4798E-03     22.1630E-03
            3789            4102     19.2785E-03     20.1567E-03
            3738            4102     19.2785E-03     20.1567E-03
            3788            4102     19.2785E-03     20.1567E-03
            3739            4102     19.2785E-03     20.1567E-03
            3739            4103     17.7470E-03     17.9987E-03
            3789            4103     17.7470E-03     17.9987E-03
            3790            4103     17.7470E-03     17.9987E-03
            3740            4103     17.7470E-03     17.9987E-03
            3740            4104     15.8274E-03     16.7791E-03
            3790            4104     15.8274E-03     16.7791E-03
            3791            4104     15.8274E-03     16.7791E-03
            3741            4104     15.8274E-03     16.7791E-03
            3742            4105     15.4415E-03     15.3919E-03
            3791            4105     15.4415E-03     15.3919E-03
            3741            4105     15.4415E-03     15.3919E-03
            3792            4105     15.4415E-03     15.3919E-03
            3792            4106     14.5751E-03     14.6068E-03
            3793            4106     14.5751E-03     14.6068E-03
            3742            4106     14.5751E-03     14.6068E-03
            3743            4106     14.5751E-03     14.6068E-03
            3743            4107     12.3416E-03     15.6705E-03
            3794            4107     12.3416E-03     15.6705E-03
            3744            4107     12.3416E-03     15.6705E-03
            3793            4107     12.3416E-03     15.6705E-03
            3744            4108     13.7181E-03     13.7820E-03
            3795            4108     13.7181E-03     13.7820E-03
            3794            4108     13.7181E-03     13.7820E-03
            3745            4108     13.7181E-03     13.7820E-03
            3745            4109     12.9088E-03     11.6825E-03
            3746            4109     12.9088E-03     11.6825E-03
            3796            4109     12.9088E-03     11.6825E-03
            3795            4109     12.9088E-03     11.6825E-03
            3797            4110     9.36372E-03     10.3295E-03
            3746            4110     9.36372E-03     10.3295E-03
            3747            4110     9.36372E-03     10.3295E-03
            3796            4110     9.36372E-03     10.3295E-03
            3748            4111     8.05997E-03     7.69714E-03
            3797            4111     8.05997E-03     7.69714E-03
            3798            4111     8.05997E-03     7.69714E-03
            3747            4111     8.05997E-03     7.69714E-03
            3748            4112     6.86571E-03     6.92265E-03
            3798            4112     6.86571E-03     6.92265E-03
            3749            4112     6.86571E-03     6.92265E-03
            3799            4112     6.86571E-03     6.92265E-03
            3799            4113     6.35835E-03     6.68291E-03
            3749            4113     6.35835E-03     6.68291E-03
            3750            4113     6.35835E-03     6.68291E-03
            3800            4113     6.35835E-03     6.68291E-03
            3801            4114     69.3829E-03     68.0561E-03
            3751            4114     69.3829E-03     68.0561E-03
            3752            4114     69.3829E-03     68.0561E-03
            3802            4114     69.3829E-03     68.0561E-03
            3803            4115     68.2679E-03     64.9347E-03
            3802            4115     68.2679E-03     64.9347E-03
            3753            4115     68.2679E-03     64.9347E-03
            3752            4115     68.2679E-03     64.9347E-03
            3803            4116     60.9566E-03     65.1525E-03
            3754            4116     60.9566E-03     65.1525E-03
            3804            4116     60.9566E-03     65.1525E-03
            3753            4116     60.9566E-03     65.1525E-03
            3754            4117     61.2319E-03     61.3667E-03
            3755            4117     61.2319E-03     61.3667E-03
            3804            4117     61.2319E-03     61.3667E-03
            3805            4117     61.2319E-03     61.3667E-03
            3806            4118     59.5808E-03     61.0044E-03
            3805            4118     59.5808E-03     61.0044E-03
            3756            4118     59.5808E-03     61.0044E-03
            3755            4118     59.5808E-03     61.0044E-03
            3756            4119     58.7488E-03     59.0559E-03
            3807            4119     58.7488E-03     59.0559E-03
            3757            4119     58.7488E-03     59.0559E-03
            3806            4119     58.7488E-03     59.0559E-03
            3757            4120     56.4938E-03     59.8669E-03
            3808            4120     56.4938E-03     59.8669E-03
            3807            4120     56.4938E-03     59.8669E-03
            3758            4120     56.4938E-03     59.8669E-03
            3808            4121     60.3589E-03     57.7329E-03
            3809            4121     60.3589E-03     57.7329E-03
            3759            4121     60.3589E-03     57.7329E-03
            3758            4121     60.3589E-03     57.7329E-03
            3759            4122     59.9485E-03     58.3802E-03
            3810            4122     59.9485E-03     58.3802E-03
            3760            4122     59.9485E-03     58.3802E-03
            3809            4122     59.9485E-03     58.3802E-03
            3760            4123     54.3271E-03     65.3532E-03
            3810            4123     54.3271E-03     65.3532E-03
            3811            4123     54.3271E-03     65.3532E-03
            3761            4123     54.3271E-03     65.3532E-03
            3761            4124     61.6735E-03     60.5351E-03
            3812            4124     61.6735E-03     60.5351E-03
            3762            4124     61.6735E-03     60.5351E-03
            3811            4124     61.6735E-03     60.5351E-03
            3813            4125     60.3173E-03     57.2893E-03
            3812            4125     60.3173E-03     57.2893E-03
            3763            4125     60.3173E-03     57.2893E-03
            3762            4125     60.3173E-03     57.2893E-03
            3763            4126     53.2120E-03     57.0434E-03
            3814            4126     53.2120E-03     57.0434E-03
            3813            4126     53.2120E-03     57.0434E-03
            3764            4126     53.2120E-03     57.0434E-03
            3765            4127     53.0951E-03     53.0040E-03
            3815            4127     53.0951E-03     53.0040E-03
            3814            4127     53.0951E-03     53.0040E-03
            3764            4127     53.0951E-03     53.0040E-03
            3766            4128     50.8798E-03     52.1108E-03
            3815            4128     50.8798E-03     52.1108E-03
            3816            4128     50.8798E-03     52.1108E-03
            3765            4128     50.8798E-03     52.1108E-03
            3766            4129     49.2938E-03     50.4817E-03
            3817            4129     49.2938E-03     50.4817E-03
            3767            4129     49.2938E-03     50.4817E-03
            3816            4129     49.2938E-03     50.4817E-03
            3818            4130     48.2938E-03     48.3854E-03
            3768            4130     48.2938E-03     48.3854E-03
            3767            4130     48.2938E-03     48.3854E-03
            3817            4130     48.2938E-03     48.3854E-03
            3818            4131     45.7956E-03     48.4811E-03
            3768            4131     45.7956E-03     48.4811E-03
            3769            4131     45.7956E-03     48.4811E-03
            3819            4131     45.7956E-03     48.4811E-03
            3769            4132     48.2342E-03     46.1933E-03
            3770            4132     48.2342E-03     46.1933E-03
            3820            4132     48.2342E-03     46.1933E-03
            3819            4132     48.2342E-03     46.1933E-03
            3770            4133     47.5276E-03     46.1542E-03
            3820            4133     47.5276E-03     46.1542E-03
            3821            4133     47.5276E-03     46.1542E-03
            3771            4133     47.5276E-03     46.1542E-03
            3822            4134     43.4324E-03     52.2336E-03
            3821            4134     43.4324E-03     52.2336E-03
            3771            4134     43.4324E-03     52.2336E-03
            3772            4134     43.4324E-03     52.2336E-03
            3772            4135     49.6358E-03     48.8166E-03
            3822            4135     49.6358E-03     48.8166E-03
            3823            4135     49.6358E-03     48.8166E-03
            3773            4135     49.6358E-03     48.8166E-03
            3823            4136     48.0390E-03     45.5299E-03
            3824            4136     48.0390E-03     45.5299E-03
            3774            4136     48.0390E-03     45.5299E-03
            3773            4136     48.0390E-03     45.5299E-03
            3824            4137     41.5407E-03     44.6604E-03
            3825            4137     41.5407E-03     44.6604E-03
            3774            4137     41.5407E-03     44.6604E-03
            3775            4137     41.5407E-03     44.6604E-03
            3775            4138     40.7716E-03     40.6441E-03
            3825            4138     40.7716E-03     40.6441E-03
            3776            4138     40.7716E-03     40.6441E-03
            3826            4138     40.7716E-03     40.6441E-03
            3776            4139     38.2970E-03     39.2140E-03
            3827            4139     38.2970E-03     39.2140E-03
            3777            4139     38.2970E-03     39.2140E-03
            3826            4139     38.2970E-03     39.2140E-03
            3777            4140     36.3064E-03     37.1714E-03
            3827            4140     36.3064E-03     37.1714E-03
            3828            4140     36.3064E-03     37.1714E-03
            3778            4140     36.3064E-03     37.1714E-03
            3778            4141     34.7444E-03     34.8558E-03
            3779            4141     34.7444E-03     34.8558E-03
            3828            4141     34.7444E-03     34.8558E-03
            3829            4141     34.7444E-03     34.8558E-03
            3780            4142     32.2287E-03     33.9280E-03
            3830            4142     32.2287E-03     33.9280E-03
            3829            4142     32.2287E-03     33.9280E-03
            3779            4142     32.2287E-03     33.9280E-03
            3780            4143     32.8605E-03     31.5862E-03
            3831            4143     32.8605E-03     31.5862E-03
            3830            4143     32.8605E-03     31.5862E-03
            3781            4143     32.8605E-03     31.5862E-03
            3782            4144     31.8063E-03     30.7441E-03
            3831            4144     31.8063E-03     30.7441E-03
            3832            4144     31.8063E-03     30.7441E-03
            3781            4144     31.8063E-03     30.7441E-03
            3832            4145     29.7361E-03     35.7380E-03
            3782            4145     29.7361E-03     35.7380E-03
            3833            4145     29.7361E-03     35.7380E-03
            3783            4145     29.7361E-03     35.7380E-03
            3834            4146     34.6050E-03     34.1714E-03
            3783            4146     34.6050E-03     34.1714E-03
            3784            4146     34.6050E-03     34.1714E-03
            3833            4146     34.6050E-03     34.1714E-03
            3784            4147     32.7687E-03     30.9194E-03
            3785            4147     32.7687E-03     30.9194E-03
            3835            4147     32.7687E-03     30.9194E-03
            3834            4147     32.7687E-03     30.9194E-03
            3785            4148     27.1431E-03     29.3568E-03
            3835            4148     27.1431E-03     29.3568E-03
            3786            4148     27.1431E-03     29.3568E-03
            3836            4148     27.1431E-03     29.3568E-03
            3837            4149     25.6500E-03     25.4816E-03
            3836            4149     25.6500E-03     25.4816E-03
            3787            4149     25.6500E-03     25.4816E-03
            3786            4149     25.6500E-03     25.4816E-03
            3837            4150     22.9537E-03     23.4814E-03
            3787            4150     22.9537E-03     23.4814E-03
            3838            4150     22.9537E-03     23.4814E-03
            3788            4150     22.9537E-03     23.4814E-03
            3789            4151     20.5661E-03     21.0331E-03
            3788            4151     20.5661E-03     21.0331E-03
            3838            4151     20.5661E-03     21.0331E-03
            3839            4151     20.5661E-03     21.0331E-03
            3840            4152     18.4272E-03     18.5487E-03
            3790            4152     18.4272E-03     18.5487E-03
            3839            4152     18.4272E-03     18.5487E-03
            3789            4152     18.4272E-03     18.5487E-03
            3841            4153     15.9971E-03     16.5061E-03
            3790            4153     15.9971E-03     16.5061E-03
            3840            4153     15.9971E-03     16.5061E-03
            3791            4153     15.9971E-03     16.5061E-03
            3791            4154     14.6143E-03     14.2384E-03
            3842            4154     14.6143E-03     14.2384E-03
            3841            4154     14.6143E-03     14.2384E-03
            3792            4154     14.6143E-03     14.2384E-03
            3792            4155     13.2931E-03     12.6224E-03
            3842            4155     13.2931E-03     12.6224E-03
            3793            4155     13.2931E-03     12.6224E-03
            3843            4155     13.2931E-03     12.6224E-03
            3843            4156     13.0716E-03     15.6875E-03
            3844            4156     13.0716E-03     15.6875E-03
            3794            4156     13.0716E-03     15.6875E-03
            3793            4156     13.0716E-03     15.6875E-03
            3794            4157     15.4676E-03     15.5281E-03
            3844            4157     15.4676E-03     15.5281E-03
            3845            4157     15.4676E-03     15.5281E-03
            3795            4157     15.4676E-03     15.5281E-03
            3796            4158     13.0499E-03     12.0066E-03
            3846            4158     13.0499E-03     12.0066E-03
            3845            4158     13.0499E-03     12.0066E-03
            3795            4158     13.0499E-03     12.0066E-03
            3797            4159     8.42930E-03     9.44566E-03
            3847            4159     8.42930E-03     9.44566E-03
            3846            4159     8.42930E-03     9.44566E-03
            3796            4159     8.42930E-03     9.44566E-03
            3798            4160     6.18555E-03     5.63490E-03
            3847            4160     6.18555E-03     5.63490E-03
            3797            4160     6.18555E-03     5.63490E-03
            3848            4160     6.18555E-03     5.63490E-03
            3798            4161     4.01807E-03     3.83534E-03
            3799            4161     4.01807E-03     3.83534E-03
            3849            4161     4.01807E-03     3.83534E-03
            3848            4161     4.01807E-03     3.83534E-03
            3850            4162     3.71423E-03     4.39387E-03
            3800            4162     3.71423E-03     4.39387E-03
            3799            4162     3.71423E-03     4.39387E-03
            3849            4162     3.71423E-03     4.39387E-03
            4107            4328     17.2722E-03     17.0967E-03
            4108            4328     17.2722E-03     17.0967E-03
            4068            4328     17.2722E-03     17.0967E-03
            4067            4328     17.2722E-03     17.0967E-03
            4108            4329     17.3046E-03     17.3209E-03
            4068            4329     17.3046E-03     17.3209E-03
            4069            4329     17.3046E-03     17.3209E-03
            4109            4329     17.3046E-03     17.3209E-03
            4070            4330     17.5011E-03     17.3775E-03
            4110            4330     17.5011E-03     17.3775E-03
            4069            4330     17.5011E-03     17.3775E-03
            4109            4330     17.5011E-03     17.3775E-03
            4111            4331     17.4905E-03     17.2242E-03
            4071            4331     17.4905E-03     17.2242E-03
            4110            4331     17.4905E-03     17.2242E-03
            4070            4331     17.4905E-03     17.2242E-03
            4072            4332     16.6595E-03     16.6210E-03
            4111            4332     16.6595E-03     16.6210E-03
            4112            4332     16.6595E-03     16.6210E-03
            4071            4332     16.6595E-03     16.6210E-03
            4112            4333     16.2756E-03     16.0612E-03
            4073            4333     16.2756E-03     16.0612E-03
            4072            4333     16.2756E-03     16.0612E-03
            4113            4333     16.2756E-03     16.0612E-03
            4113            4334     16.4886E-03     16.2162E-03
            4114            4334     16.4886E-03     16.2162E-03
            4073            4334     16.4886E-03     16.2162E-03
            4074            4334     16.4886E-03     16.2162E-03
            4074            4335     16.6287E-03     16.4666E-03
            4114            4335     16.6287E-03     16.4666E-03
            4075            4335     16.6287E-03     16.4666E-03
            4115            4335     16.6287E-03     16.4666E-03
            4075            4336     16.8016E-03     16.6569E-03
            4076            4336     16.8016E-03     16.6569E-03
            4115            4336     16.8016E-03     16.6569E-03
            4116            4336     16.8016E-03     16.6569E-03
            4076            4337     16.9570E-03     16.9509E-03
            4077            4337     16.9570E-03     16.9509E-03
            4117            4337     16.9570E-03     16.9509E-03
            4116            4337     16.9570E-03     16.9509E-03
            4118            4338     17.1860E-03     17.2237E-03
            4117            4338     17.1860E-03     17.2237E-03
            4078            4338     17.1860E-03     17.2237E-03
            4077            4338     17.1860E-03     17.2237E-03
            4078            4339     17.3735E-03     17.3896E-03
            4118            4339     17.3735E-03     17.3896E-03
            4079            4339     17.3735E-03     17.3896E-03
            4119            4339     17.3735E-03     17.3896E-03
            4079            4340     17.3267E-03     17.8318E-03
            4080            4340     17.3267E-03     17.8318E-03
            4120            4340     17.3267E-03     17.8318E-03
            4119            4340     17.3267E-03     17.8318E-03
            4080            4341     18.0934E-03     17.8570E-03
            4120            4341     18.0934E-03     17.8570E-03
            4081            4341     18.0934E-03     17.8570E-03
            4121            4341     18.0934E-03     17.8570E-03
            4122            4342     17.9902E-03     17.4067E-03
            4121            4342     17.9902E-03     17.4067E-03
            4082            4342     17.9902E-03     17.4067E-03
            4081            4342     17.9902E-03     17.4067E-03
            4083            4343     16.3513E-03     16.8026E-03
            4123            4343     16.3513E-03     16.8026E-03
            4082            4343     16.3513E-03     16.8026E-03
            4122            4343     16.3513E-03     16.8026E-03
            4084            4344     16.1923E-03     15.9678E-03
            4123            4344     16.1923E-03     15.9678E-03
            4124            4344     16.1923E-03     15.9678E-03
            4083            4344     16.1923E-03     15.9678E-03
            4084            4345     16.7569E-03     16.1148E-03
            4125            4345     16.7569E-03     16.1148E-03
            4124            4345     16.7569E-03     16.1148E-03
            4085            4345     16.7569E-03     16.1148E-03
            4085            4346     16.9486E-03     16.7365E-03
            4126            4346     16.9486E-03     16.7365E-03
            4125            4346     16.9486E-03     16.7365E-03
            4086            4346     16.9486E-03     16.7365E-03
            4126            4347     17.3223E-03     17.0551E-03
            4086            4347     17.3223E-03     17.0551E-03
            4127            4347     17.3223E-03     17.0551E-03
            4087            4347     17.3223E-03     17.0551E-03
            4087            4348     17.6427E-03     17.4777E-03
            4127            4348     17.6427E-03     17.4777E-03
            4088            4348     17.6427E-03     17.4777E-03
            4128            4348     17.6427E-03     17.4777E-03
            4088            4349     17.8589E-03     17.9538E-03
            4129            4349     17.8589E-03     17.9538E-03
            4089            4349     17.8589E-03     17.9538E-03
            4128            4349     17.8589E-03     17.9538E-03
            4129            4350     18.1762E-03     18.2853E-03
            4089            4350     18.1762E-03     18.2853E-03
            4130            4350     18.1762E-03     18.2853E-03
            4090            4350     18.1762E-03     18.2853E-03
            4130            4351     18.3498E-03     18.4430E-03
            4090            4351     18.3498E-03     18.4430E-03
            4091            4351     18.3498E-03     18.4430E-03
            4131            4351     18.3498E-03     18.4430E-03
            4132            4352     18.1159E-03     19.0427E-03
            4092            4352     18.1159E-03     19.0427E-03
            4131            4352     18.1159E-03     19.0427E-03
            4091            4352     18.1159E-03     19.0427E-03
            4133            4353     19.2528E-03     18.8455E-03
            4093            4353     19.2528E-03     18.8455E-03
            4132            4353     19.2528E-03     18.8455E-03
            4092            4353     19.2528E-03     18.8455E-03
            4133            4354     18.8930E-03     18.0591E-03
            4134            4354     18.8930E-03     18.0591E-03
            4093            4354     18.8930E-03     18.0591E-03
            4094            4354     18.8930E-03     18.0591E-03
            4094            4355     16.6956E-03     17.8473E-03
            4095            4355     16.6956E-03     17.8473E-03
            4134            4355     16.6956E-03     17.8473E-03
            4135            4355     16.6956E-03     17.8473E-03
            4136            4356     17.3297E-03     17.0230E-03
            4095            4356     17.3297E-03     17.0230E-03
            4096            4356     17.3297E-03     17.0230E-03
            4135            4356     17.3297E-03     17.0230E-03
            4097            4357     18.2244E-03     17.2837E-03
            4096            4357     18.2244E-03     17.2837E-03
            4137            4357     18.2244E-03     17.2837E-03
            4136            4357     18.2244E-03     17.2837E-03
            4137            4358     18.2834E-03     18.2882E-03
            4098            4358     18.2834E-03     18.2882E-03
            4138            4358     18.2834E-03     18.2882E-03
            4097            4358     18.2834E-03     18.2882E-03
            4139            4359     18.7803E-03     18.5585E-03
            4138            4359     18.7803E-03     18.5585E-03
            4098            4359     18.7803E-03     18.5585E-03
            4099            4359     18.7803E-03     18.5585E-03
            4099            4360     19.0589E-03     19.1341E-03
            4140            4360     19.0589E-03     19.1341E-03
            4100            4360     19.0589E-03     19.1341E-03
            4139            4360     19.0589E-03     19.1341E-03
            4140            4361     19.3326E-03     19.5440E-03
            4141            4361     19.3326E-03     19.5440E-03
            4101            4361     19.3326E-03     19.5440E-03
            4100            4361     19.3326E-03     19.5440E-03
            4142            4362     19.4355E-03     19.5871E-03
            4101            4362     19.4355E-03     19.5871E-03
            4141            4362     19.4355E-03     19.5871E-03
            4102            4362     19.4355E-03     19.5871E-03
            4142            4363     18.9934E-03     20.2107E-03
            4103            4363     18.9934E-03     20.2107E-03
            4143            4363     18.9934E-03     20.2107E-03
            4102            4363     18.9934E-03     20.2107E-03
            4144            4364     20.2649E-03     19.7324E-03
            4104            4364     20.2649E-03     19.7324E-03
            4103            4364     20.2649E-03     19.7324E-03
            4143            4364     20.2649E-03     19.7324E-03
            4104            4365     19.6088E-03     18.6517E-03
            4144            4365     19.6088E-03     18.6517E-03
            4105            4365     19.6088E-03     18.6517E-03
            4145            4365     19.6088E-03     18.6517E-03
            4106            4366     16.5608E-03     17.3166E-03
            4105            4366     16.5608E-03     17.3166E-03
            4145            4366     16.5608E-03     17.3166E-03
            4146            4366     16.5608E-03     17.3166E-03
            4147            4367     16.0050E-03     15.8137E-03
            4148            4367     16.0050E-03     15.8137E-03
            4108            4367     16.0050E-03     15.8137E-03
            4107            4367     16.0050E-03     15.8137E-03
            4148            4368     16.1262E-03     16.1764E-03
            4108            4368     16.1262E-03     16.1764E-03
            4149            4368     16.1262E-03     16.1764E-03
            4109            4368     16.1262E-03     16.1764E-03
            4150            4369     16.5486E-03     16.3134E-03
            4149            4369     16.5486E-03     16.3134E-03
            4110            4369     16.5486E-03     16.3134E-03
            4109            4369     16.5486E-03     16.3134E-03
            4110            4370     16.5578E-03     16.3993E-03
            4111            4370     16.5578E-03     16.3993E-03
            4151            4370     16.5578E-03     16.3993E-03
            4150            4370     16.5578E-03     16.3993E-03
            4112            4371     15.6245E-03     15.8327E-03
            4152            4371     15.6245E-03     15.8327E-03
            4151            4371     15.6245E-03     15.8327E-03
            4111            4371     15.6245E-03     15.8327E-03
            4113            4372     15.4068E-03     15.2282E-03
            4153            4372     15.4068E-03     15.2282E-03
            4112            4372     15.4068E-03     15.2282E-03
            4152            4372     15.4068E-03     15.2282E-03
            4113            4373     15.8569E-03     15.7807E-03
            4153            4373     15.8569E-03     15.7807E-03
            4154            4373     15.8569E-03     15.7807E-03
            4114            4373     15.8569E-03     15.7807E-03
            4154            4374     16.2914E-03     16.4129E-03
            4114            4374     16.2914E-03     16.4129E-03
            4115            4374     16.2914E-03     16.4129E-03
            4155            4374     16.2914E-03     16.4129E-03
            4155            4375     16.9076E-03     16.9674E-03
            4156            4375     16.9076E-03     16.9674E-03
            4116            4375     16.9076E-03     16.9674E-03
            4115            4375     16.9076E-03     16.9674E-03
            4117            4376     17.4849E-03     17.6365E-03
            4157            4376     17.4849E-03     17.6365E-03
            4156            4376     17.4849E-03     17.6365E-03
            4116            4376     17.4849E-03     17.6365E-03
            4157            4377     18.2550E-03     18.2083E-03
            4158            4377     18.2550E-03     18.2083E-03
            4118            4377     18.2550E-03     18.2083E-03
            4117            4377     18.2550E-03     18.2083E-03
            4118            4378     18.9246E-03     18.6923E-03
            4158            4378     18.9246E-03     18.6923E-03
            4119            4378     18.9246E-03     18.6923E-03
            4159            4378     18.9246E-03     18.6923E-03
            4119            4379     19.2379E-03     19.8433E-03
            4159            4379     19.2379E-03     19.8433E-03
            4120            4379     19.2379E-03     19.8433E-03
            4160            4379     19.2379E-03     19.8433E-03
            4121            4380     20.9849E-03     19.9275E-03
            4120            4380     20.9849E-03     19.9275E-03
            4161            4380     20.9849E-03     19.9275E-03
            4160            4380     20.9849E-03     19.9275E-03
            4122            4381     20.6852E-03     19.9453E-03
            4161            4381     20.6852E-03     19.9453E-03
            4162            4381     20.6852E-03     19.9453E-03
            4121            4381     20.6852E-03     19.9453E-03
            4162            4382     18.1319E-03     19.7790E-03
            4122            4382     18.1319E-03     19.7790E-03
            4123            4382     18.1319E-03     19.7790E-03
            4163            4382     18.1319E-03     19.7790E-03
            4163            4383     18.9433E-03     18.5442E-03
            4164            4383     18.9433E-03     18.5442E-03
            4123            4383     18.9433E-03     18.5442E-03
            4124            4383     18.9433E-03     18.5442E-03
            4164            4384     20.1225E-03     19.5218E-03
            4165            4384     20.1225E-03     19.5218E-03
            4124            4384     20.1225E-03     19.5218E-03
            4125            4384     20.1225E-03     19.5218E-03
            4125            4385     20.3371E-03     20.8902E-03
            4165            4385     20.3371E-03     20.8902E-03
            4166            4385     20.3371E-03     20.8902E-03
            4126            4385     20.3371E-03     20.8902E-03
            4167            4386     21.3860E-03     21.3982E-03
            4127            4386     21.3860E-03     21.3982E-03
            4166            4386     21.3860E-03     21.3982E-03
            4126            4386     21.3860E-03     21.3982E-03
            4127            4387     22.2521E-03     22.1848E-03
            4128            4387     22.2521E-03     22.1848E-03
            4167            4387     22.2521E-03     22.1848E-03
            4168            4387     22.2521E-03     22.1848E-03
            4169            4388     22.9249E-03     23.0187E-03
            4128            4388     22.9249E-03     23.0187E-03
            4129            4388     22.9249E-03     23.0187E-03
            4168            4388     22.9249E-03     23.0187E-03
            4170            4389     23.9377E-03     23.6291E-03
            4169            4389     23.9377E-03     23.6291E-03
            4130            4389     23.9377E-03     23.6291E-03
            4129            4389     23.9377E-03     23.6291E-03
            4131            4390     24.6451E-03     24.1672E-03
            4171            4390     24.6451E-03     24.1672E-03
            4170            4390     24.6451E-03     24.1672E-03
            4130            4390     24.6451E-03     24.1672E-03
            4131            4391     24.6930E-03     25.7704E-03
            4132            4391     24.6930E-03     25.7704E-03
            4171            4391     24.6930E-03     25.7704E-03
            4172            4391     24.6930E-03     25.7704E-03
            4132            4392     27.1306E-03     25.3724E-03
            4172            4392     27.1306E-03     25.3724E-03
            4173            4392     27.1306E-03     25.3724E-03
            4133            4392     27.1306E-03     25.3724E-03
            4174            4393     26.2103E-03     25.0537E-03
            4133            4393     26.2103E-03     25.0537E-03
            4173            4393     26.2103E-03     25.0537E-03
            4134            4393     26.2103E-03     25.0537E-03
            4135            4394     22.3053E-03     25.5117E-03
            4175            4394     22.3053E-03     25.5117E-03
            4174            4394     22.3053E-03     25.5117E-03
            4134            4394     22.3053E-03     25.5117E-03
            4175            4395     24.6208E-03     23.8694E-03
            4135            4395     24.6208E-03     23.8694E-03
            4136            4395     24.6208E-03     23.8694E-03
            4176            4395     24.6208E-03     23.8694E-03
            4137            4396     26.4575E-03     25.1976E-03
            4177            4396     26.4575E-03     25.1976E-03
            4136            4396     26.4575E-03     25.1976E-03
            4176            4396     26.4575E-03     25.1976E-03
            4137            4397     26.1224E-03     27.1228E-03
            4177            4397     26.1224E-03     27.1228E-03
            4178            4397     26.1224E-03     27.1228E-03
            4138            4397     26.1224E-03     27.1228E-03
            4179            4398     27.4435E-03     27.2903E-03
            4178            4398     27.4435E-03     27.2903E-03
            4138            4398     27.4435E-03     27.2903E-03
            4139            4398     27.4435E-03     27.2903E-03
            4180            4399     28.1982E-03     28.2622E-03
            4139            4399     28.1982E-03     28.2622E-03
            4140            4399     28.1982E-03     28.2622E-03
            4179            4399     28.1982E-03     28.2622E-03
            4181            4400     29.0572E-03     28.9150E-03
            4180            4400     29.0572E-03     28.9150E-03
            4140            4400     29.0572E-03     28.9150E-03
            4141            4400     29.0572E-03     28.9150E-03
            4182            4401     29.7072E-03     29.2377E-03
            4181            4401     29.7072E-03     29.2377E-03
            4141            4401     29.7072E-03     29.2377E-03
            4142            4401     29.7072E-03     29.2377E-03
            4183            4402     29.4306E-03     30.9375E-03
            4142            4402     29.4306E-03     30.9375E-03
            4143            4402     29.4306E-03     30.9375E-03
            4182            4402     29.4306E-03     30.9375E-03
            4184            4403     32.1210E-03     29.9940E-03
            4183            4403     32.1210E-03     29.9940E-03
            4143            4403     32.1210E-03     29.9940E-03
            4144            4403     32.1210E-03     29.9940E-03
            4185            4404     30.6428E-03     29.2365E-03
            4184            4404     30.6428E-03     29.2365E-03
            4144            4404     30.6428E-03     29.2365E-03
            4145            4404     30.6428E-03     29.2365E-03
            4186            4405     26.6182E-03     29.0735E-03
            4185            4405     26.6182E-03     29.0735E-03
            4145            4405     26.6182E-03     29.0735E-03
            4146            4405     26.6182E-03     29.0735E-03
            4188            4406     13.9220E-03     13.7842E-03
            4147            4406     13.9220E-03     13.7842E-03
            4148            4406     13.9220E-03     13.7842E-03
            4187            4406     13.9220E-03     13.7842E-03
            4149            4407     14.0657E-03     14.3119E-03
            4188            4407     14.0657E-03     14.3119E-03
            4148            4407     14.0657E-03     14.3119E-03
            4189            4407     14.0657E-03     14.3119E-03
            4149            4408     14.9646E-03     14.5481E-03
            4189            4408     14.9646E-03     14.5481E-03
            4190            4408     14.9646E-03     14.5481E-03
            4150            4408     14.9646E-03     14.5481E-03
            4191            4409     15.1837E-03     15.0306E-03
            4150            4409     15.1837E-03     15.0306E-03
            4151            4409     15.1837E-03     15.0306E-03
            4190            4409     15.1837E-03     15.0306E-03
            4192            4410     14.1384E-03     14.7417E-03
            4191            4410     14.1384E-03     14.7417E-03
            4151            4410     14.1384E-03     14.7417E-03
            4152            4410     14.1384E-03     14.7417E-03
            4193            4411     14.2192E-03     14.2397E-03
            4192            4411     14.2192E-03     14.2397E-03
            4152            4411     14.2192E-03     14.2397E-03
            4153            4411     14.2192E-03     14.2397E-03
            4194            4412     14.9834E-03     15.2669E-03
            4153            4412     14.9834E-03     15.2669E-03
            4154            4412     14.9834E-03     15.2669E-03
            4193            4412     14.9834E-03     15.2669E-03
            4195            4413     15.8038E-03     16.2694E-03
            4194            4413     15.8038E-03     16.2694E-03
            4154            4413     15.8038E-03     16.2694E-03
            4155            4413     15.8038E-03     16.2694E-03
            4196            4414     16.8998E-03     17.0389E-03
            4156            4414     16.8998E-03     17.0389E-03
            4155            4414     16.8998E-03     17.0389E-03
            4195            4414     16.8998E-03     17.0389E-03
            4197            4415     17.9185E-03     18.0634E-03
            4156            4415     17.9185E-03     18.0634E-03
            4196            4415     17.9185E-03     18.0634E-03
            4157            4415     17.9185E-03     18.0634E-03
            4198            4416     19.2055E-03     19.0168E-03
            4157            4416     19.2055E-03     19.0168E-03
            4158            4416     19.2055E-03     19.0168E-03
            4197            4416     19.2055E-03     19.0168E-03
            4198            4417     20.3834E-03     19.9454E-03
            4158            4417     20.3834E-03     19.9454E-03
            4159            4417     20.3834E-03     19.9454E-03
            4199            4417     20.3834E-03     19.9454E-03
            4160            4418     21.1644E-03     21.9806E-03
            4199            4418     21.1644E-03     21.9806E-03
            4159            4418     21.1644E-03     21.9806E-03
            4200            4418     21.1644E-03     21.9806E-03
            4201            4419     24.3537E-03     22.3078E-03
            4160            4419     24.3537E-03     22.3078E-03
            4161            4419     24.3537E-03     22.3078E-03
            4200            4419     24.3537E-03     22.3078E-03
            4202            4420     24.0645E-03     23.2456E-03
            4201            4420     24.0645E-03     23.2456E-03
            4161            4420     24.0645E-03     23.2456E-03
            4162            4420     24.0645E-03     23.2456E-03
            4203            4421     20.5805E-03     24.1208E-03
            4163            4421     20.5805E-03     24.1208E-03
            4162            4421     20.5805E-03     24.1208E-03
            4202            4421     20.5805E-03     24.1208E-03
            4204            4422     22.8004E-03     22.4852E-03
            4203            4422     22.8004E-03     22.4852E-03
            4163            4422     22.8004E-03     22.4852E-03
            4164            4422     22.8004E-03     22.4852E-03
            4164            4423     24.5420E-03     23.8789E-03
            4204            4423     24.5420E-03     23.8789E-03
            4165            4423     24.5420E-03     23.8789E-03
            4205            4423     24.5420E-03     23.8789E-03
            4205            4424     24.3675E-03     25.5809E-03
            4165            4424     24.3675E-03     25.5809E-03
            4206            4424     24.3675E-03     25.5809E-03
            4166            4424     24.3675E-03     25.5809E-03
            4207            4425     25.7965E-03     25.8177E-03
            4206            4425     25.7965E-03     25.8177E-03
            4166            4425     25.7965E-03     25.8177E-03
            4167            4425     25.7965E-03     25.8177E-03
            4167            4426     26.8964E-03     26.7623E-03
            4208            4426     26.8964E-03     26.7623E-03
            4168            4426     26.8964E-03     26.7623E-03
            4207            4426     26.8964E-03     26.7623E-03
            4208            4427     27.8303E-03     27.9645E-03
            4169            4427     27.8303E-03     27.9645E-03
            4168            4427     27.8303E-03     27.9645E-03
            4209            4427     27.8303E-03     27.9645E-03
            4209            4428     29.4179E-03     28.9288E-03
            4169            4428     29.4179E-03     28.9288E-03
            4210            4428     29.4179E-03     28.9288E-03
            4170            4428     29.4179E-03     28.9288E-03
            4210            4429     30.7140E-03     29.9704E-03
            4211            4429     30.7140E-03     29.9704E-03
            4170            4429     30.7140E-03     29.9704E-03
            4171            4429     30.7140E-03     29.9704E-03
            4211            4430     31.2871E-03     32.7615E-03
            4212            4430     31.2871E-03     32.7615E-03
            4171            4430     31.2871E-03     32.7615E-03
            4172            4430     31.2871E-03     32.7615E-03
            4212            4431     35.6604E-03     32.5767E-03
            4173            4431     35.6604E-03     32.5767E-03
            4213            4431     35.6604E-03     32.5767E-03
            4172            4431     35.6604E-03     32.5767E-03
            4213            4432     34.5234E-03     33.2886E-03
            4173            4432     34.5234E-03     33.2886E-03
            4214            4432     34.5234E-03     33.2886E-03
            4174            4432     34.5234E-03     33.2886E-03
            4175            4433     28.8970E-03     35.0281E-03
            4215            4433     28.8970E-03     35.0281E-03
            4214            4433     28.8970E-03     35.0281E-03
            4174            4433     28.8970E-03     35.0281E-03
            4216            4434     33.1390E-03     32.3679E-03
            4176            4434     33.1390E-03     32.3679E-03
            4215            4434     33.1390E-03     32.3679E-03
            4175            4434     33.1390E-03     32.3679E-03
            4217            4435     35.6350E-03     33.8815E-03
            4177            4435     35.6350E-03     33.8815E-03
            4216            4435     35.6350E-03     33.8815E-03
            4176            4435     35.6350E-03     33.8815E-03
            4177            4436     34.2826E-03     35.9978E-03
            4218            4436     34.2826E-03     35.9978E-03
            4217            4436     34.2826E-03     35.9978E-03
            4178            4436     34.2826E-03     35.9978E-03
            4179            4437     35.8344E-03     35.4668E-03
            4219            4437     35.8344E-03     35.4668E-03
            4178            4437     35.8344E-03     35.4668E-03
            4218            4437     35.8344E-03     35.4668E-03
            4219            4438     36.6705E-03     36.5725E-03
            4220            4438     36.6705E-03     36.5725E-03
            4180            4438     36.6705E-03     36.5725E-03
            4179            4438     36.6705E-03     36.5725E-03
            4181            4439     37.8652E-03     37.4523E-03
            4220            4439     37.8652E-03     37.4523E-03
            4180            4439     37.8652E-03     37.4523E-03
            4221            4439     37.8652E-03     37.4523E-03
            4222            4440     39.0820E-03     38.1365E-03
            4182            4440     39.0820E-03     38.1365E-03
            4181            4440     39.0820E-03     38.1365E-03
            4221            4440     39.0820E-03     38.1365E-03
            4182            4441     39.3111E-03     41.2074E-03
            4223            4441     39.3111E-03     41.2074E-03
            4222            4441     39.3111E-03     41.2074E-03
            4183            4441     39.3111E-03     41.2074E-03
            4224            4442     44.2076E-03     40.4830E-03
            4184            4442     44.2076E-03     40.4830E-03
            4183            4442     44.2076E-03     40.4830E-03
            4223            4442     44.2076E-03     40.4830E-03
            4184            4443     42.3672E-03     40.8076E-03
            4225            4443     42.3672E-03     40.8076E-03
            4185            4443     42.3672E-03     40.8076E-03
            4224            4443     42.3672E-03     40.8076E-03
            4186            4444     36.6006E-03     41.1426E-03
            4226            4444     36.6006E-03     41.1426E-03
            4185            4444     36.6006E-03     41.1426E-03
            4225            4444     36.6006E-03     41.1426E-03
            4227            4445     11.0007E-03     11.0312E-03
            4228            4445     11.0007E-03     11.0312E-03
            4188            4445     11.0007E-03     11.0312E-03
            4187            4445     11.0007E-03     11.0312E-03
            4228            4446     11.3367E-03     11.9933E-03
            4229            4446     11.3367E-03     11.9933E-03
            4189            4446     11.3367E-03     11.9933E-03
            4188            4446     11.3367E-03     11.9933E-03
            4229            4447     12.8722E-03     12.1532E-03
            4190            4447     12.8722E-03     12.1532E-03
            4230            4447     12.8722E-03     12.1532E-03
            4189            4447     12.8722E-03     12.1532E-03
            4190            4448     13.2344E-03     13.0723E-03
            4231            4448     13.2344E-03     13.0723E-03
            4191            4448     13.2344E-03     13.0723E-03
            4230            4448     13.2344E-03     13.0723E-03
            4192            4449     12.3111E-03     13.7581E-03
            4231            4449     12.3111E-03     13.7581E-03
            4232            4449     12.3111E-03     13.7581E-03
            4191            4449     12.3111E-03     13.7581E-03
            4233            4450     13.2111E-03     13.4956E-03
            4192            4450     13.2111E-03     13.4956E-03
            4193            4450     13.2111E-03     13.4956E-03
            4232            4450     13.2111E-03     13.4956E-03
            4193            4451     14.2643E-03     14.6505E-03
            4194            4451     14.2643E-03     14.6505E-03
            4234            4451     14.2643E-03     14.6505E-03
            4233            4451     14.2643E-03     14.6505E-03
            4234            4452     15.1529E-03     15.7295E-03
            4194            4452     15.1529E-03     15.7295E-03
            4195            4452     15.1529E-03     15.7295E-03
            4235            4452     15.1529E-03     15.7295E-03
            4236            4453     16.6241E-03     16.6499E-03
            4196            4453     16.6241E-03     16.6499E-03
            4235            4453     16.6241E-03     16.6499E-03
            4195            4453     16.6241E-03     16.6499E-03
            4237            4454     17.9558E-03     18.2515E-03
            4197            4454     17.9558E-03     18.2515E-03
            4236            4454     17.9558E-03     18.2515E-03
            4196            4454     17.9558E-03     18.2515E-03
            4198            4455     19.8161E-03     19.7790E-03
            4197            4455     19.8161E-03     19.7790E-03
            4237            4455     19.8161E-03     19.7790E-03
            4238            4455     19.8161E-03     19.7790E-03
            4238            4456     21.5253E-03     21.3148E-03
            4239            4456     21.5253E-03     21.3148E-03
            4199            4456     21.5253E-03     21.3148E-03
            4198            4456     21.5253E-03     21.3148E-03
            4240            4457     22.6959E-03     24.3912E-03
            4199            4457     22.6959E-03     24.3912E-03
            4239            4457     22.6959E-03     24.3912E-03
            4200            4457     22.6959E-03     24.3912E-03
            4200            4458     27.3892E-03     24.6924E-03
            4241            4458     27.3892E-03     24.6924E-03
            4240            4458     27.3892E-03     24.6924E-03
            4201            4458     27.3892E-03     24.6924E-03
            4202            4459     27.3093E-03     26.7315E-03
            4201            4459     27.3093E-03     26.7315E-03
            4242            4459     27.3093E-03     26.7315E-03
            4241            4459     27.3093E-03     26.7315E-03
            4203            4460     23.2363E-03     29.4744E-03
            4202            4460     23.2363E-03     29.4744E-03
            4243            4460     23.2363E-03     29.4744E-03
            4242            4460     23.2363E-03     29.4744E-03
            4243            4461     26.9998E-03     26.9929E-03
            4204            4461     26.9998E-03     26.9929E-03
            4244            4461     26.9998E-03     26.9929E-03
            4203            4461     26.9998E-03     26.9929E-03
            4245            4462     28.9023E-03     27.8040E-03
            4205            4462     28.9023E-03     27.8040E-03
            4204            4462     28.9023E-03     27.8040E-03
            4244            4462     28.9023E-03     27.8040E-03
            4205            4463     27.7579E-03     29.4842E-03
            4206            4463     27.7579E-03     29.4842E-03
            4245            4463     27.7579E-03     29.4842E-03
            4246            4463     27.7579E-03     29.4842E-03
            4206            4464     29.3477E-03     29.4961E-03
            4207            4464     29.3477E-03     29.4961E-03
            4246            4464     29.3477E-03     29.4961E-03
            4247            4464     29.3477E-03     29.4961E-03
            4248            4465     30.5864E-03     30.8259E-03
            4208            4465     30.5864E-03     30.8259E-03
            4247            4465     30.5864E-03     30.8259E-03
            4207            4465     30.5864E-03     30.8259E-03
            4209            4466     31.6691E-03     32.5414E-03
            4208            4466     31.6691E-03     32.5414E-03
            4249            4466     31.6691E-03     32.5414E-03
            4248            4466     31.6691E-03     32.5414E-03
            4209            4467     33.8330E-03     33.9429E-03
            4210            4467     33.8330E-03     33.9429E-03
            4249            4467     33.8330E-03     33.9429E-03
            4250            4467     33.8330E-03     33.9429E-03
            4210            4468     35.5867E-03     35.4368E-03
            4211            4468     35.5867E-03     35.4368E-03
            4250            4468     35.5867E-03     35.4368E-03
            4251            4468     35.5867E-03     35.4368E-03
            4252            4469     36.5185E-03     39.3093E-03
            4211            4469     36.5185E-03     39.3093E-03
            4212            4469     36.5185E-03     39.3093E-03
            4251            4469     36.5185E-03     39.3093E-03
            4212            4470     42.9579E-03     38.9857E-03
            4213            4470     42.9579E-03     38.9857E-03
            4253            4470     42.9579E-03     38.9857E-03
            4252            4470     42.9579E-03     38.9857E-03
            4214            4471     42.0591E-03     41.2048E-03
            4213            4471     42.0591E-03     41.2048E-03
            4253            4471     42.0591E-03     41.2048E-03
            4254            4471     42.0591E-03     41.2048E-03
            4255            4472     35.1468E-03     45.3627E-03
            4214            4472     35.1468E-03     45.3627E-03
            4215            4472     35.1468E-03     45.3627E-03
            4254            4472     35.1468E-03     45.3627E-03
            4255            4473     41.2980E-03     40.9211E-03
            4256            4473     41.2980E-03     40.9211E-03
            4216            4473     41.2980E-03     40.9211E-03
            4215            4473     41.2980E-03     40.9211E-03
            4256            4474     43.7761E-03     41.2726E-03
            4216            4474     43.7761E-03     41.2726E-03
            4257            4474     43.7761E-03     41.2726E-03
            4217            4474     43.7761E-03     41.2726E-03
            4257            4475     40.7264E-03     43.3539E-03
            4258            4475     40.7264E-03     43.3539E-03
            4217            4475     40.7264E-03     43.3539E-03
            4218            4475     40.7264E-03     43.3539E-03
            4219            4476     42.3252E-03     42.2084E-03
            4258            4476     42.3252E-03     42.2084E-03
            4218            4476     42.3252E-03     42.2084E-03
            4259            4476     42.3252E-03     42.2084E-03
            4219            4477     43.0834E-03     43.7616E-03
            4259            4477     43.0834E-03     43.7616E-03
            4220            4477     43.0834E-03     43.7616E-03
            4260            4477     43.0834E-03     43.7616E-03
            4260            4478     44.5848E-03     44.9847E-03
            4221            4478     44.5848E-03     44.9847E-03
            4220            4478     44.5848E-03     44.9847E-03
            4261            4478     44.5848E-03     44.9847E-03
            4222            4479     46.2937E-03     45.9439E-03
            4221            4479     46.2937E-03     45.9439E-03
            4261            4479     46.2937E-03     45.9439E-03
            4262            4479     46.2937E-03     45.9439E-03
            4262            4480     46.8580E-03     50.2810E-03
            4222            4480     46.8580E-03     50.2810E-03
            4263            4480     46.8580E-03     50.2810E-03
            4223            4480     46.8580E-03     50.2810E-03
            4263            4481     54.2926E-03     49.4385E-03
            4224            4481     54.2926E-03     49.4385E-03
            4264            4481     54.2926E-03     49.4385E-03
            4223            4481     54.2926E-03     49.4385E-03
            4264            4482     52.7716E-03     51.6765E-03
            4225            4482     52.7716E-03     51.6765E-03
            4224            4482     52.7716E-03     51.6765E-03
            4265            4482     52.7716E-03     51.6765E-03
            4265            4483     45.2596E-03     52.5505E-03
            4225            4483     45.2596E-03     52.5505E-03
            4226            4483     45.2596E-03     52.5505E-03
            4266            4483     45.2596E-03     52.5505E-03
            4227            4484     7.45698E-03     7.57221E-03
            4228            4484     7.45698E-03     7.57221E-03
            4268            4484     7.45698E-03     7.57221E-03
            4267            4484     7.45698E-03     7.57221E-03
            4229            4485     7.95050E-03     8.71707E-03
            4268            4485     7.95050E-03     8.71707E-03
            4269            4485     7.95050E-03     8.71707E-03
            4228            4485     7.95050E-03     8.71707E-03
            4229            4486     10.5949E-03     9.38017E-03
            4270            4486     10.5949E-03     9.38017E-03
            4269            4486     10.5949E-03     9.38017E-03
            4230            4486     10.5949E-03     9.38017E-03
            4271            4487     11.2880E-03     11.4412E-03
            4230            4487     11.2880E-03     11.4412E-03
            4270            4487     11.2880E-03     11.4412E-03
            4231            4487     11.2880E-03     11.4412E-03
            4231            4488     10.6018E-03     13.0206E-03
            4272            4488     10.6018E-03     13.0206E-03
            4271            4488     10.6018E-03     13.0206E-03
            4232            4488     10.6018E-03     13.0206E-03
            4272            4489     12.4733E-03     12.5550E-03
            4233            4489     12.4733E-03     12.5550E-03
            4273            4489     12.4733E-03     12.5550E-03
            4232            4489     12.4733E-03     12.5550E-03
            4234            4490     13.2995E-03     13.4758E-03
            4273            4490     13.2995E-03     13.4758E-03
            4233            4490     13.2995E-03     13.4758E-03
            4274            4490     13.2995E-03     13.4758E-03
            4234            4491     14.1641E-03     14.8108E-03
            4235            4491     14.1641E-03     14.8108E-03
            4275            4491     14.1641E-03     14.8108E-03
            4274            4491     14.1641E-03     14.8108E-03
            4236            4492     16.1368E-03     16.3433E-03
            4276            4492     16.1368E-03     16.3433E-03
            4235            4492     16.1368E-03     16.3433E-03
            4275            4492     16.1368E-03     16.3433E-03
            4276            4493     17.8890E-03     18.6638E-03
            4236            4493     17.8890E-03     18.6638E-03
            4237            4493     17.8890E-03     18.6638E-03
            4277            4493     17.8890E-03     18.6638E-03
            4278            4494     20.3457E-03     20.8719E-03
            4237            4494     20.3457E-03     20.8719E-03
            4277            4494     20.3457E-03     20.8719E-03
            4238            4494     20.3457E-03     20.8719E-03
            4239            4495     22.7493E-03     22.9353E-03
            4279            4495     22.7493E-03     22.9353E-03
            4238            4495     22.7493E-03     22.9353E-03
            4278            4495     22.7493E-03     22.9353E-03
            4280            4496     24.1739E-03     26.9618E-03
            4239            4496     24.1739E-03     26.9618E-03
            4279            4496     24.1739E-03     26.9618E-03
            4240            4496     24.1739E-03     26.9618E-03
            4281            4497     30.1313E-03     27.6896E-03
            4240            4497     30.1313E-03     27.6896E-03
            4280            4497     30.1313E-03     27.6896E-03
            4241            4497     30.1313E-03     27.6896E-03
            4281            4498     30.3107E-03     30.2337E-03
            4242            4498     30.3107E-03     30.2337E-03
            4282            4498     30.3107E-03     30.2337E-03
            4241            4498     30.3107E-03     30.2337E-03
            4282            4499     25.7224E-03     33.7032E-03
            4243            4499     25.7224E-03     33.7032E-03
            4242            4499     25.7224E-03     33.7032E-03
            4283            4499     25.7224E-03     33.7032E-03
            4243            4500     30.2877E-03     30.2417E-03
            4283            4500     30.2877E-03     30.2417E-03
            4244            4500     30.2877E-03     30.2417E-03
            4284            4500     30.2877E-03     30.2417E-03
            4285            4501     31.5592E-03     30.4591E-03
            4284            4501     31.5592E-03     30.4591E-03
            4245            4501     31.5592E-03     30.4591E-03
            4244            4501     31.5592E-03     30.4591E-03
            4286            4502     29.8782E-03     32.3084E-03
            4285            4502     29.8782E-03     32.3084E-03
            4245            4502     29.8782E-03     32.3084E-03
            4246            4502     29.8782E-03     32.3084E-03
            4246            4503     31.9588E-03     32.6907E-03
            4247            4503     31.9588E-03     32.6907E-03
            4286            4503     31.9588E-03     32.6907E-03
            4287            4503     31.9588E-03     32.6907E-03
            4247            4504     33.5358E-03     34.6383E-03
            4248            4504     33.5358E-03     34.6383E-03
            4287            4504     33.5358E-03     34.6383E-03
            4288            4504     33.5358E-03     34.6383E-03
            4249            4505     34.9280E-03     36.7668E-03
            4288            4505     34.9280E-03     36.7668E-03
            4289            4505     34.9280E-03     36.7668E-03
            4248            4505     34.9280E-03     36.7668E-03
            4290            4506     37.4861E-03     38.6704E-03
            4250            4506     37.4861E-03     38.6704E-03
            4289            4506     37.4861E-03     38.6704E-03
            4249            4506     37.4861E-03     38.6704E-03
            4251            4507     39.7414E-03     40.3760E-03
            4250            4507     39.7414E-03     40.3760E-03
            4291            4507     39.7414E-03     40.3760E-03
            4290            4507     39.7414E-03     40.3760E-03
            4251            4508     40.5725E-03     45.0306E-03
            4252            4508     40.5725E-03     45.0306E-03
            4292            4508     40.5725E-03     45.0306E-03
            4291            4508     40.5725E-03     45.0306E-03
            4293            4509     48.4560E-03     44.9714E-03
            4292            4509     48.4560E-03     44.9714E-03
            4252            4509     48.4560E-03     44.9714E-03
            4253            4509     48.4560E-03     44.9714E-03
            4294            4510     48.0572E-03     47.8632E-03
            4254            4510     48.0572E-03     47.8632E-03
            4253            4510     48.0572E-03     47.8632E-03
            4293            4510     48.0572E-03     47.8632E-03
            4294            4511     40.3339E-03     53.1499E-03
            4254            4511     40.3339E-03     53.1499E-03
            4295            4511     40.3339E-03     53.1499E-03
            4255            4511     40.3339E-03     53.1499E-03
            4295            4512     47.4929E-03     47.3274E-03
            4255            4512     47.4929E-03     47.3274E-03
            4256            4512     47.4929E-03     47.3274E-03
            4296            4512     47.4929E-03     47.3274E-03
            4296            4513     49.0785E-03     46.7926E-03
            4257            4513     49.0785E-03     46.7926E-03
            4297            4513     49.0785E-03     46.7926E-03
            4256            4513     49.0785E-03     46.7926E-03
            4257            4514     44.9536E-03     49.0408E-03
            4297            4514     44.9536E-03     49.0408E-03
            4258            4514     44.9536E-03     49.0408E-03
            4298            4514     44.9536E-03     49.0408E-03
            4298            4515     47.2693E-03     48.0454E-03
            4259            4515     47.2693E-03     48.0454E-03
            4299            4515     47.2693E-03     48.0454E-03
            4258            4515     47.2693E-03     48.0454E-03
            4299            4516     48.0706E-03     50.2191E-03
            4259            4516     48.0706E-03     50.2191E-03
            4300            4516     48.0706E-03     50.2191E-03
            4260            4516     48.0706E-03     50.2191E-03
            4301            4517     49.8841E-03     51.8442E-03
            4300            4517     49.8841E-03     51.8442E-03
            4261            4517     49.8841E-03     51.8442E-03
            4260            4517     49.8841E-03     51.8442E-03
            4261            4518     52.1572E-03     52.9061E-03
            4301            4518     52.1572E-03     52.9061E-03
            4262            4518     52.1572E-03     52.9061E-03
            4302            4518     52.1572E-03     52.9061E-03
            4303            4519     52.3935E-03     58.0264E-03
            4263            4519     52.3935E-03     58.0264E-03
            4262            4519     52.3935E-03     58.0264E-03
            4302            4519     52.3935E-03     58.0264E-03
            4263            4520     61.5848E-03     57.3895E-03
            4303            4520     61.5848E-03     57.3895E-03
            4304            4520     61.5848E-03     57.3895E-03
            4264            4520     61.5848E-03     57.3895E-03
            4305            4521     60.8191E-03     60.5597E-03
            4265            4521     60.8191E-03     60.5597E-03
            4264            4521     60.8191E-03     60.5597E-03
            4304            4521     60.8191E-03     60.5597E-03
            4306            4522     51.9312E-03     61.1584E-03
            4266            4522     51.9312E-03     61.1584E-03
            4305            4522     51.9312E-03     61.1584E-03
            4265            4522     51.9312E-03     61.1584E-03
            4268            4523     4.13143E-03     4.82687E-03
            4307            4523     4.13143E-03     4.82687E-03
            4267            4523     4.13143E-03     4.82687E-03
            4308            4523     4.13143E-03     4.82687E-03
            4308            4524     4.87999E-03     5.59623E-03
            4268            4524     4.87999E-03     5.59623E-03
            4269            4524     4.87999E-03     5.59623E-03
            4309            4524     4.87999E-03     5.59623E-03
            4309            4525     9.23952E-03     7.95113E-03
            4269            4525     9.23952E-03     7.95113E-03
            4310            4525     9.23952E-03     7.95113E-03
            4270            4525     9.23952E-03     7.95113E-03
            4310            4526     11.8926E-03     12.1897E-03
            4270            4526     11.8926E-03     12.1897E-03
            4271            4526     11.8926E-03     12.1897E-03
            4311            4526     11.8926E-03     12.1897E-03
            4312            4527     10.2419E-03     12.3033E-03
            4272            4527     10.2419E-03     12.3033E-03
            4271            4527     10.2419E-03     12.3033E-03
            4311            4527     10.2419E-03     12.3033E-03
            4312            4528     10.2896E-03     9.66980E-03
            4272            4528     10.2896E-03     9.66980E-03
            4273            4528     10.2896E-03     9.66980E-03
            4313            4528     10.2896E-03     9.66980E-03
            4314            4529     11.7074E-03     11.4895E-03
            4273            4529     11.7074E-03     11.4895E-03
            4313            4529     11.7074E-03     11.4895E-03
            4274            4529     11.7074E-03     11.4895E-03
            4314            4530     13.6330E-03     13.8859E-03
            4315            4530     13.6330E-03     13.8859E-03
            4275            4530     13.6330E-03     13.8859E-03
            4274            4530     13.6330E-03     13.8859E-03
            4316            4531     16.2277E-03     16.3575E-03
            4315            4531     16.2277E-03     16.3575E-03
            4275            4531     16.2277E-03     16.3575E-03
            4276            4531     16.2277E-03     16.3575E-03
            4277            4532     18.6889E-03     19.0995E-03
            4276            4532     18.6889E-03     19.0995E-03
            4317            4532     18.6889E-03     19.0995E-03
            4316            4532     18.6889E-03     19.0995E-03
            4318            4533     21.3968E-03     21.8472E-03
            4317            4533     21.3968E-03     21.8472E-03
            4278            4533     21.3968E-03     21.8472E-03
            4277            4533     21.3968E-03     21.8472E-03
            4279            4534     24.3582E-03     24.1973E-03
            4278            4534     24.3582E-03     24.1973E-03
            4319            4534     24.3582E-03     24.1973E-03
            4318            4534     24.3582E-03     24.1973E-03
            4320            4535     26.1977E-03     28.4022E-03
            4280            4535     26.1977E-03     28.4022E-03
            4319            4535     26.1977E-03     28.4022E-03
            4279            4535     26.1977E-03     28.4022E-03
            4280            4536     32.1852E-03     30.2059E-03
            4281            4536     32.1852E-03     30.2059E-03
            4320            4536     32.1852E-03     30.2059E-03
            4321            4536     32.1852E-03     30.2059E-03
            4321            4537     34.1366E-03     33.7903E-03
            4282            4537     34.1366E-03     33.7903E-03
            4322            4537     34.1366E-03     33.7903E-03
            4281            4537     34.1366E-03     33.7903E-03
            4282            4538     29.0584E-03     35.0366E-03
            4323            4538     29.0584E-03     35.0366E-03
            4322            4538     29.0584E-03     35.0366E-03
            4283            4538     29.0584E-03     35.0366E-03
            4283            4539     30.8395E-03     29.7438E-03
            4323            4539     30.8395E-03     29.7438E-03
            4284            4539     30.8395E-03     29.7438E-03
            4324            4539     30.8395E-03     29.7438E-03
            4324            4540     32.0888E-03     30.7822E-03
            4325            4540     32.0888E-03     30.7822E-03
            4284            4540     32.0888E-03     30.7822E-03
            4285            4540     32.0888E-03     30.7822E-03
            4325            4541     31.7680E-03     33.3453E-03
            4286            4541     31.7680E-03     33.3453E-03
            4285            4541     31.7680E-03     33.3453E-03
            4326            4541     31.7680E-03     33.3453E-03
            4327            4542     34.4260E-03     34.6303E-03
            4286            4542     34.4260E-03     34.6303E-03
            4287            4542     34.4260E-03     34.6303E-03
            4326            4542     34.4260E-03     34.6303E-03
            4288            4543     36.4057E-03     37.0626E-03
            4328            4543     36.4057E-03     37.0626E-03
            4327            4543     36.4057E-03     37.0626E-03
            4287            4543     36.4057E-03     37.0626E-03
            4288            4544     38.3993E-03     39.3351E-03
            4289            4544     38.3993E-03     39.3351E-03
            4329            4544     38.3993E-03     39.3351E-03
            4328            4544     38.3993E-03     39.3351E-03
            4290            4545     40.8341E-03     41.6537E-03
            4329            4545     40.8341E-03     41.6537E-03
            4289            4545     40.8341E-03     41.6537E-03
            4330            4545     40.8341E-03     41.6537E-03
            4331            4546     43.5053E-03     43.4403E-03
            4291            4546     43.5053E-03     43.4403E-03
            4330            4546     43.5053E-03     43.4403E-03
            4290            4546     43.5053E-03     43.4403E-03
            4331            4547     44.5333E-03     47.8953E-03
            4292            4547     44.5333E-03     47.8953E-03
            4291            4547     44.5333E-03     47.8953E-03
            4332            4547     44.5333E-03     47.8953E-03
            4293            4548     51.7533E-03     48.8585E-03
            4333            4548     51.7533E-03     48.8585E-03
            4292            4548     51.7533E-03     48.8585E-03
            4332            4548     51.7533E-03     48.8585E-03
            4333            4549     53.3766E-03     52.5551E-03
            4293            4549     53.3766E-03     52.5551E-03
            4334            4549     53.3766E-03     52.5551E-03
            4294            4549     53.3766E-03     52.5551E-03
            4334            4550     46.1562E-03     55.7190E-03
            4335            4550     46.1562E-03     55.7190E-03
            4294            4550     46.1562E-03     55.7190E-03
            4295            4550     46.1562E-03     55.7190E-03
            4295            4551     50.1403E-03     48.6676E-03
            4335            4551     50.1403E-03     48.6676E-03
            4336            4551     50.1403E-03     48.6676E-03
            4296            4551     50.1403E-03     48.6676E-03
            4337            4552     51.1445E-03     48.8734E-03
            4297            4552     51.1445E-03     48.8734E-03
            4296            4552     51.1445E-03     48.8734E-03
            4336            4552     51.1445E-03     48.8734E-03
            4297            4553     48.7498E-03     51.5607E-03
            4337            4553     48.7498E-03     51.5607E-03
            4338            4553     48.7498E-03     51.5607E-03
            4298            4553     48.7498E-03     51.5607E-03
            4338            4554     51.5484E-03     51.7000E-03
            4298            4554     51.5484E-03     51.7000E-03
            4339            4554     51.5484E-03     51.7000E-03
            4299            4554     51.5484E-03     51.7000E-03
            4300            4555     52.8710E-03     54.1198E-03
            4339            4555     52.8710E-03     54.1198E-03
            4340            4555     52.8710E-03     54.1198E-03
            4299            4555     52.8710E-03     54.1198E-03
            4301            4556     54.7932E-03     56.0732E-03
            4340            4556     54.7932E-03     56.0732E-03
            4300            4556     54.7932E-03     56.0732E-03
            4341            4556     54.7932E-03     56.0732E-03
            4302            4557     57.3294E-03     57.2810E-03
            4342            4557     57.3294E-03     57.2810E-03
            4301            4557     57.3294E-03     57.2810E-03
            4341            4557     57.3294E-03     57.2810E-03
            4343            4558     57.7037E-03     61.9025E-03
            4342            4558     57.7037E-03     61.9025E-03
            4303            4558     57.7037E-03     61.9025E-03
            4302            4558     57.7037E-03     61.9025E-03
            4304            4559     65.7648E-03     62.2289E-03
            4303            4559     65.7648E-03     62.2289E-03
            4344            4559     65.7648E-03     62.2289E-03
            4343            4559     65.7648E-03     62.2289E-03
            4344            4560     67.1902E-03     66.0173E-03
            4304            4560     67.1902E-03     66.0173E-03
            4345            4560     67.1902E-03     66.0173E-03
            4305            4560     67.1902E-03     66.0173E-03
            4345            4561     58.4382E-03     65.8160E-03
            4305            4561     58.4382E-03     65.8160E-03
            4306            4561     58.4382E-03     65.8160E-03
            4346            4561     58.4382E-03     65.8160E-03
            5283            5395     110.637E-03     114.069E-03
            5290            5395     110.637E-03     114.069E-03
            5289            5395     110.637E-03     114.069E-03
            5284            5395     110.637E-03     114.069E-03
            5290            5396     110.428E-03     111.193E-03
            5284            5396     110.428E-03     111.193E-03
            5291            5396     110.428E-03     111.193E-03
            5285            5396     110.428E-03     111.193E-03
            5292            5397     109.835E-03     111.823E-03
            5291            5397     109.835E-03     111.823E-03
            5286            5397     109.835E-03     111.823E-03
            5285            5397     109.835E-03     111.823E-03
            5287            5398     111.875E-03     112.427E-03
            5292            5398     111.875E-03     112.427E-03
            5286            5398     111.875E-03     112.427E-03
            5293            5398     111.875E-03     112.427E-03
            5288            5399     112.220E-03     113.609E-03
            5287            5399     112.220E-03     113.609E-03
            5293            5399     112.220E-03     113.609E-03
            5294            5399     112.220E-03     113.609E-03
            5295            5400     131.953E-03     134.559E-03
            5290            5400     131.953E-03     134.559E-03
            5296            5400     131.953E-03     134.559E-03
            5289            5400     131.953E-03     134.559E-03
            5296            5401     131.651E-03     131.434E-03
            5297            5401     131.651E-03     131.434E-03
            5291            5401     131.651E-03     131.434E-03
            5290            5401     131.651E-03     131.434E-03
            5297            5402     129.410E-03     131.639E-03
            5292            5402     129.410E-03     131.639E-03
            5291            5402     129.410E-03     131.639E-03
            5298            5402     129.410E-03     131.639E-03
            5298            5403     129.714E-03     131.454E-03
            5293            5403     129.714E-03     131.454E-03
            5292            5403     129.714E-03     131.454E-03
            5299            5403     129.714E-03     131.454E-03
            5293            5404     129.550E-03     130.318E-03
            5300            5404     129.550E-03     130.318E-03
            5294            5404     129.550E-03     130.318E-03
            5299            5404     129.550E-03     130.318E-03
            5301            5405     149.999E-03     152.967E-03
            5296            5405     149.999E-03     152.967E-03
            5295            5405     149.999E-03     152.967E-03
            5302            5405     149.999E-03     152.967E-03
            5296            5406     150.228E-03     150.177E-03
            5297            5406     150.228E-03     150.177E-03
            5302            5406     150.228E-03     150.177E-03
            5303            5406     150.228E-03     150.177E-03
            5298            5407     147.923E-03     150.283E-03
            5304            5407     147.923E-03     150.283E-03
            5303            5407     147.923E-03     150.283E-03
            5297            5407     147.923E-03     150.283E-03
            5299            5408     148.147E-03     149.402E-03
            5298            5408     148.147E-03     149.402E-03
            5305            5408     148.147E-03     149.402E-03
            5304            5408     148.147E-03     149.402E-03
            5300            5409     147.719E-03     146.791E-03
            5305            5409     147.719E-03     146.791E-03
            5306            5409     147.719E-03     146.791E-03
            5299            5409     147.719E-03     146.791E-03
            5301            5410     165.392E-03     169.713E-03
            5302            5410     165.392E-03     169.713E-03
            5308            5410     165.392E-03     169.713E-03
            5307            5410     165.392E-03     169.713E-03
            5302            5411     166.145E-03     166.343E-03
            5308            5411     166.145E-03     166.343E-03
            5303            5411     166.145E-03     166.343E-03
            5309            5411     166.145E-03     166.343E-03
            5303            5412     163.178E-03     165.831E-03
            5310            5412     163.178E-03     165.831E-03
            5304            5412     163.178E-03     165.831E-03
            5309            5412     163.178E-03     165.831E-03
            5304            5413     163.995E-03     163.504E-03
            5311            5413     163.995E-03     163.504E-03
            5310            5413     163.995E-03     163.504E-03
            5305            5413     163.995E-03     163.504E-03
            5311            5414     163.207E-03     159.858E-03
            5306            5414     163.207E-03     159.858E-03
            5305            5414     163.207E-03     159.858E-03
            5312            5414     163.207E-03     159.858E-03
            5313            5415     181.409E-03     183.458E-03
            5314            5415     181.409E-03     183.458E-03
            5308            5415     181.409E-03     183.458E-03
            5307            5415     181.409E-03     183.458E-03
            5308            5416     179.190E-03     179.394E-03
            5315            5416     179.190E-03     179.394E-03
            5314            5416     179.190E-03     179.394E-03
            5309            5416     179.190E-03     179.394E-03
            5315            5417     173.198E-03     177.437E-03
            5309            5417     173.198E-03     177.437E-03
            5310            5417     173.198E-03     177.437E-03
            5316            5417     173.198E-03     177.437E-03
            5317            5418     173.070E-03     173.385E-03
            5316            5418     173.070E-03     173.385E-03
            5311            5418     173.070E-03     173.385E-03
            5310            5418     173.070E-03     173.385E-03
            5312            5419     171.199E-03     169.247E-03
            5317            5419     171.199E-03     169.247E-03
            5311            5419     171.199E-03     169.247E-03
            5318            5419     171.199E-03     169.247E-03
            5314            5420     193.607E-03     191.335E-03
            5320            5420     193.607E-03     191.335E-03
            5313            5420     193.607E-03     191.335E-03
            5319            5420     193.607E-03     191.335E-03
            5314            5421     187.584E-03     187.119E-03
            5315            5421     187.584E-03     187.119E-03
            5320            5421     187.584E-03     187.119E-03
            5321            5421     187.584E-03     187.119E-03
            5316            5422     178.939E-03     182.543E-03
            5321            5422     178.939E-03     182.543E-03
            5315            5422     178.939E-03     182.543E-03
            5322            5422     178.939E-03     182.543E-03
            5323            5423     176.484E-03     177.866E-03
            5316            5423     176.484E-03     177.866E-03
            5322            5423     176.484E-03     177.866E-03
            5317            5423     176.484E-03     177.866E-03
            5323            5424     169.902E-03     173.548E-03
            5317            5424     169.902E-03     173.548E-03
            5318            5424     169.902E-03     173.548E-03
            5324            5424     169.902E-03     173.548E-03
            6568            6525     987.780E-06     966.273E-06
            6574            6525     987.780E-06     966.273E-06
            6573            6525     987.780E-06     966.273E-06
            6567            6525     987.780E-06     966.273E-06
            6569            6526     988.504E-06     977.527E-06
            6574            6526     988.504E-06     977.527E-06
            6575            6526     988.504E-06     977.527E-06
            6568            6526     988.504E-06     977.527E-06
            6576            6527     973.348E-06     974.642E-06
            6575            6527     973.348E-06     974.642E-06
            6570            6527     973.348E-06     974.642E-06
            6569            6527     973.348E-06     974.642E-06
            6571            6528     978.294E-06     967.050E-06
            6576            6528     978.294E-06     967.050E-06
            6577            6528     978.294E-06     967.050E-06
            6570            6528     978.294E-06     967.050E-06
            6577            6529     973.352E-06     961.760E-06
            6578            6529     973.352E-06     961.760E-06
            6572            6529     973.352E-06     961.760E-06
            6571            6529     973.352E-06     961.760E-06
            6574            6530     939.866E-06     925.796E-06
            6579            6530     939.866E-06     925.796E-06
            6580            6530     939.866E-06     925.796E-06
            6573            6530     939.866E-06     925.796E-06
            6574            6531     937.278E-06     919.843E-06
            6581            6531     937.278E-06     919.843E-06
            6575            6531     937.278E-06     919.843E-06
            6580            6531     937.278E-06     919.843E-06
            6576            6532     901.046E-06     906.230E-06
            6575            6532     901.046E-06     906.230E-06
            6582            6532     901.046E-06     906.230E-06
            6581            6532     901.046E-06     906.230E-06
            6576            6533     897.829E-06     886.997E-06
            6577            6533     897.829E-06     886.997E-06
            6582            6533     897.829E-06     886.997E-06
            6583            6533     897.829E-06     886.997E-06
            6578            6534     888.975E-06     877.610E-06
            6577            6534     888.975E-06     877.610E-06
            6584            6534     888.975E-06     877.610E-06
            6583            6534     888.975E-06     877.610E-06
            6585            6535     878.455E-06     860.587E-06
            6580            6535     878.455E-06     860.587E-06
            6586            6535     878.455E-06     860.587E-06
            6579            6535     878.455E-06     860.587E-06
            6586            6536     861.678E-06     822.795E-06
            6580            6536     861.678E-06     822.795E-06
            6581            6536     861.678E-06     822.795E-06
            6587            6536     861.678E-06     822.795E-06
            6588            6537     782.007E-06     801.057E-06
            6581            6537     782.007E-06     801.057E-06
            6587            6537     782.007E-06     801.057E-06
            6582            6537     782.007E-06     801.057E-06
            6583            6538     761.541E-06     762.714E-06
            6582            6538     761.541E-06     762.714E-06
            6588            6538     761.541E-06     762.714E-06
            6589            6538     761.541E-06     762.714E-06
            6589            6539     749.889E-06     743.214E-06
            6590            6539     749.889E-06     743.214E-06
            6583            6539     749.889E-06     743.214E-06
            6584            6539     749.889E-06     743.214E-06
            6591            6540     796.494E-06     785.104E-06
            6586            6540     796.494E-06     785.104E-06
            6592            6540     796.494E-06     785.104E-06
            6585            6540     796.494E-06     785.104E-06
            6592            6541     766.302E-06     694.753E-06
            6587            6541     766.302E-06     694.753E-06
            6586            6541     766.302E-06     694.753E-06
            6593            6541     766.302E-06     694.753E-06
            6594            6542     630.525E-06     664.498E-06
            6588            6542     630.525E-06     664.498E-06
            6593            6542     630.525E-06     664.498E-06
            6587            6542     630.525E-06     664.498E-06
            6589            6543     584.011E-06     598.129E-06
            6594            6543     584.011E-06     598.129E-06
            6595            6543     584.011E-06     598.129E-06
            6588            6543     584.011E-06     598.129E-06
            6595            6544     554.603E-06     563.142E-06
            6596            6544     554.603E-06     563.142E-06
            6589            6544     554.603E-06     563.142E-06
            6590            6544     554.603E-06     563.142E-06
            6598            6545     757.575E-06     768.728E-06
            6597            6545     757.575E-06     768.728E-06
            6592            6545     757.575E-06     768.728E-06
            6591            6545     757.575E-06     768.728E-06
            6593            6546     695.029E-06     615.553E-06
            6599            6546     695.029E-06     615.553E-06
            6592            6546     695.029E-06     615.553E-06
            6598            6546     695.029E-06     615.553E-06
            6599            6547     465.403E-06     504.841E-06
            6593            6547     465.403E-06     504.841E-06
            6594            6547     465.403E-06     504.841E-06
            6600            6547     465.403E-06     504.841E-06
            6600            6548     372.452E-06     371.058E-06
            6594            6548     372.452E-06     371.058E-06
            6601            6548     372.452E-06     371.058E-06
            6595            6548     372.452E-06     371.058E-06
            6595            6549     324.378E-06     351.833E-06
            6601            6549     324.378E-06     351.833E-06
            6596            6549     324.378E-06     351.833E-06
            6602            6549     324.378E-06     351.833E-06
            6597            6550     911.026E-06     917.507E-06
            6603            6550     911.026E-06     917.507E-06
            6598            6550     911.026E-06     917.507E-06
            6604            6550     911.026E-06     917.507E-06
            6605            6551     729.856E-06     671.989E-06
            6599            6551     729.856E-06     671.989E-06
            6598            6551     729.856E-06     671.989E-06
            6604            6551     729.856E-06     671.989E-06
            6600            6552     425.483E-06     468.954E-06
            6605            6552     425.483E-06     468.954E-06
            6599            6552     425.483E-06     468.954E-06
            6606            6552     425.483E-06     468.954E-06
            6600            6553     293.954E-06     268.611E-06
            6601            6553     293.954E-06     268.611E-06
            6607            6553     293.954E-06     268.611E-06
            6606            6553     293.954E-06     268.611E-06
            6607            6554     236.255E-06     296.341E-06
            6602            6554     236.255E-06     296.341E-06
            6601            6554     236.255E-06     296.341E-06
            6608            6554     236.255E-06     296.341E-06


  Minimum                            228.961E-06     268.611E-06
      At Element                            1784            6607
            Node                              18            6553

  Maximum                            197.263E-03     193.476E-03
      At Element                            5320            2383
            Node                             625             521

           Total                         207.982         210.954


Field Output reported at element nodes for region: A320-1.Region_4
   Computation algorithm: EXTRAPOLATE_COMPUTE_AVERAGE
   Averaged at nodes
   Averaging regions: ODB_REGIONS

   Element Label      Node Label         S.Mises         S.Mises
                                          @Loc 1          @Loc 2
-----------------------------------------------------------------
            5049              13     1.64852E-03     2.84290E-03
            5739              13     1.64852E-03     2.84290E-03
            5829              14     168.150E-06     321.065E-06
            2510              16     2.30282E-03     2.84250E-03
             785              16     2.30282E-03     2.84250E-03
            2493              17     1.85408E-03     2.88290E-03
             802              17     1.85408E-03     2.88290E-03
             856              18     126.456E-06     275.447E-06
             839              19     376.823E-06     444.654E-06
            3392              20     44.7674E-03     45.8031E-03
            2402              20     44.7674E-03     45.8031E-03
            3375              21     82.9572E-03     84.8061E-03
            2385              21     82.9572E-03     84.8061E-03
            5175              22     166.078E-03     174.918E-03
            2475              22     166.078E-03     174.918E-03
            5192              23     183.726E-03     171.292E-03
            2492              23     183.726E-03     171.292E-03
            4364              24     62.8246E-03     62.2662E-03
            5282              24     62.8246E-03     62.2662E-03
            5265              25     123.028E-03     124.671E-03
            4347              25     123.028E-03     124.671E-03
            5066              26     2.29324E-03     2.75094E-03
            5756              26     2.29324E-03     2.75094E-03
            5846              28     402.706E-06     490.746E-06
            5739             194     858.854E-06     903.700E-06
            5757             194     858.854E-06     903.700E-06
            5775             195     639.943E-06     631.737E-06
            5757             195     639.943E-06     631.737E-06
            5793             196     415.806E-06     419.467E-06
            5775             196     415.806E-06     419.467E-06
            5811             197     231.083E-06     206.395E-06
            5793             197     231.083E-06     206.395E-06
            5829             198     144.394E-06     225.818E-06
            5811             198     144.394E-06     225.818E-06
            2510             289     2.46029E-03     2.78084E-03
             786             289     2.46029E-03     2.78084E-03
             785             289     2.46029E-03     2.78084E-03
            2509             289     2.46029E-03     2.78084E-03
             786             290     2.66169E-03     2.67511E-03
            2508             290     2.66169E-03     2.67511E-03
             787             290     2.66169E-03     2.67511E-03
            2509             290     2.66169E-03     2.67511E-03
            2508             291     2.74596E-03     2.66001E-03
            2507             291     2.74596E-03     2.66001E-03
             788             291     2.74596E-03     2.66001E-03
             787             291     2.74596E-03     2.66001E-03
             788             292     2.82214E-03     2.69337E-03
             789             292     2.82214E-03     2.69337E-03
            2507             292     2.82214E-03     2.69337E-03
            2506             292     2.82214E-03     2.69337E-03
            2505             293     2.90050E-03     2.72643E-03
             790             293     2.90050E-03     2.72643E-03
             789             293     2.90050E-03     2.72643E-03
            2506             293     2.90050E-03     2.72643E-03
             791             294     2.98577E-03     2.77712E-03
            2505             294     2.98577E-03     2.77712E-03
             790             294     2.98577E-03     2.77712E-03
            2504             294     2.98577E-03     2.77712E-03
             792             295     3.07525E-03     2.83416E-03
             791             295     3.07525E-03     2.83416E-03
            2503             295     3.07525E-03     2.83416E-03
            2504             295     3.07525E-03     2.83416E-03
            2502             296     3.16899E-03     2.89564E-03
            2503             296     3.16899E-03     2.89564E-03
             792             296     3.16899E-03     2.89564E-03
             793             296     3.16899E-03     2.89564E-03
            2501             297     3.26217E-03     2.96124E-03
             793             297     3.26217E-03     2.96124E-03
             794             297     3.26217E-03     2.96124E-03
            2502             297     3.26217E-03     2.96124E-03
             795             298     3.34930E-03     3.01795E-03
            2500             298     3.34930E-03     3.01795E-03
             794             298     3.34930E-03     3.01795E-03
            2501             298     3.34930E-03     3.01795E-03
            2499             299     3.41839E-03     3.06021E-03
             795             299     3.41839E-03     3.06021E-03
             796             299     3.41839E-03     3.06021E-03
            2500             299     3.41839E-03     3.06021E-03
             796             300     3.45524E-03     3.06606E-03
             797             300     3.45524E-03     3.06606E-03
            2499             300     3.45524E-03     3.06606E-03
            2498             300     3.45524E-03     3.06606E-03
             797             301     3.41355E-03     2.99237E-03
             798             301     3.41355E-03     2.99237E-03
            2497             301     3.41355E-03     2.99237E-03
            2498             301     3.41355E-03     2.99237E-03
             798             302     3.28114E-03     2.81026E-03
            2497             302     3.28114E-03     2.81026E-03
            2496             302     3.28114E-03     2.81026E-03
             799             302     3.28114E-03     2.81026E-03
            2496             303     2.89223E-03     2.36248E-03
            2495             303     2.89223E-03     2.36248E-03
             800             303     2.89223E-03     2.36248E-03
             799             303     2.89223E-03     2.36248E-03
            2494             304     2.26216E-03     1.63107E-03
             800             304     2.26216E-03     1.63107E-03
             801             304     2.26216E-03     1.63107E-03
            2495             304     2.26216E-03     1.63107E-03
            2493             305     1.89652E-03     2.05153E-03
             801             305     1.89652E-03     2.05153E-03
             802             305     1.89652E-03     2.05153E-03
            2494             305     1.89652E-03     2.05153E-03
             820             306     479.046E-06     530.603E-06
             802             306     479.046E-06     530.603E-06
             838             307     227.867E-06     234.562E-06
             820             307     227.867E-06     234.562E-06
             838             308     89.9879E-06     209.381E-06
             856             308     89.9879E-06     209.381E-06
             856             309     268.860E-06     301.047E-06
             855             309     268.860E-06     301.047E-06
             855             310     419.974E-06     354.583E-06
             854             310     419.974E-06     354.583E-06
             853             311     462.833E-06     404.201E-06
             854             311     462.833E-06     404.201E-06
             852             312     479.815E-06     416.477E-06
             853             312     479.815E-06     416.477E-06
             852             313     469.179E-06     413.608E-06
             851             313     469.179E-06     413.608E-06
             850             314     468.212E-06     414.382E-06
             851             314     468.212E-06     414.382E-06
             849             315     461.560E-06     411.001E-06
             850             315     461.560E-06     411.001E-06
             849             316     458.009E-06     410.776E-06
             848             316     458.009E-06     410.776E-06
             848             317     452.531E-06     408.959E-06
             847             317     452.531E-06     408.959E-06
             846             318     448.344E-06     408.668E-06
             847             318     448.344E-06     408.668E-06
             845             319     443.535E-06     408.171E-06
             846             319     443.535E-06     408.171E-06
             845             320     439.349E-06     408.564E-06
             844             320     439.349E-06     408.564E-06
             843             321     435.460E-06     408.862E-06
             844             321     435.460E-06     408.862E-06
             843             322     430.740E-06     411.416E-06
             842             322     430.740E-06     411.416E-06
             842             323     428.791E-06     411.484E-06
             841             323     428.791E-06     411.484E-06
             840             324     424.514E-06     411.209E-06
             841             324     424.514E-06     411.209E-06
             839             325     397.850E-06     428.792E-06
             840             325     397.850E-06     428.792E-06
             821             326     412.427E-06     413.596E-06
             839             326     412.427E-06     413.596E-06
             803             327     444.605E-06     375.120E-06
             821             327     444.605E-06     375.120E-06
             803             328     398.567E-06     396.516E-06
             785             328     398.567E-06     396.516E-06
            3374             363     5.82458E-03     7.40930E-03
            3392             363     5.82458E-03     7.40930E-03
            3356             364     4.34123E-03     5.25612E-03
            3374             364     4.34123E-03     5.25612E-03
            3356             365     2.46809E-03     3.42439E-03
            3338             365     2.46809E-03     3.42439E-03
            3320             366     1.15724E-03     2.68659E-03
            3338             366     1.15724E-03     2.68659E-03
            3320             367     1.55982E-03     2.47329E-03
            3302             367     1.55982E-03     2.47329E-03
            3284             368     2.91188E-03     3.69992E-03
            3302             368     2.91188E-03     3.69992E-03
            3266             369     4.55521E-03     5.02989E-03
            3284             369     4.55521E-03     5.02989E-03
            3266             370     6.46415E-03     7.09611E-03
            3248             370     6.46415E-03     7.09611E-03
            3230             371     7.79444E-03     9.49692E-03
            3248             371     7.79444E-03     9.49692E-03
            3212             372     6.43146E-03     8.00124E-03
            3230             372     6.43146E-03     8.00124E-03
            3194             373     4.11307E-03     5.36083E-03
            3212             373     4.11307E-03     5.36083E-03
            3194             374     2.84263E-03     3.73481E-03
            3176             374     2.84263E-03     3.73481E-03
            3176             375     1.41547E-03     2.36345E-03
            3158             375     1.41547E-03     2.36345E-03
            3140             376     920.525E-06     2.04526E-03
            3158             376     920.525E-06     2.04526E-03
            3140             377     1.65678E-03     2.32814E-03
            3122             377     1.65678E-03     2.32814E-03
            3122             378     2.89836E-03     3.17992E-03
            3104             378     2.89836E-03     3.17992E-03
            3086             379     4.15603E-03     4.52491E-03
            3104             379     4.15603E-03     4.52491E-03
            3068             380     5.47422E-03     5.67881E-03
            3086             380     5.47422E-03     5.67881E-03
            3068             381     7.00386E-03     7.45360E-03
            3050             381     7.00386E-03     7.45360E-03
            3032             382     7.97757E-03     9.54552E-03
            3050             382     7.97757E-03     9.54552E-03
            3014             383     5.16140E-03     6.47241E-03
            3032             383     5.16140E-03     6.47241E-03
            3014             384     1.66105E-03     2.54175E-03
            2996             384     1.66105E-03     2.54175E-03
            2978             385     853.451E-06     1.73645E-03
            2996             385     853.451E-06     1.73645E-03
            2978             386     869.138E-06     1.36650E-03
            2960             386     869.138E-06     1.36650E-03
            2960             387     1.71686E-03     1.90142E-03
            2942             387     1.71686E-03     1.90142E-03
            2924             388     2.66820E-03     2.73647E-03
            2942             388     2.66820E-03     2.73647E-03
            2906             389     3.64437E-03     3.56697E-03
            2924             389     3.64437E-03     3.56697E-03
            2906             390     4.58429E-03     4.65882E-03
            2888             390     4.58429E-03     4.65882E-03
            2870             391     5.54464E-03     5.54957E-03
            2888             391     5.54464E-03     5.54957E-03
            2870             392     6.68642E-03     6.91999E-03
            2852             392     6.68642E-03     6.91999E-03
            2834             393     7.28707E-03     8.59969E-03
            2852             393     7.28707E-03     8.59969E-03
            2816             394     4.05116E-03     5.11052E-03
            2834             394     4.05116E-03     5.11052E-03
            2816             395     1.21313E-03     1.34328E-03
            2798             395     1.21313E-03     1.34328E-03
            2780             396     1.98539E-03     1.82006E-03
            2798             396     1.98539E-03     1.82006E-03
            2762             397     2.63214E-03     2.41011E-03
            2780             397     2.63214E-03     2.41011E-03
            2744             398     3.25827E-03     2.96918E-03
            2762             398     3.25827E-03     2.96918E-03
            2726             399     3.81932E-03     3.56361E-03
            2744             399     3.81932E-03     3.56361E-03
            2726             400     4.38197E-03     4.08298E-03
            2708             400     4.38197E-03     4.08298E-03
            2690             401     4.91665E-03     4.74776E-03
            2708             401     4.91665E-03     4.74776E-03
            2672             402     5.43429E-03     5.26329E-03
            2690             402     5.43429E-03     5.26329E-03
            2654             403     6.09795E-03     6.11060E-03
            2672             403     6.09795E-03     6.11060E-03
            2636             404     6.25563E-03     7.25547E-03
            2654             404     6.25563E-03     7.25547E-03
            2636             405     4.67474E-03     5.72029E-03
            2618             405     4.67474E-03     5.72029E-03
            2618             406     3.64169E-03     3.90617E-03
            2600             406     3.64169E-03     3.90617E-03
            2582             407     4.16351E-03     3.73461E-03
            2600             407     4.16351E-03     3.73461E-03
            2582             408     4.37237E-03     3.89113E-03
            2564             408     4.37237E-03     3.89113E-03
            2546             409     4.56763E-03     4.09389E-03
            2564             409     4.56763E-03     4.09389E-03
            2528             410     4.80711E-03     4.42786E-03
            2546             410     4.80711E-03     4.42786E-03
            2510             411     4.57571E-03     5.09579E-03
            2528             411     4.57571E-03     5.09579E-03
            3357             440     65.2072E-03     65.3143E-03
            3375             440     65.2072E-03     65.3143E-03
            3339             441     64.7786E-03     64.7524E-03
            3357             441     64.7786E-03     64.7524E-03
            3321             442     63.7672E-03     64.8749E-03
            3339             442     63.7672E-03     64.8749E-03
            3303             443     63.1982E-03     63.5479E-03
            3321             443     63.1982E-03     63.5479E-03
            3285             444     62.0128E-03     62.8784E-03
            3303             444     62.0128E-03     62.8784E-03
            3267             445     61.1931E-03     61.5138E-03
            3285             445     61.1931E-03     61.5138E-03
            3249             446     59.7769E-03     60.6044E-03
            3267             446     59.7769E-03     60.6044E-03
            3231             447     58.4193E-03     58.4156E-03
            3249             447     58.4193E-03     58.4156E-03
            3231             448     56.5587E-03     55.9893E-03
            3213             448     56.5587E-03     55.9893E-03
            3195             449     56.1028E-03     57.8682E-03
            3213             449     56.1028E-03     57.8682E-03
            3195             450     57.6671E-03     57.8966E-03
            3177             450     57.6671E-03     57.8966E-03
            3159             451     56.7325E-03     56.7188E-03
            3177             451     56.7325E-03     56.7188E-03
            3141             452     55.3248E-03     56.2673E-03
            3159             452     55.3248E-03     56.2673E-03
            3123             453     54.2983E-03     54.6704E-03
            3141             453     54.2983E-03     54.6704E-03
            3105             454     52.9588E-03     53.5700E-03
            3123             454     52.9588E-03     53.5700E-03
            3087             455     51.7188E-03     52.1794E-03
            3105             455     51.7188E-03     52.1794E-03
            3087             456     50.2867E-03     50.6499E-03
            3069             456     50.2867E-03     50.6499E-03
            3069             457     48.7195E-03     49.2179E-03
            3051             457     48.7195E-03     49.2179E-03
            3051             458     46.9084E-03     46.9386E-03
            3033             458     46.9084E-03     46.9386E-03
            3015             459     44.7902E-03     44.1246E-03
            3033             459     44.7902E-03     44.1246E-03
            2997             460     44.7528E-03     46.2135E-03
            3015             460     44.7528E-03     46.2135E-03
            2979             461     46.3310E-03     46.7190E-03
            2997             461     46.3310E-03     46.7190E-03
            2961             462     44.8657E-03     44.8198E-03
            2979             462     44.8657E-03     44.8198E-03
            2943             463     42.9909E-03     43.7840E-03
            2961             463     42.9909E-03     43.7840E-03
            2943             464     41.5664E-03     41.8303E-03
            2925             464     41.5664E-03     41.8303E-03
            2925             465     39.8671E-03     40.3461E-03
            2907             465     39.8671E-03     40.3461E-03
            2889             466     38.3137E-03     38.6063E-03
            2907             466     38.3137E-03     38.6063E-03
            2889             467     36.5449E-03     36.7990E-03
            2871             467     36.5449E-03     36.7990E-03
            2853             468     34.7122E-03     34.9570E-03
            2871             468     34.7122E-03     34.9570E-03
            2853             469     32.5387E-03     32.5457E-03
            2835             469     32.5387E-03     32.5457E-03
            2817             470     30.1433E-03     29.4402E-03
            2835             470     30.1433E-03     29.4402E-03
            2817             471     30.6097E-03     31.7051E-03
            2799             471     30.6097E-03     31.7051E-03
            2781             472     32.2151E-03     32.7727E-03
            2799             472     32.2151E-03     32.7727E-03
            2763             473     30.2265E-03     30.1299E-03
            2781             473     30.2265E-03     30.1299E-03
            2745             474     27.8997E-03     28.4875E-03
            2763             474     27.8997E-03     28.4875E-03
            2745             475     26.0907E-03     26.2131E-03
            2727             475     26.0907E-03     26.2131E-03
            2709             476     24.0601E-03     24.3630E-03
            2727             476     24.0601E-03     24.3630E-03
            2709             477     22.2269E-03     22.3088E-03
            2691             477     22.2269E-03     22.3088E-03
            2691             478     20.1680E-03     20.2732E-03
            2673             478     20.1680E-03     20.2732E-03
            2655             479     18.1297E-03     18.0604E-03
            2673             479     18.1297E-03     18.0604E-03
            2637             480     15.6845E-03     15.6136E-03
            2655             480     15.6845E-03     15.6136E-03
            2619             481     13.0506E-03     12.3996E-03
            2637             481     13.0506E-03     12.3996E-03
            2601             482     13.5341E-03     14.2354E-03
            2619             482     13.5341E-03     14.2354E-03
            2601             483     14.5268E-03     15.2299E-03
            2583             483     14.5268E-03     15.2299E-03
            2583             484     11.9554E-03     11.6881E-03
            2565             484     11.9554E-03     11.6881E-03
            2565             485     9.11313E-03     9.34241E-03
            2547             485     9.11313E-03     9.34241E-03
            2547             486     6.96016E-03     6.65279E-03
            2529             486     6.96016E-03     6.65279E-03
            2511             487     4.87671E-03     4.57920E-03
            2529             487     4.87671E-03     4.57920E-03
            2493             488     3.54728E-03     4.36714E-03
            2511             488     3.54728E-03     4.36714E-03
            2403             520     144.128E-03     145.504E-03
            2385             520     144.128E-03     145.504E-03
            2421             521     189.915E-03     191.250E-03
            2403             521     189.915E-03     191.250E-03
            2421             522     188.185E-03     188.405E-03
            2439             522     188.185E-03     188.405E-03
            2457             523     182.739E-03     183.064E-03
            2439             523     182.739E-03     183.064E-03
            2457             524     174.163E-03     178.842E-03
            2475             524     174.163E-03     178.842E-03
            3375             531     80.2921E-03     81.6730E-03
            2386             531     80.2921E-03     81.6730E-03
            2385             531     80.2921E-03     81.6730E-03
            3376             531     80.2921E-03     81.6730E-03
            3376             532     76.2238E-03     76.9408E-03
            2387             532     76.2238E-03     76.9408E-03
            2386             532     76.2238E-03     76.9408E-03
            3377             532     76.2238E-03     76.9408E-03
            2388             533     73.3364E-03     73.9660E-03
            3377             533     73.3364E-03     73.9660E-03
            2387             533     73.3364E-03     73.9660E-03
            3378             533     73.3364E-03     73.9660E-03
            2388             534     70.6628E-03     71.3593E-03
            3378             534     70.6628E-03     71.3593E-03
            2389             534     70.6628E-03     71.3593E-03
            3379             534     70.6628E-03     71.3593E-03
            2389             535     68.2330E-03     68.9770E-03
            2390             535     68.2330E-03     68.9770E-03
            3379             535     68.2330E-03     68.9770E-03
            3380             535     68.2330E-03     68.9770E-03
            2391             536     65.8793E-03     66.7048E-03
            2390             536     65.8793E-03     66.7048E-03
            3381             536     65.8793E-03     66.7048E-03
            3380             536     65.8793E-03     66.7048E-03
            3382             537     63.6314E-03     64.4971E-03
            2391             537     63.6314E-03     64.4971E-03
            2392             537     63.6314E-03     64.4971E-03
            3381             537     63.6314E-03     64.4971E-03
            3383             538     61.4291E-03     62.3364E-03
            2393             538     61.4291E-03     62.3364E-03
            2392             538     61.4291E-03     62.3364E-03
            3382             538     61.4291E-03     62.3364E-03
            2394             539     59.2935E-03     60.2129E-03
            2393             539     59.2935E-03     60.2129E-03
            3383             539     59.2935E-03     60.2129E-03
            3384             539     59.2935E-03     60.2129E-03
            3384             540     57.2041E-03     58.1288E-03
            2394             540     57.2041E-03     58.1288E-03
            3385             540     57.2041E-03     58.1288E-03
            2395             540     57.2041E-03     58.1288E-03
            3385             541     55.1775E-03     56.0865E-03
            3386             541     55.1775E-03     56.0865E-03
            2396             541     55.1775E-03     56.0865E-03
            2395             541     55.1775E-03     56.0865E-03
            3387             542     53.2158E-03     54.0951E-03
            2396             542     53.2158E-03     54.0951E-03
            3386             542     53.2158E-03     54.0951E-03
            2397             542     53.2158E-03     54.0951E-03
            2398             543     51.3385E-03     52.1639E-03
            3387             543     51.3385E-03     52.1639E-03
            3388             543     51.3385E-03     52.1639E-03
            2397             543     51.3385E-03     52.1639E-03
            3388             544     49.5720E-03     50.3166E-03
            2398             544     49.5720E-03     50.3166E-03
            3389             544     49.5720E-03     50.3166E-03
            2399             544     49.5720E-03     50.3166E-03
            3389             545     47.9582E-03     48.5821E-03
            3390             545     47.9582E-03     48.5821E-03
            2400             545     47.9582E-03     48.5821E-03
            2399             545     47.9582E-03     48.5821E-03
            3391             546     46.5665E-03     47.0850E-03
            3390             546     46.5665E-03     47.0850E-03
            2401             546     46.5665E-03     47.0850E-03
            2400             546     46.5665E-03     47.0850E-03
            2401             547     45.3551E-03     46.1129E-03
            3392             547     45.3551E-03     46.1129E-03
            2402             547     45.3551E-03     46.1129E-03
            3391             547     45.3551E-03     46.1129E-03
            2420             548     101.689E-03     101.082E-03
            2402             548     101.689E-03     101.082E-03
            2438             549     115.693E-03     115.896E-03
            2420             549     115.693E-03     115.896E-03
            2456             550     115.561E-03     107.759E-03
            2438             550     115.561E-03     107.759E-03
            2456             551     126.628E-03     122.215E-03
            2474             551     126.628E-03     122.215E-03
            2474             552     158.008E-03     155.598E-03
            2492             552     158.008E-03     155.598E-03
            2491             553     181.058E-03     172.735E-03
            5192             553     181.058E-03     172.735E-03
            5191             553     181.058E-03     172.735E-03
            2492             553     181.058E-03     172.735E-03
            2491             554     176.627E-03     172.509E-03
            2490             554     176.627E-03     172.509E-03
            5190             554     176.627E-03     172.509E-03
            5191             554     176.627E-03     172.509E-03
            5189             555     178.223E-03     174.725E-03
            2490             555     178.223E-03     174.725E-03
            2489             555     178.223E-03     174.725E-03
            5190             555     178.223E-03     174.725E-03
            2488             556     181.195E-03     178.338E-03
            5189             556     181.195E-03     178.338E-03
            5188             556     181.195E-03     178.338E-03
            2489             556     181.195E-03     178.338E-03
            2487             557     181.681E-03     179.117E-03
            5188             557     181.681E-03     179.117E-03
            5187             557     181.681E-03     179.117E-03
            2488             557     181.681E-03     179.117E-03
            2487             558     182.008E-03     179.718E-03
            2486             558     182.008E-03     179.718E-03
            5187             558     182.008E-03     179.718E-03
            5186             558     182.008E-03     179.718E-03
            5186             559     181.725E-03     179.677E-03
            2486             559     181.725E-03     179.677E-03
            2485             559     181.725E-03     179.677E-03
            5185             559     181.725E-03     179.677E-03
            5185             560     181.564E-03     179.838E-03
            5184             560     181.564E-03     179.838E-03
            2485             560     181.564E-03     179.838E-03
            2484             560     181.564E-03     179.838E-03
            2483             561     181.240E-03     179.841E-03
            2484             561     181.240E-03     179.841E-03
            5183             561     181.240E-03     179.841E-03
            5184             561     181.240E-03     179.841E-03
            2482             562     180.962E-03     179.947E-03
            2483             562     180.962E-03     179.947E-03
            5183             562     180.962E-03     179.947E-03
            5182             562     180.962E-03     179.947E-03
            2482             563     180.561E-03     179.927E-03
            5182             563     180.561E-03     179.927E-03
            2481             563     180.561E-03     179.927E-03
            5181             563     180.561E-03     179.927E-03
            2480             564     180.013E-03     179.822E-03
            5180             564     180.013E-03     179.822E-03
            5181             564     180.013E-03     179.822E-03
            2481             564     180.013E-03     179.822E-03
            2480             565     179.277E-03     179.468E-03
            5179             565     179.277E-03     179.468E-03
            2479             565     179.277E-03     179.468E-03
            5180             565     179.277E-03     179.468E-03
            2479             566     178.109E-03     178.800E-03
            5179             566     178.109E-03     178.800E-03
            2478             566     178.109E-03     178.800E-03
            5178             566     178.109E-03     178.800E-03
            2477             567     176.524E-03     177.454E-03
            2478             567     176.524E-03     177.454E-03
            5177             567     176.524E-03     177.454E-03
            5178             567     176.524E-03     177.454E-03
            2477             568     174.128E-03     175.177E-03
            2476             568     174.128E-03     175.177E-03
            5177             568     174.128E-03     175.177E-03
            5176             568     174.128E-03     175.177E-03
            2476             569     169.218E-03     174.310E-03
            5175             569     169.218E-03     174.310E-03
            2475             569     169.218E-03     174.310E-03
            5176             569     169.218E-03     174.310E-03
            5264             604     116.273E-03     114.701E-03
            5282             604     116.273E-03     114.701E-03
            5264             605     107.242E-03     103.650E-03
            5246             605     107.242E-03     103.650E-03
            5246             606     112.686E-03     104.732E-03
            5228             606     112.686E-03     104.732E-03
            5210             607     126.441E-03     125.269E-03
            5228             607     126.441E-03     125.269E-03
            5210             608     159.377E-03     157.596E-03
            5192             608     159.377E-03     157.596E-03
            5265             625     191.043E-03     192.562E-03
            5247             625     191.043E-03     192.562E-03
            5247             626     191.332E-03     191.543E-03
            5229             626     191.332E-03     191.543E-03
            5229             627     186.337E-03     186.804E-03
            5211             627     186.337E-03     186.804E-03
            5193             628     182.227E-03     183.196E-03
            5211             628     182.227E-03     183.196E-03
            5175             629     173.509E-03     178.580E-03
            5193             629     173.509E-03     178.580E-03
            4365             636     59.8654E-03     62.0194E-03
            4347             636     59.8654E-03     62.0194E-03
            4365             637     62.8309E-03     63.1420E-03
            4383             637     62.8309E-03     63.1420E-03
            4401             638     61.6223E-03     61.5677E-03
            4383             638     61.6223E-03     61.5677E-03
            4401             639     59.8804E-03     60.9227E-03
            4419             639     59.8804E-03     60.9227E-03
            4419             640     58.6143E-03     59.0097E-03
            4437             640     58.6143E-03     59.0097E-03
            4437             641     56.9894E-03     57.6536E-03
            4455             641     56.9894E-03     57.6536E-03
            4455             642     55.4957E-03     55.9794E-03
            4473             642     55.4957E-03     55.9794E-03
            4491             643     53.7806E-03     54.1649E-03
            4473             643     53.7806E-03     54.1649E-03
            4509             644     51.9157E-03     52.4212E-03
            4491             644     51.9157E-03     52.4212E-03
            4509             645     49.7551E-03     49.7631E-03
            4527             645     49.7551E-03     49.7631E-03
            4545             646     47.2800E-03     46.4894E-03
            4527             646     47.2800E-03     46.4894E-03
            4545             647     47.5899E-03     49.1912E-03
            4563             647     47.5899E-03     49.1912E-03
            4563             648     49.6784E-03     50.1753E-03
            4581             648     49.6784E-03     50.1753E-03
            4599             649     47.9607E-03     47.8670E-03
            4581             649     47.9607E-03     47.8670E-03
            4617             650     45.7675E-03     46.6498E-03
            4599             650     45.7675E-03     46.6498E-03
            4635             651     44.1371E-03     44.3967E-03
            4617             651     44.1371E-03     44.3967E-03
            4635             652     42.1668E-03     42.7199E-03
            4653             652     42.1668E-03     42.7199E-03
            4671             653     40.4729E-03     40.7359E-03
            4653             653     40.4729E-03     40.7359E-03
            4671             654     38.4790E-03     38.8454E-03
            4689             654     38.4790E-03     38.8454E-03
            4689             655     36.5509E-03     36.6934E-03
            4707             655     36.5509E-03     36.6934E-03
            4707             656     34.3941E-03     34.6203E-03
            4725             656     34.3941E-03     34.6203E-03
            4743             657     31.9492E-03     31.8843E-03
            4725             657     31.9492E-03     31.8843E-03
            4743             658     29.2403E-03     28.4345E-03
            4761             658     29.2403E-03     28.4345E-03
            4761             659     29.9328E-03     31.0513E-03
            4779             659     29.9328E-03     31.0513E-03
            4779             660     31.7741E-03     32.4448E-03
            4797             660     31.7741E-03     32.4448E-03
            4797             661     29.4976E-03     29.3553E-03
            4815             661     29.4976E-03     29.3553E-03
            4815             662     26.8490E-03     27.4376E-03
            4833             662     26.8490E-03     27.4376E-03
            4851             663     24.7991E-03     24.8912E-03
            4833             663     24.7991E-03     24.8912E-03
            4869             664     22.5189E-03     22.7992E-03
            4851             664     22.5189E-03     22.7992E-03
            4869             665     20.4751E-03     20.5068E-03
            4887             665     20.4751E-03     20.5068E-03
            4887             666     18.1937E-03     18.2597E-03
            4905             666     18.1937E-03     18.2597E-03
            4905             667     15.9564E-03     15.7943E-03
            4923             667     15.9564E-03     15.7943E-03
            4923             668     13.2998E-03     13.1636E-03
            4941             668     13.2998E-03     13.1636E-03
            4941             669     10.4317E-03     9.82761E-03
            4959             669     10.4317E-03     9.82761E-03
            4977             670     10.6476E-03     11.4437E-03
            4959             670     10.6476E-03     11.4437E-03
            4977             671     11.1347E-03     11.9925E-03
            4995             671     11.1347E-03     11.9925E-03
            4995             672     8.09558E-03     7.56456E-03
            5013             672     8.09558E-03     7.56456E-03
            5031             673     4.72700E-03     4.65393E-03
            5013             673     4.72700E-03     4.65393E-03
            5049             674     2.85530E-03     3.86677E-03
            5031             674     2.85530E-03     3.86677E-03
            5266             675     122.492E-03     123.332E-03
            4347             675     122.492E-03     123.332E-03
            4348             675     122.492E-03     123.332E-03
            5265             675     122.492E-03     123.332E-03
            5266             676     120.015E-03     120.563E-03
            5267             676     120.015E-03     120.563E-03
            4348             676     120.015E-03     120.563E-03
            4349             676     120.015E-03     120.563E-03
            4349             677     116.589E-03     117.678E-03
            4350             677     116.589E-03     117.678E-03
            5268             677     116.589E-03     117.678E-03
            5267             677     116.589E-03     117.678E-03
            4351             678     113.752E-03     115.015E-03
            5269             678     113.752E-03     115.015E-03
            4350             678     113.752E-03     115.015E-03
            5268             678     113.752E-03     115.015E-03
            5270             679     111.030E-03     112.542E-03
            4351             679     111.030E-03     112.542E-03
            4352             679     111.030E-03     112.542E-03
            5269             679     111.030E-03     112.542E-03
            4353             680     108.560E-03     110.271E-03
            5271             680     108.560E-03     110.271E-03
            5270             680     108.560E-03     110.271E-03
            4352             680     108.560E-03     110.271E-03
            5272             681     106.196E-03     108.095E-03
            5271             681     106.196E-03     108.095E-03
            4353             681     106.196E-03     108.095E-03
            4354             681     106.196E-03     108.095E-03
            4354             682     103.973E-03     35.0132E-03
            5273             682     103.973E-03     178.684E-03
            5272             682     103.973E-03     178.835E-03
            4355             682     103.973E-03     31.6918E-03
            4355             683     30.8633E-03     31.6918E-03
            5273             683     175.167E-03     178.684E-03
            5274             683     173.325E-03     177.145E-03
            4356             683     27.5420E-03     28.3705E-03
            5275             684     173.244E-03     177.419E-03
            5274             684     173.325E-03     177.145E-03
            4356             684     27.5420E-03     28.3705E-03
            4357             684     24.2207E-03     25.0493E-03
            5276             685     170.513E-03     174.862E-03
            5275             685     173.244E-03     177.419E-03
            4358             685     20.8996E-03     21.7282E-03
            4357             685     24.2207E-03     25.0493E-03
            4358             686     20.8996E-03     21.7282E-03
            5277             686     170.343E-03     175.174E-03
            4359             686     17.5785E-03     18.4072E-03
            5276             686     170.513E-03     174.862E-03
            4360             687     14.2578E-03     15.0864E-03
            5278             687     164.744E-03     169.375E-03
            5277             687     170.343E-03     175.174E-03
            4359             687     17.5785E-03     18.4072E-03
            5278             688     164.744E-03     169.375E-03
            4360             688     14.2578E-03     15.0864E-03
            5279             688     162.004E-03     166.874E-03
            4361             688     10.9374E-03     11.7661E-03
            5279             689     162.004E-03     166.874E-03
            5280             689     148.281E-03     152.613E-03
            4362             689     7.61818E-03     8.44675E-03
            4361             689     10.9374E-03     11.7661E-03
            4362             690     75.5341E-03     8.44675E-03
            5280             690     75.5341E-03     152.613E-03
            5281             690     75.5341E-03     144.844E-03
            4363             690     75.5341E-03     5.13023E-03
            5281             691     67.9717E-03     68.6266E-03
            5282             691     67.9717E-03     68.6266E-03
            4364             691     67.9717E-03     68.6266E-03
            4363             691     67.9717E-03     68.6266E-03
            4382             692     2.76861E-03     3.76910E-03
            4364             692     2.76861E-03     3.76910E-03
            4400             693     3.92764E-03     5.23956E-03
            4382             693     3.92764E-03     5.23956E-03
            4418             694     2.56462E-03     3.60004E-03
            4400             694     2.56462E-03     3.60004E-03
            4436             695     1.18068E-03     2.25742E-03
            4418             695     1.18068E-03     2.25742E-03
            4436             696     1.06725E-03     2.15443E-03
            4454             696     1.06725E-03     2.15443E-03
            4472             697     2.18462E-03     2.72240E-03
            4454             697     2.18462E-03     2.72240E-03
            4490             698     3.55889E-03     3.74245E-03
            4472             698     3.55889E-03     3.74245E-03
            4508             699     4.90933E-03     5.23028E-03
            4490             699     4.90933E-03     5.23028E-03
            4526             700     6.31669E-03     6.48362E-03
            4508             700     6.31669E-03     6.48362E-03
            4544             701     7.94408E-03     8.40641E-03
            4526             701     7.94408E-03     8.40641E-03
            4562             702     8.92974E-03     10.6695E-03
            4544             702     8.92974E-03     10.6695E-03
            4580             703     5.43505E-03     6.84678E-03
            4562             703     5.43505E-03     6.84678E-03
            4598             704     1.25673E-03     2.16613E-03
            4580             704     1.25673E-03     2.16613E-03
            4598             705     709.185E-06     1.56047E-03
            4616             705     709.185E-06     1.56047E-03
            4616             706     1.16214E-03     1.46487E-03
            4634             706     1.16214E-03     1.46487E-03
            4652             707     2.07459E-03     2.15330E-03
            4634             707     2.07459E-03     2.15330E-03
            4670             708     3.03776E-03     2.95120E-03
            4652             708     3.03776E-03     2.95120E-03
            4670             709     3.92672E-03     3.85402E-03
            4688             709     3.92672E-03     3.85402E-03
            4688             710     4.83784E-03     4.69079E-03
            4706             710     4.83784E-03     4.69079E-03
            4724             711     5.72800E-03     5.74647E-03
            4706             711     5.72800E-03     5.74647E-03
            4742             712     6.63152E-03     6.60578E-03
            4724             712     6.63152E-03     6.60578E-03
            4742             713     7.75211E-03     7.97874E-03
            4760             713     7.75211E-03     7.97874E-03
            4778             714     8.24674E-03     9.71469E-03
            4760             714     8.24674E-03     9.71469E-03
            4778             715     4.88613E-03     6.10082E-03
            4796             715     4.88613E-03     6.10082E-03
            4796             716     2.02525E-03     2.16584E-03
            4814             716     2.02525E-03     2.16584E-03
            4814             717     2.79313E-03     2.54414E-03
            4832             717     2.79313E-03     2.54414E-03
            4832             718     3.37454E-03     3.07107E-03
            4850             718     3.37454E-03     3.07107E-03
            4850             719     3.95079E-03     3.58823E-03
            4868             719     3.95079E-03     3.58823E-03
            4868             720     4.46118E-03     4.12222E-03
            4886             720     4.46118E-03     4.12222E-03
            4904             721     4.96937E-03     4.59749E-03
            4886             721     4.96937E-03     4.59749E-03
            4904             722     5.44991E-03     5.20952E-03
            4922             722     5.44991E-03     5.20952E-03
            4940             723     5.90400E-03     5.67412E-03
            4922             723     5.90400E-03     5.67412E-03
            4958             724     6.50313E-03     6.47118E-03
            4940             724     6.50313E-03     6.47118E-03
            4958             725     6.55070E-03     7.58250E-03
            4976             725     6.55070E-03     7.58250E-03
            4976             726     5.10024E-03     6.12712E-03
            4994             726     5.10024E-03     6.12712E-03
            4994             727     4.30246E-03     4.47976E-03
            5012             727     4.30246E-03     4.47976E-03
            5012             728     4.80039E-03     4.12024E-03
            5030             728     4.80039E-03     4.12024E-03
            5030             729     4.97836E-03     4.29410E-03
            5048             729     4.97836E-03     4.29410E-03
            5066             730     4.65007E-03     5.01500E-03
            5048             730     4.65007E-03     5.01500E-03
            5066             731     2.45125E-03     2.72595E-03
            5065             731     2.45125E-03     2.72595E-03
            5755             731     2.45125E-03     2.72595E-03
            5756             731     2.45125E-03     2.72595E-03
            5754             732     2.64549E-03     2.64471E-03
            5065             732     2.64549E-03     2.64471E-03
            5064             732     2.64549E-03     2.64471E-03
            5755             732     2.64549E-03     2.64471E-03
            5063             733     2.72100E-03     2.61393E-03
            5064             733     2.72100E-03     2.61393E-03
            5753             733     2.72100E-03     2.61393E-03
            5754             733     2.72100E-03     2.61393E-03
            5753             734     2.79043E-03     2.64142E-03
            5063             734     2.79043E-03     2.64142E-03
            5062             734     2.79043E-03     2.64142E-03
            5752             734     2.79043E-03     2.64142E-03
            5061             735     2.85394E-03     2.65725E-03
            5751             735     2.85394E-03     2.65725E-03
            5752             735     2.85394E-03     2.65725E-03
            5062             735     2.85394E-03     2.65725E-03
            5060             736     2.92672E-03     2.68361E-03
            5751             736     2.92672E-03     2.68361E-03
            5750             736     2.92672E-03     2.68361E-03
            5061             736     2.92672E-03     2.68361E-03
            5749             737     3.00406E-03     2.71760E-03
            5059             737     3.00406E-03     2.71760E-03
            5060             737     3.00406E-03     2.71760E-03
            5750             737     3.00406E-03     2.71760E-03
            5748             738     3.08771E-03     2.75741E-03
            5749             738     3.08771E-03     2.75741E-03
            5058             738     3.08771E-03     2.75741E-03
            5059             738     3.08771E-03     2.75741E-03
            5747             739     3.17455E-03     2.80729E-03
            5748             739     3.17455E-03     2.80729E-03
            5058             739     3.17455E-03     2.80729E-03
            5057             739     3.17455E-03     2.80729E-03
            5747             740     3.26590E-03     2.85707E-03
            5056             740     3.26590E-03     2.85707E-03
            5057             740     3.26590E-03     2.85707E-03
            5746             740     3.26590E-03     2.85707E-03
            5746             741     3.35653E-03     2.91586E-03
            5745             741     3.35653E-03     2.91586E-03
            5055             741     3.35653E-03     2.91586E-03
            5056             741     3.35653E-03     2.91586E-03
            5744             742     3.44136E-03     2.95903E-03
            5055             742     3.44136E-03     2.95903E-03
            5054             742     3.44136E-03     2.95903E-03
            5745             742     3.44136E-03     2.95903E-03
            5053             743     3.50390E-03     2.98528E-03
            5743             743     3.50390E-03     2.98528E-03
            5054             743     3.50390E-03     2.98528E-03
            5744             743     3.50390E-03     2.98528E-03
            5053             744     3.49886E-03     2.94635E-03
            5052             744     3.49886E-03     2.94635E-03
            5742             744     3.49886E-03     2.94635E-03
            5743             744     3.49886E-03     2.94635E-03
            5741             745     3.25595E-03     2.66230E-03
            5742             745     3.25595E-03     2.66230E-03
            5051             745     3.25595E-03     2.66230E-03
            5052             745     3.25595E-03     2.66230E-03
            5050             746     2.77671E-03     2.09581E-03
            5051             746     2.77671E-03     2.09581E-03
            5741             746     2.77671E-03     2.09581E-03
            5740             746     2.77671E-03     2.09581E-03
            5739             747     2.08287E-03     2.29687E-03
            5049             747     2.08287E-03     2.29687E-03
            5740             747     2.08287E-03     2.29687E-03
            5050             747     2.08287E-03     2.29687E-03
            5846             787     435.214E-06     468.982E-06
            5828             787     435.214E-06     468.982E-06
            5810             788     457.962E-06     418.842E-06
            5828             788     457.962E-06     418.842E-06
            5792             789     440.561E-06     387.678E-06
            5810             789     440.561E-06     387.678E-06
            5774             790     429.528E-06     387.928E-06
            5792             790     429.528E-06     387.928E-06
            5774             791     382.495E-06     404.617E-06
            5756             791     382.495E-06     404.617E-06
            5846             808     426.643E-06     475.791E-06
            5845             808     426.643E-06     475.791E-06
            5844             809     457.106E-06     455.547E-06
            5845             809     457.106E-06     455.547E-06
            5843             810     465.963E-06     451.206E-06
            5844             810     465.963E-06     451.206E-06
            5842             811     473.349E-06     452.291E-06
            5843             811     473.349E-06     452.291E-06
            5841             812     480.639E-06     453.508E-06
            5842             812     480.639E-06     453.508E-06
            5840             813     487.650E-06     456.670E-06
            5841             813     487.650E-06     456.670E-06
            5840             814     495.146E-06     459.498E-06
            5839             814     495.146E-06     459.498E-06
            5838             815     503.236E-06     463.841E-06
            5839             815     503.236E-06     463.841E-06
            5838             816     510.494E-06     467.410E-06
            5837             816     510.494E-06     467.410E-06
            5836             817     518.516E-06     471.979E-06
            5837             817     518.516E-06     471.979E-06
            5835             818     522.895E-06     473.425E-06
            5836             818     522.895E-06     473.425E-06
            5834             819     526.689E-06     472.999E-06
            5835             819     526.689E-06     472.999E-06
            5834             820     517.696E-06     462.730E-06
            5833             820     517.696E-06     462.730E-06
            5832             821     498.795E-06     436.970E-06
            5833             821     498.795E-06     436.970E-06
            5831             822     442.254E-06     377.919E-06
            5832             822     442.254E-06     377.919E-06
            5830             823     352.824E-06     277.960E-06
            5831             823     352.824E-06     277.960E-06
            5829             824     241.863E-06     272.674E-06
            5830             824     241.863E-06     272.674E-06
             786            1467     396.011E-06     400.337E-06
             804            1467     396.011E-06     400.337E-06
             785            1467     396.011E-06     400.337E-06
             803            1467     396.011E-06     400.337E-06
             804            1468     392.046E-06     404.801E-06
             787            1468     392.046E-06     404.801E-06
             805            1468     392.046E-06     404.801E-06
             786            1468     392.046E-06     404.801E-06
             788            1469     389.698E-06     406.290E-06
             806            1469     389.698E-06     406.290E-06
             805            1469     389.698E-06     406.290E-06
             787            1469     389.698E-06     406.290E-06
             788            1470     388.463E-06     408.875E-06
             806            1470     388.463E-06     408.875E-06
             807            1470     388.463E-06     408.875E-06
             789            1470     388.463E-06     408.875E-06
             790            1471     388.078E-06     412.251E-06
             789            1471     388.078E-06     412.251E-06
             808            1471     388.078E-06     412.251E-06
             807            1471     388.078E-06     412.251E-06
             808            1472     388.374E-06     416.003E-06
             790            1472     388.374E-06     416.003E-06
             809            1472     388.374E-06     416.003E-06
             791            1472     388.374E-06     416.003E-06
             792            1473     389.112E-06     420.057E-06
             791            1473     389.112E-06     420.057E-06
             809            1473     389.112E-06     420.057E-06
             810            1473     389.112E-06     420.057E-06
             811            1474     390.536E-06     424.569E-06
             792            1474     390.536E-06     424.569E-06
             810            1474     390.536E-06     424.569E-06
             793            1474     390.536E-06     424.569E-06
             794            1475     392.276E-06     429.152E-06
             812            1475     392.276E-06     429.152E-06
             793            1475     392.276E-06     429.152E-06
             811            1475     392.276E-06     429.152E-06
             813            1476     395.043E-06     434.480E-06
             794            1476     395.043E-06     434.480E-06
             795            1476     395.043E-06     434.480E-06
             812            1476     395.043E-06     434.480E-06
             796            1477     397.741E-06     439.616E-06
             813            1477     397.741E-06     439.616E-06
             814            1477     397.741E-06     439.616E-06
             795            1477     397.741E-06     439.616E-06
             797            1478     402.545E-06     446.164E-06
             814            1478     402.545E-06     446.164E-06
             815            1478     402.545E-06     446.164E-06
             796            1478     402.545E-06     446.164E-06
             815            1479     406.388E-06     452.296E-06
             797            1479     406.388E-06     452.296E-06
             816            1479     406.388E-06     452.296E-06
             798            1479     406.388E-06     452.296E-06
             799            1480     416.094E-06     461.443E-06
             816            1480     416.094E-06     461.443E-06
             817            1480     416.094E-06     461.443E-06
             798            1480     416.094E-06     461.443E-06
             818            1481     420.052E-06     467.500E-06
             817            1481     420.052E-06     467.500E-06
             800            1481     420.052E-06     467.500E-06
             799            1481     420.052E-06     467.500E-06
             800            1482     418.986E-06     473.869E-06
             801            1482     418.986E-06     473.869E-06
             818            1482     418.986E-06     473.869E-06
             819            1482     418.986E-06     473.869E-06
             819            1483     451.537E-06     506.265E-06
             801            1483     451.537E-06     506.265E-06
             820            1483     451.537E-06     506.265E-06
             802            1483     451.537E-06     506.265E-06
             804            1484     423.540E-06     392.533E-06
             822            1484     423.540E-06     392.533E-06
             821            1484     423.540E-06     392.533E-06
             803            1484     423.540E-06     392.533E-06
             805            1485     397.761E-06     408.517E-06
             804            1485     397.761E-06     408.517E-06
             823            1485     397.761E-06     408.517E-06
             822            1485     397.761E-06     408.517E-06
             823            1486     396.447E-06     403.813E-06
             824            1486     396.447E-06     403.813E-06
             805            1486     396.447E-06     403.813E-06
             806            1486     396.447E-06     403.813E-06
             806            1487     399.075E-06     402.789E-06
             807            1487     399.075E-06     402.789E-06
             824            1487     399.075E-06     402.789E-06
             825            1487     399.075E-06     402.789E-06
             825            1488     399.716E-06     405.852E-06
             826            1488     399.716E-06     405.852E-06
             807            1488     399.716E-06     405.852E-06
             808            1488     399.716E-06     405.852E-06
             809            1489     402.195E-06     407.746E-06
             827            1489     402.195E-06     407.746E-06
             808            1489     402.195E-06     407.746E-06
             826            1489     402.195E-06     407.746E-06
             827            1490     404.850E-06     410.505E-06
             828            1490     404.850E-06     410.505E-06
             809            1490     404.850E-06     410.505E-06
             810            1490     404.850E-06     410.505E-06
             810            1491     407.694E-06     413.528E-06
             829            1491     407.694E-06     413.528E-06
             828            1491     407.694E-06     413.528E-06
             811            1491     407.694E-06     413.528E-06
             830            1492     411.280E-06     417.088E-06
             811            1492     411.280E-06     417.088E-06
             829            1492     411.280E-06     417.088E-06
             812            1492     411.280E-06     417.088E-06
             831            1493     414.754E-06     420.670E-06
             830            1493     414.754E-06     420.670E-06
             813            1493     414.754E-06     420.670E-06
             812            1493     414.754E-06     420.670E-06
             813            1494     419.293E-06     425.227E-06
             832            1494     419.293E-06     425.227E-06
             814            1494     419.293E-06     425.227E-06
             831            1494     419.293E-06     425.227E-06
             815            1495     423.120E-06     429.182E-06
             833            1495     423.120E-06     429.182E-06
             832            1495     423.120E-06     429.182E-06
             814            1495     423.120E-06     429.182E-06
             815            1496     430.100E-06     435.295E-06
             816            1496     430.100E-06     435.295E-06
             834            1496     430.100E-06     435.295E-06
             833            1496     430.100E-06     435.295E-06
             835            1497     435.558E-06     443.660E-06
             816            1497     435.558E-06     443.660E-06
             834            1497     435.558E-06     443.660E-06
             817            1497     435.558E-06     443.660E-06
             835            1498     457.933E-06     457.606E-06
             817            1498     457.933E-06     457.606E-06
             818            1498     457.933E-06     457.606E-06
             836            1498     457.933E-06     457.606E-06
             837            1499     455.381E-06     463.585E-06
             836            1499     455.381E-06     463.585E-06
             819            1499     455.381E-06     463.585E-06
             818            1499     455.381E-06     463.585E-06
             819            1500     328.613E-06     346.597E-06
             838            1500     328.613E-06     346.597E-06
             837            1500     328.613E-06     346.597E-06
             820            1500     328.613E-06     346.597E-06
             821            1501     412.760E-06     412.868E-06
             839            1501     412.760E-06     412.868E-06
             840            1501     412.760E-06     412.868E-06
             822            1501     412.760E-06     412.868E-06
             840            1502     413.939E-06     410.401E-06
             822            1502     413.939E-06     410.401E-06
             841            1502     413.939E-06     410.401E-06
             823            1502     413.939E-06     410.401E-06
             842            1503     415.945E-06     407.905E-06
             841            1503     415.945E-06     407.905E-06
             824            1503     415.945E-06     407.905E-06
             823            1503     415.945E-06     407.905E-06
             842            1504     418.742E-06     406.871E-06
             824            1504     418.742E-06     406.871E-06
             843            1504     418.742E-06     406.871E-06
             825            1504     418.742E-06     406.871E-06
             844            1505     421.925E-06     406.629E-06
             826            1505     421.925E-06     406.629E-06
             825            1505     421.925E-06     406.629E-06
             843            1505     421.925E-06     406.629E-06
             844            1506     425.476E-06     407.019E-06
             826            1506     425.476E-06     407.019E-06
             827            1506     425.476E-06     407.019E-06
             845            1506     425.476E-06     407.019E-06
             846            1507     429.295E-06     407.812E-06
             845            1507     429.295E-06     407.812E-06
             828            1507     429.295E-06     407.812E-06
             827            1507     429.295E-06     407.812E-06
             829            1508     433.454E-06     409.108E-06
             846            1508     433.454E-06     409.108E-06
             847            1508     433.454E-06     409.108E-06
             828            1508     433.454E-06     409.108E-06
             829            1509     437.667E-06     410.745E-06
             847            1509     437.667E-06     410.745E-06
             848            1509     437.667E-06     410.745E-06
             830            1509     437.667E-06     410.745E-06
             830            1510     442.316E-06     412.904E-06
             831            1510     442.316E-06     412.904E-06
             849            1510     442.316E-06     412.904E-06
             848            1510     442.316E-06     412.904E-06
             849            1511     446.672E-06     415.108E-06
             850            1511     446.672E-06     415.108E-06
             832            1511     446.672E-06     415.108E-06
             831            1511     446.672E-06     415.108E-06
             833            1512     451.647E-06     418.008E-06
             850            1512     451.647E-06     418.008E-06
             851            1512     451.647E-06     418.008E-06
             832            1512     451.647E-06     418.008E-06
             834            1513     456.284E-06     420.513E-06
             852            1513     456.284E-06     420.513E-06
             851            1513     456.284E-06     420.513E-06
             833            1513     456.284E-06     420.513E-06
             853            1514     462.717E-06     425.347E-06
             852            1514     462.717E-06     425.347E-06
             834            1514     462.717E-06     425.347E-06
             835            1514     462.717E-06     425.347E-06
             835            1515     467.888E-06     426.779E-06
             854            1515     467.888E-06     426.779E-06
             853            1515     467.888E-06     426.779E-06
             836            1515     467.888E-06     426.779E-06
             836            1516     440.126E-06     399.505E-06
             854            1516     440.126E-06     399.505E-06
             855            1516     440.126E-06     399.505E-06
             837            1516     440.126E-06     399.505E-06
             837            1517     251.190E-06     292.293E-06
             855            1517     251.190E-06     292.293E-06
             838            1517     251.190E-06     292.293E-06
             856            1517     251.190E-06     292.293E-06
            2386            2866     144.495E-03     145.217E-03
            2403            2866     144.495E-03     145.217E-03
            2385            2866     144.495E-03     145.217E-03
            2404            2866     144.495E-03     145.217E-03
            2404            2867     142.863E-03     143.538E-03
            2386            2867     142.863E-03     143.538E-03
            2387            2867     142.863E-03     143.538E-03
            2405            2867     142.863E-03     143.538E-03
            2406            2868     140.280E-03     141.531E-03
            2387            2868     140.280E-03     141.531E-03
            2388            2868     140.280E-03     141.531E-03
            2405            2868     140.280E-03     141.531E-03
            2406            2869     138.563E-03     140.020E-03
            2389            2869     138.563E-03     140.020E-03
            2407            2869     138.563E-03     140.020E-03
            2388            2869     138.563E-03     140.020E-03
            2408            2870     136.854E-03     138.607E-03
            2390            2870     136.854E-03     138.607E-03
            2389            2870     136.854E-03     138.607E-03
            2407            2870     136.854E-03     138.607E-03
            2409            2871     135.538E-03     137.497E-03
            2391            2871     135.538E-03     137.497E-03
            2408            2871     135.538E-03     137.497E-03
            2390            2871     135.538E-03     137.497E-03
            2409            2872     134.297E-03     136.500E-03
            2410            2872     134.297E-03     136.500E-03
            2392            2872     134.297E-03     136.500E-03
            2391            2872     134.297E-03     136.500E-03
            2393            2873     133.211E-03     135.624E-03
            2410            2873     133.211E-03     135.624E-03
            2411            2873     133.211E-03     135.624E-03
            2392            2873     133.211E-03     135.624E-03
            2411            2874     132.205E-03     134.824E-03
            2393            2874     132.205E-03     134.824E-03
            2412            2874     132.205E-03     134.824E-03
            2394            2874     132.205E-03     134.824E-03
            2394            2875     131.237E-03     134.042E-03
            2413            2875     131.237E-03     134.042E-03
            2395            2875     131.237E-03     134.042E-03
            2412            2875     131.237E-03     134.042E-03
            2413            2876     130.334E-03     133.318E-03
            2396            2876     130.334E-03     133.318E-03
            2395            2876     130.334E-03     133.318E-03
            2414            2876     130.334E-03     133.318E-03
            2396            2877     129.314E-03     132.462E-03
            2414            2877     129.314E-03     132.462E-03
            2415            2877     129.314E-03     132.462E-03
            2397            2877     129.314E-03     132.462E-03
            2397            2878     128.122E-03     131.453E-03
            2415            2878     128.122E-03     131.453E-03
            2416            2878     128.122E-03     131.453E-03
            2398            2878     128.122E-03     131.453E-03
            2417            2879     126.314E-03     129.780E-03
            2398            2879     126.314E-03     129.780E-03
            2416            2879     126.314E-03     129.780E-03
            2399            2879     126.314E-03     129.780E-03
            2417            2880     122.480E-03     125.684E-03
            2399            2880     122.480E-03     125.684E-03
            2400            2880     122.480E-03     125.684E-03
            2418            2880     122.480E-03     125.684E-03
            2418            2881     117.097E-03     120.358E-03
            2400            2881     117.097E-03     120.358E-03
            2419            2881     117.097E-03     120.358E-03
            2401            2881     117.097E-03     120.358E-03
            2420            2882     107.976E-03     109.480E-03
            2402            2882     107.976E-03     109.480E-03
            2401            2882     107.976E-03     109.480E-03
            2419            2882     107.976E-03     109.480E-03
            2403            2883     188.685E-03     190.087E-03
            2404            2883     188.685E-03     190.087E-03
            2421            2883     188.685E-03     190.087E-03
            2422            2883     188.685E-03     190.087E-03
            2405            2884     185.646E-03     187.338E-03
            2422            2884     185.646E-03     187.338E-03
            2404            2884     185.646E-03     187.338E-03
            2423            2884     185.646E-03     187.338E-03
            2406            2885     182.811E-03     185.232E-03
            2405            2885     182.811E-03     185.232E-03
            2424            2885     182.811E-03     185.232E-03
            2423            2885     182.811E-03     185.232E-03
            2406            2886     180.879E-03     183.824E-03
            2424            2886     180.879E-03     183.824E-03
            2407            2886     180.879E-03     183.824E-03
            2425            2886     180.879E-03     183.824E-03
            2425            2887     179.420E-03     182.636E-03
            2407            2887     179.420E-03     182.636E-03
            2408            2887     179.420E-03     182.636E-03
            2426            2887     179.420E-03     182.636E-03
            2408            2888     178.320E-03     181.933E-03
            2427            2888     178.320E-03     181.933E-03
            2426            2888     178.320E-03     181.933E-03
            2409            2888     178.320E-03     181.933E-03
            2409            2889     177.378E-03     181.326E-03
            2427            2889     177.378E-03     181.326E-03
            2428            2889     177.378E-03     181.326E-03
            2410            2889     177.378E-03     181.326E-03
            2411            2890     176.577E-03     180.872E-03
            2410            2890     176.577E-03     180.872E-03
            2428            2890     176.577E-03     180.872E-03
            2429            2890     176.577E-03     180.872E-03
            2429            2891     175.837E-03     180.449E-03
            2430            2891     175.837E-03     180.449E-03
            2412            2891     175.837E-03     180.449E-03
            2411            2891     175.837E-03     180.449E-03
            2431            2892     175.119E-03     180.032E-03
            2413            2892     175.119E-03     180.032E-03
            2412            2892     175.119E-03     180.032E-03
            2430            2892     175.119E-03     180.032E-03
            2414            2893     174.391E-03     179.586E-03
            2413            2893     174.391E-03     179.586E-03
            2432            2893     174.391E-03     179.586E-03
            2431            2893     174.391E-03     179.586E-03
            2433            2894     173.590E-03     179.059E-03
            2432            2894     173.590E-03     179.059E-03
            2414            2894     173.590E-03     179.059E-03
            2415            2894     173.590E-03     179.059E-03
            2415            2895     172.444E-03     178.194E-03
            2416            2895     172.444E-03     178.194E-03
            2434            2895     172.444E-03     178.194E-03
            2433            2895     172.444E-03     178.194E-03
            2417            2896     170.858E-03     176.838E-03
            2416            2896     170.858E-03     176.838E-03
            2434            2896     170.858E-03     176.838E-03
            2435            2896     170.858E-03     176.838E-03
            2417            2897     165.920E-03     171.840E-03
            2418            2897     165.920E-03     171.840E-03
            2435            2897     165.920E-03     171.840E-03
            2436            2897     165.920E-03     171.840E-03
            2418            2898     156.439E-03     161.980E-03
            2419            2898     156.439E-03     161.980E-03
            2437            2898     156.439E-03     161.980E-03
            2436            2898     156.439E-03     161.980E-03
            2438            2899     133.347E-03     136.099E-03
            2419            2899     133.347E-03     136.099E-03
            2420            2899     133.347E-03     136.099E-03
            2437            2899     133.347E-03     136.099E-03
            2439            2900     186.181E-03     188.310E-03
            2422            2900     186.181E-03     188.310E-03
            2421            2900     186.181E-03     188.310E-03
            2440            2900     186.181E-03     188.310E-03
            2423            2901     183.118E-03     186.831E-03
            2422            2901     183.118E-03     186.831E-03
            2440            2901     183.118E-03     186.831E-03
            2441            2901     183.118E-03     186.831E-03
            2424            2902     181.092E-03     184.672E-03
            2441            2902     181.092E-03     184.672E-03
            2423            2902     181.092E-03     184.672E-03
            2442            2902     181.092E-03     184.672E-03
            2424            2903     179.843E-03     183.550E-03
            2443            2903     179.843E-03     183.550E-03
            2442            2903     179.843E-03     183.550E-03
            2425            2903     179.843E-03     183.550E-03
            2426            2904     179.093E-03     182.842E-03
            2444            2904     179.093E-03     182.842E-03
            2443            2904     179.093E-03     182.842E-03
            2425            2904     179.093E-03     182.842E-03
            2444            2905     178.392E-03     182.289E-03
            2427            2905     178.392E-03     182.289E-03
            2445            2905     178.392E-03     182.289E-03
            2426            2905     178.392E-03     182.289E-03
            2428            2906     177.848E-03     181.846E-03
            2445            2906     177.848E-03     181.846E-03
            2446            2906     177.848E-03     181.846E-03
            2427            2906     177.848E-03     181.846E-03
            2446            2907     177.327E-03     181.440E-03
            2429            2907     177.327E-03     181.440E-03
            2447            2907     177.327E-03     181.440E-03
            2428            2907     177.327E-03     181.440E-03
            2430            2908     176.848E-03     181.069E-03
            2448            2908     176.848E-03     181.069E-03
            2447            2908     176.848E-03     181.069E-03
            2429            2908     176.848E-03     181.069E-03
            2431            2909     176.407E-03     180.727E-03
            2448            2909     176.407E-03     180.727E-03
            2430            2909     176.407E-03     180.727E-03
            2449            2909     176.407E-03     180.727E-03
            2450            2910     176.003E-03     180.420E-03
            2449            2910     176.003E-03     180.420E-03
            2432            2910     176.003E-03     180.420E-03
            2431            2910     176.003E-03     180.420E-03
            2451            2911     175.729E-03     180.236E-03
            2433            2911     175.729E-03     180.236E-03
            2432            2911     175.729E-03     180.236E-03
            2450            2911     175.729E-03     180.236E-03
            2433            2912     175.769E-03     180.346E-03
            2452            2912     175.769E-03     180.346E-03
            2451            2912     175.769E-03     180.346E-03
            2434            2912     175.769E-03     180.346E-03
            2434            2913     175.794E-03     180.464E-03
            2453            2913     175.794E-03     180.464E-03
            2452            2913     175.794E-03     180.464E-03
            2435            2913     175.794E-03     180.464E-03
            2454            2914     175.319E-03     180.615E-03
            2436            2914     175.319E-03     180.615E-03
            2435            2914     175.319E-03     180.615E-03
            2453            2914     175.319E-03     180.615E-03
            2436            2915     166.915E-03     170.602E-03
            2454            2915     166.915E-03     170.602E-03
            2455            2915     166.915E-03     170.602E-03
            2437            2915     166.915E-03     170.602E-03
            2438            2916     137.244E-03     134.103E-03
            2456            2916     137.244E-03     134.103E-03
            2437            2916     137.244E-03     134.103E-03
            2455            2916     137.244E-03     134.103E-03
            2457            2917     181.137E-03     183.609E-03
            2439            2917     181.137E-03     183.609E-03
            2458            2917     181.137E-03     183.609E-03
            2440            2917     181.137E-03     183.609E-03
            2441            2918     179.192E-03     183.513E-03
            2440            2918     179.192E-03     183.513E-03
            2458            2918     179.192E-03     183.513E-03
            2459            2918     179.192E-03     183.513E-03
            2441            2919     179.024E-03     182.521E-03
            2460            2919     179.024E-03     182.521E-03
            2442            2919     179.024E-03     182.521E-03
            2459            2919     179.024E-03     182.521E-03
            2443            2920     179.043E-03     182.180E-03
            2442            2920     179.043E-03     182.180E-03
            2460            2920     179.043E-03     182.180E-03
            2461            2920     179.043E-03     182.180E-03
            2444            2921     178.922E-03     182.081E-03
            2443            2921     178.922E-03     182.081E-03
            2462            2921     178.922E-03     182.081E-03
            2461            2921     178.922E-03     182.081E-03
            2444            2922     178.852E-03     181.845E-03
            2462            2922     178.852E-03     181.845E-03
            2463            2922     178.852E-03     181.845E-03
            2445            2922     178.852E-03     181.845E-03
            2464            2923     178.711E-03     181.609E-03
            2446            2923     178.711E-03     181.609E-03
            2463            2923     178.711E-03     181.609E-03
            2445            2923     178.711E-03     181.609E-03
            2464            2924     178.555E-03     181.333E-03
            2446            2924     178.555E-03     181.333E-03
            2447            2924     178.555E-03     181.333E-03
            2465            2924     178.555E-03     181.333E-03
            2466            2925     178.389E-03     181.066E-03
            2448            2925     178.389E-03     181.066E-03
            2465            2925     178.389E-03     181.066E-03
            2447            2925     178.389E-03     181.066E-03
            2466            2926     178.241E-03     180.816E-03
            2448            2926     178.241E-03     180.816E-03
            2449            2926     178.241E-03     180.816E-03
            2467            2926     178.241E-03     180.816E-03
            2467            2927     178.191E-03     180.679E-03
            2468            2927     178.191E-03     180.679E-03
            2450            2927     178.191E-03     180.679E-03
            2449            2927     178.191E-03     180.679E-03
            2450            2928     178.282E-03     180.679E-03
            2451            2928     178.282E-03     180.679E-03
            2468            2928     178.282E-03     180.679E-03
            2469            2928     178.282E-03     180.679E-03
            2469            2929     178.845E-03     181.155E-03
            2451            2929     178.845E-03     181.155E-03
            2470            2929     178.845E-03     181.155E-03
            2452            2929     178.845E-03     181.155E-03
            2471            2930     179.539E-03     181.809E-03
            2470            2930     179.539E-03     181.809E-03
            2453            2930     179.539E-03     181.809E-03
            2452            2930     179.539E-03     181.809E-03
            2472            2931     180.241E-03     182.834E-03
            2453            2931     180.241E-03     182.834E-03
            2454            2931     180.241E-03     182.834E-03
            2471            2931     180.241E-03     182.834E-03
            2454            2932     175.251E-03     176.570E-03
            2473            2932     175.251E-03     176.570E-03
            2472            2932     175.251E-03     176.570E-03
            2455            2932     175.251E-03     176.570E-03
            2456            2933     148.177E-03     145.831E-03
            2473            2933     148.177E-03     145.831E-03
            2474            2933     148.177E-03     145.831E-03
            2455            2933     148.177E-03     145.831E-03
            2476            2934     174.303E-03     178.220E-03
            2458            2934     174.303E-03     178.220E-03
            2475            2934     174.303E-03     178.220E-03
            2457            2934     174.303E-03     178.220E-03
            2458            2935     175.728E-03     178.317E-03
            2476            2935     175.728E-03     178.317E-03
            2477            2935     175.728E-03     178.317E-03
            2459            2935     175.728E-03     178.317E-03
            2460            2936     177.658E-03     179.650E-03
            2459            2936     177.658E-03     179.650E-03
            2477            2936     177.658E-03     179.650E-03
            2478            2936     177.658E-03     179.650E-03
            2479            2937     178.720E-03     180.429E-03
            2460            2937     178.720E-03     180.429E-03
            2461            2937     178.720E-03     180.429E-03
            2478            2937     178.720E-03     180.429E-03
            2462            2938     179.395E-03     180.724E-03
            2480            2938     179.395E-03     180.724E-03
            2461            2938     179.395E-03     180.724E-03
            2479            2938     179.395E-03     180.724E-03
            2480            2939     179.850E-03     180.839E-03
            2463            2939     179.850E-03     180.839E-03
            2481            2939     179.850E-03     180.839E-03
            2462            2939     179.850E-03     180.839E-03
            2463            2940     180.125E-03     180.756E-03
            2482            2940     180.125E-03     180.756E-03
            2481            2940     180.125E-03     180.756E-03
            2464            2940     180.125E-03     180.756E-03
            2483            2941     180.301E-03     180.605E-03
            2465            2941     180.301E-03     180.605E-03
            2482            2941     180.301E-03     180.605E-03
            2464            2941     180.301E-03     180.605E-03
            2465            2942     180.430E-03     180.415E-03
            2466            2942     180.430E-03     180.415E-03
            2484            2942     180.430E-03     180.415E-03
            2483            2942     180.430E-03     180.415E-03
            2466            2943     180.570E-03     180.265E-03
            2467            2943     180.570E-03     180.265E-03
            2485            2943     180.570E-03     180.265E-03
            2484            2943     180.570E-03     180.265E-03
            2467            2944     180.746E-03     180.175E-03
            2486            2944     180.746E-03     180.175E-03
            2468            2944     180.746E-03     180.175E-03
            2485            2944     180.746E-03     180.175E-03
            2487            2945     181.080E-03     180.268E-03
            2486            2945     181.080E-03     180.268E-03
            2468            2945     181.080E-03     180.268E-03
            2469            2945     181.080E-03     180.268E-03
            2488            2946     181.308E-03     180.305E-03
            2470            2946     181.308E-03     180.305E-03
            2469            2946     181.308E-03     180.305E-03
            2487            2946     181.308E-03     180.305E-03
            2470            2947     181.872E-03     180.667E-03
            2489            2947     181.872E-03     180.667E-03
            2488            2947     181.872E-03     180.667E-03
            2471            2947     181.872E-03     180.667E-03
            2489            2948     180.389E-03     178.655E-03
            2490            2948     180.389E-03     178.655E-03
            2471            2948     180.389E-03     178.655E-03
            2472            2948     180.389E-03     178.655E-03
            2472            2949     178.666E-03     176.688E-03
            2491            2949     178.666E-03     176.688E-03
            2490            2949     178.666E-03     176.688E-03
            2473            2949     178.666E-03     176.688E-03
            2473            2950     168.517E-03     166.397E-03
            2474            2950     168.517E-03     166.397E-03
            2492            2950     168.517E-03     166.397E-03
            2491            2950     168.517E-03     166.397E-03
            2493            2951     3.46196E-03     3.42934E-03
            2512            2951     3.46196E-03     3.42934E-03
            2494            2951     3.46196E-03     3.42934E-03
            2511            2951     3.46196E-03     3.42934E-03
            2512            2952     4.38640E-03     3.47506E-03
            2494            2952     4.38640E-03     3.47506E-03
            2495            2952     4.38640E-03     3.47506E-03
            2513            2952     4.38640E-03     3.47506E-03
            2496            2953     5.81281E-03     4.92262E-03
            2513            2953     5.81281E-03     4.92262E-03
            2495            2953     5.81281E-03     4.92262E-03
            2514            2953     5.81281E-03     4.92262E-03
            2497            2954     6.39248E-03     5.58880E-03
            2496            2954     6.39248E-03     5.58880E-03
            2515            2954     6.39248E-03     5.58880E-03
            2514            2954     6.39248E-03     5.58880E-03
            2498            2955     6.58046E-03     5.83697E-03
            2515            2955     6.58046E-03     5.83697E-03
            2516            2955     6.58046E-03     5.83697E-03
            2497            2955     6.58046E-03     5.83697E-03
            2498            2956     6.55181E-03     5.85540E-03
            2499            2956     6.55181E-03     5.85540E-03
            2517            2956     6.55181E-03     5.85540E-03
            2516            2956     6.55181E-03     5.85540E-03
            2499            2957     6.41266E-03     5.76940E-03
            2518            2957     6.41266E-03     5.76940E-03
            2517            2957     6.41266E-03     5.76940E-03
            2500            2957     6.41266E-03     5.76940E-03
            2519            2958     6.23054E-03     5.63346E-03
            2518            2958     6.23054E-03     5.63346E-03
            2501            2958     6.23054E-03     5.63346E-03
            2500            2958     6.23054E-03     5.63346E-03
            2502            2959     6.02848E-03     5.48145E-03
            2520            2959     6.02848E-03     5.48145E-03
            2501            2959     6.02848E-03     5.48145E-03
            2519            2959     6.02848E-03     5.48145E-03
            2520            2960     5.82582E-03     5.33013E-03
            2503            2960     5.82582E-03     5.33013E-03
            2521            2960     5.82582E-03     5.33013E-03
            2502            2960     5.82582E-03     5.33013E-03
            2521            2961     5.62887E-03     5.18754E-03
            2522            2961     5.62887E-03     5.18754E-03
            2503            2961     5.62887E-03     5.18754E-03
            2504            2961     5.62887E-03     5.18754E-03
            2504            2962     5.44454E-03     5.06241E-03
            2523            2962     5.44454E-03     5.06241E-03
            2522            2962     5.44454E-03     5.06241E-03
            2505            2962     5.44454E-03     5.06241E-03
            2524            2963     5.27288E-03     4.95479E-03
            2506            2963     5.27288E-03     4.95479E-03
            2523            2963     5.27288E-03     4.95479E-03
            2505            2963     5.27288E-03     4.95479E-03
            2507            2964     5.11586E-03     4.87611E-03
            2506            2964     5.11586E-03     4.87611E-03
            2524            2964     5.11586E-03     4.87611E-03
            2525            2964     5.11586E-03     4.87611E-03
            2526            2965     4.96204E-03     4.83156E-03
            2508            2965     4.96204E-03     4.83156E-03
            2507            2965     4.96204E-03     4.83156E-03
            2525            2965     4.96204E-03     4.83156E-03
            2508            2966     4.78262E-03     4.87635E-03
            2527            2966     4.78262E-03     4.87635E-03
            2526            2966     4.78262E-03     4.87635E-03
            2509            2966     4.78262E-03     4.87635E-03
            2527            2967     4.63142E-03     5.01551E-03
            2528            2967     4.63142E-03     5.01551E-03
            2510            2967     4.63142E-03     5.01551E-03
            2509            2967     4.63142E-03     5.01551E-03
            2530            2968     4.40740E-03     4.22292E-03
            2511            2968     4.40740E-03     4.22292E-03
            2512            2968     4.40740E-03     4.22292E-03
            2529            2968     4.40740E-03     4.22292E-03
            2530            2969     5.01938E-03     4.80270E-03
            2512            2969     5.01938E-03     4.80270E-03
            2513            2969     5.01938E-03     4.80270E-03
            2531            2969     5.01938E-03     4.80270E-03
            2531            2970     6.40690E-03     6.02882E-03
            2513            2970     6.40690E-03     6.02882E-03
            2514            2970     6.40690E-03     6.02882E-03
            2532            2970     6.40690E-03     6.02882E-03
            2515            2971     6.80455E-03     6.39337E-03
            2533            2971     6.80455E-03     6.39337E-03
            2532            2971     6.80455E-03     6.39337E-03
            2514            2971     6.80455E-03     6.39337E-03
            2516            2972     6.80008E-03     6.38291E-03
            2534            2972     6.80008E-03     6.38291E-03
            2533            2972     6.80008E-03     6.38291E-03
            2515            2972     6.80008E-03     6.38291E-03
            2516            2973     6.58495E-03     6.19189E-03
            2535            2973     6.58495E-03     6.19189E-03
            2517            2973     6.58495E-03     6.19189E-03
            2534            2973     6.58495E-03     6.19189E-03
            2517            2974     6.33050E-03     5.95981E-03
            2518            2974     6.33050E-03     5.95981E-03
            2536            2974     6.33050E-03     5.95981E-03
            2535            2974     6.33050E-03     5.95981E-03
            2518            2975     6.06263E-03     5.71682E-03
            2519            2975     6.06263E-03     5.71682E-03
            2536            2975     6.06263E-03     5.71682E-03
            2537            2975     6.06263E-03     5.71682E-03
            2519            2976     5.80914E-03     5.48945E-03
            2520            2976     5.80914E-03     5.48945E-03
            2537            2976     5.80914E-03     5.48945E-03
            2538            2976     5.80914E-03     5.48945E-03
            2539            2977     5.57288E-03     5.28116E-03
            2520            2977     5.57288E-03     5.28116E-03
            2521            2977     5.57288E-03     5.28116E-03
            2538            2977     5.57288E-03     5.28116E-03
            2522            2978     5.35726E-03     5.09658E-03
            2539            2978     5.35726E-03     5.09658E-03
            2521            2978     5.35726E-03     5.09658E-03
            2540            2978     5.35726E-03     5.09658E-03
            2522            2979     5.16299E-03     4.93571E-03
            2540            2979     5.16299E-03     4.93571E-03
            2541            2979     5.16299E-03     4.93571E-03
            2523            2979     5.16299E-03     4.93571E-03
            2524            2980     4.99012E-03     4.80558E-03
            2523            2980     4.99012E-03     4.80558E-03
            2542            2980     4.99012E-03     4.80558E-03
            2541            2980     4.99012E-03     4.80558E-03
            2525            2981     4.84456E-03     4.70023E-03
            2524            2981     4.84456E-03     4.70023E-03
            2543            2981     4.84456E-03     4.70023E-03
            2542            2981     4.84456E-03     4.70023E-03
            2543            2982     4.70378E-03     4.64925E-03
            2544            2982     4.70378E-03     4.64925E-03
            2526            2982     4.70378E-03     4.64925E-03
            2525            2982     4.70378E-03     4.64925E-03
            2526            2983     4.62221E-03     4.64820E-03
            2545            2983     4.62221E-03     4.64820E-03
            2544            2983     4.62221E-03     4.64820E-03
            2527            2983     4.62221E-03     4.64820E-03
            2528            2984     4.71086E-03     4.53827E-03
            2546            2984     4.71086E-03     4.53827E-03
            2545            2984     4.71086E-03     4.53827E-03
            2527            2984     4.71086E-03     4.53827E-03
            2530            2985     6.26796E-03     6.19694E-03
            2548            2985     6.26796E-03     6.19694E-03
            2547            2985     6.26796E-03     6.19694E-03
            2529            2985     6.26796E-03     6.19694E-03
            2548            2986     6.00683E-03     6.17538E-03
            2549            2986     6.00683E-03     6.17538E-03
            2531            2986     6.00683E-03     6.17538E-03
            2530            2986     6.00683E-03     6.17538E-03
            2549            2987     6.77548E-03     6.82427E-03
            2531            2987     6.77548E-03     6.82427E-03
            2550            2987     6.77548E-03     6.82427E-03
            2532            2987     6.77548E-03     6.82427E-03
            2533            2988     7.02299E-03     6.94922E-03
            2551            2988     7.02299E-03     6.94922E-03
            2532            2988     7.02299E-03     6.94922E-03
            2550            2988     7.02299E-03     6.94922E-03
            2551            2989     6.80923E-03     6.72945E-03
            2534            2989     6.80923E-03     6.72945E-03
            2552            2989     6.80923E-03     6.72945E-03
            2533            2989     6.80923E-03     6.72945E-03
            2534            2990     6.51467E-03     6.42768E-03
            2535            2990     6.51467E-03     6.42768E-03
            2552            2990     6.51467E-03     6.42768E-03
            2553            2990     6.51467E-03     6.42768E-03
            2553            2991     6.17981E-03     6.09521E-03
            2554            2991     6.17981E-03     6.09521E-03
            2535            2991     6.17981E-03     6.09521E-03
            2536            2991     6.17981E-03     6.09521E-03
            2537            2992     5.86543E-03     5.78548E-03
            2555            2992     5.86543E-03     5.78548E-03
            2536            2992     5.86543E-03     5.78548E-03
            2554            2992     5.86543E-03     5.78548E-03
            2556            2993     5.57693E-03     5.50174E-03
            2538            2993     5.57693E-03     5.50174E-03
            2537            2993     5.57693E-03     5.50174E-03
            2555            2993     5.57693E-03     5.50174E-03
            2556            2994     5.31777E-03     5.24862E-03
            2539            2994     5.31777E-03     5.24862E-03
            2538            2994     5.31777E-03     5.24862E-03
            2557            2994     5.31777E-03     5.24862E-03
            2558            2995     5.08835E-03     5.02603E-03
            2557            2995     5.08835E-03     5.02603E-03
            2539            2995     5.08835E-03     5.02603E-03
            2540            2995     5.08835E-03     5.02603E-03
            2558            2996     4.88701E-03     4.83417E-03
            2559            2996     4.88701E-03     4.83417E-03
            2541            2996     4.88701E-03     4.83417E-03
            2540            2996     4.88701E-03     4.83417E-03
            2559            2997     4.71736E-03     4.67429E-03
            2542            2997     4.71736E-03     4.67429E-03
            2560            2997     4.71736E-03     4.67429E-03
            2541            2997     4.71736E-03     4.67429E-03
            2543            2998     4.57964E-03     4.54950E-03
            2560            2998     4.57964E-03     4.54950E-03
            2561            2998     4.57964E-03     4.54950E-03
            2542            2998     4.57964E-03     4.54950E-03
            2543            2999     4.50447E-03     4.44317E-03
            2544            2999     4.50447E-03     4.44317E-03
            2562            2999     4.50447E-03     4.44317E-03
            2561            2999     4.50447E-03     4.44317E-03
            2544            3000     4.52043E-03     4.30093E-03
            2563            3000     4.52043E-03     4.30093E-03
            2545            3000     4.52043E-03     4.30093E-03
            2562            3000     4.52043E-03     4.30093E-03
            2546            3001     4.55909E-03     4.15323E-03
            2564            3001     4.55909E-03     4.15323E-03
            2545            3001     4.55909E-03     4.15323E-03
            2563            3001     4.55909E-03     4.15323E-03
            2547            3002     8.33343E-03     8.50988E-03
            2566            3002     8.33343E-03     8.50988E-03
            2548            3002     8.33343E-03     8.50988E-03
            2565            3002     8.33343E-03     8.50988E-03
            2567            3003     7.41603E-03     7.60855E-03
            2566            3003     7.41603E-03     7.60855E-03
            2548            3003     7.41603E-03     7.60855E-03
            2549            3003     7.41603E-03     7.60855E-03
            2567            3004     7.15873E-03     7.42513E-03
            2550            3004     7.15873E-03     7.42513E-03
            2568            3004     7.15873E-03     7.42513E-03
            2549            3004     7.15873E-03     7.42513E-03
            2568            3005     6.91452E-03     7.17592E-03
            2551            3005     6.91452E-03     7.17592E-03
            2550            3005     6.91452E-03     7.17592E-03
            2569            3005     6.91452E-03     7.17592E-03
            2570            3006     6.62287E-03     6.85875E-03
            2552            3006     6.62287E-03     6.85875E-03
            2551            3006     6.62287E-03     6.85875E-03
            2569            3006     6.62287E-03     6.85875E-03
            2570            3007     6.27595E-03     6.49177E-03
            2552            3007     6.27595E-03     6.49177E-03
            2571            3007     6.27595E-03     6.49177E-03
            2553            3007     6.27595E-03     6.49177E-03
            2572            3008     5.92997E-03     6.13539E-03
            2554            3008     5.92997E-03     6.13539E-03
            2571            3008     5.92997E-03     6.13539E-03
            2553            3008     5.92997E-03     6.13539E-03
            2554            3009     5.60704E-03     5.79984E-03
            2572            3009     5.60704E-03     5.79984E-03
            2555            3009     5.60704E-03     5.79984E-03
            2573            3009     5.60704E-03     5.79984E-03
            2556            3010     5.31057E-03     5.49159E-03
            2574            3010     5.31057E-03     5.49159E-03
            2555            3010     5.31057E-03     5.49159E-03
            2573            3010     5.31057E-03     5.49159E-03
            2556            3011     5.04602E-03     5.21316E-03
            2557            3011     5.04602E-03     5.21316E-03
            2574            3011     5.04602E-03     5.21316E-03
            2575            3011     5.04602E-03     5.21316E-03
            2575            3012     4.81125E-03     4.96272E-03
            2557            3012     4.81125E-03     4.96272E-03
            2576            3012     4.81125E-03     4.96272E-03
            2558            3012     4.81125E-03     4.96272E-03
            2577            3013     4.61060E-03     4.74480E-03
            2558            3013     4.61060E-03     4.74480E-03
            2559            3013     4.61060E-03     4.74480E-03
            2576            3013     4.61060E-03     4.74480E-03
            2560            3014     4.44469E-03     4.55657E-03
            2578            3014     4.44469E-03     4.55657E-03
            2559            3014     4.44469E-03     4.55657E-03
            2577            3014     4.44469E-03     4.55657E-03
            2561            3015     4.32010E-03     4.40559E-03
            2560            3015     4.32010E-03     4.40559E-03
            2579            3015     4.32010E-03     4.40559E-03
            2578            3015     4.32010E-03     4.40559E-03
            2579            3016     4.26924E-03     4.26011E-03
            2580            3016     4.26924E-03     4.26011E-03
            2562            3016     4.26924E-03     4.26011E-03
            2561            3016     4.26924E-03     4.26011E-03
            2581            3017     4.29680E-03     4.07786E-03
            2580            3017     4.29680E-03     4.07786E-03
            2563            3017     4.29680E-03     4.07786E-03
            2562            3017     4.29680E-03     4.07786E-03
            2582            3018     4.34905E-03     3.93411E-03
            2563            3018     4.34905E-03     3.93411E-03
            2581            3018     4.34905E-03     3.93411E-03
            2564            3018     4.34905E-03     3.93411E-03
            2583            3019     10.6827E-03     10.6402E-03
            2565            3019     10.6827E-03     10.6402E-03
            2566            3019     10.6827E-03     10.6402E-03
            2584            3019     10.6827E-03     10.6402E-03
            2584            3020     8.49771E-03     8.83293E-03
            2567            3020     8.49771E-03     8.83293E-03
            2566            3020     8.49771E-03     8.83293E-03
            2585            3020     8.49771E-03     8.83293E-03
            2585            3021     7.18605E-03     7.73456E-03
            2586            3021     7.18605E-03     7.73456E-03
            2568            3021     7.18605E-03     7.73456E-03
            2567            3021     7.18605E-03     7.73456E-03
            2569            3022     6.61685E-03     7.20209E-03
            2568            3022     6.61685E-03     7.20209E-03
            2587            3022     6.61685E-03     7.20209E-03
            2586            3022     6.61685E-03     7.20209E-03
            2569            3023     6.25739E-03     6.80376E-03
            2570            3023     6.25739E-03     6.80376E-03
            2588            3023     6.25739E-03     6.80376E-03
            2587            3023     6.25739E-03     6.80376E-03
            2571            3024     5.91060E-03     6.43423E-03
            2588            3024     5.91060E-03     6.43423E-03
            2570            3024     5.91060E-03     6.43423E-03
            2589            3024     5.91060E-03     6.43423E-03
            2571            3025     5.59521E-03     6.09402E-03
            2590            3025     5.59521E-03     6.09402E-03
            2572            3025     5.59521E-03     6.09402E-03
            2589            3025     5.59521E-03     6.09402E-03
            2591            3026     5.29046E-03     5.76495E-03
            2572            3026     5.29046E-03     5.76495E-03
            2590            3026     5.29046E-03     5.76495E-03
            2573            3026     5.29046E-03     5.76495E-03
            2573            3027     5.00897E-03     5.45733E-03
            2592            3027     5.00897E-03     5.45733E-03
            2574            3027     5.00897E-03     5.45733E-03
            2591            3027     5.00897E-03     5.45733E-03
            2574            3028     4.75024E-03     5.16644E-03
            2593            3028     4.75024E-03     5.16644E-03
            2592            3028     4.75024E-03     5.16644E-03
            2575            3028     4.75024E-03     5.16644E-03
            2576            3029     4.52142E-03     4.90083E-03
            2575            3029     4.52142E-03     4.90083E-03
            2594            3029     4.52142E-03     4.90083E-03
            2593            3029     4.52142E-03     4.90083E-03
            2576            3030     4.32448E-03     4.65838E-03
            2594            3030     4.32448E-03     4.65838E-03
            2595            3030     4.32448E-03     4.65838E-03
            2577            3030     4.32448E-03     4.65838E-03
            2596            3031     4.16591E-03     4.44910E-03
            2577            3031     4.16591E-03     4.44910E-03
            2578            3031     4.16591E-03     4.44910E-03
            2595            3031     4.16591E-03     4.44910E-03
            2597            3032     4.05382E-03     4.26280E-03
            2596            3032     4.05382E-03     4.26280E-03
            2579            3032     4.05382E-03     4.26280E-03
            2578            3032     4.05382E-03     4.26280E-03
            2580            3033     3.97322E-03     4.11951E-03
            2579            3033     3.97322E-03     4.11951E-03
            2597            3033     3.97322E-03     4.11951E-03
            2598            3033     3.97322E-03     4.11951E-03
            2599            3034     3.96175E-03     4.01089E-03
            2598            3034     3.96175E-03     4.01089E-03
            2580            3034     3.96175E-03     4.01089E-03
            2581            3034     3.96175E-03     4.01089E-03
            2581            3035     4.07448E-03     3.84472E-03
            2599            3035     4.07448E-03     3.84472E-03
            2582            3035     4.07448E-03     3.84472E-03
            2600            3035     4.07448E-03     3.84472E-03
            2584            3036     12.0745E-03     12.9220E-03
            2601            3036     12.0745E-03     12.9220E-03
            2602            3036     12.0745E-03     12.9220E-03
            2583            3036     12.0745E-03     12.9220E-03
            2602            3037     8.45373E-03     9.44704E-03
            2603            3037     8.45373E-03     9.44704E-03
            2584            3037     8.45373E-03     9.44704E-03
            2585            3037     8.45373E-03     9.44704E-03
            2585            3038     6.90763E-03     7.87399E-03
            2603            3038     6.90763E-03     7.87399E-03
            2586            3038     6.90763E-03     7.87399E-03
            2604            3038     6.90763E-03     7.87399E-03
            2587            3039     6.25039E-03     7.16218E-03
            2604            3039     6.25039E-03     7.16218E-03
            2605            3039     6.25039E-03     7.16218E-03
            2586            3039     6.25039E-03     7.16218E-03
            2605            3040     5.81693E-03     6.69548E-03
            2587            3040     5.81693E-03     6.69548E-03
            2588            3040     5.81693E-03     6.69548E-03
            2606            3040     5.81693E-03     6.69548E-03
            2607            3041     5.51287E-03     6.35352E-03
            2606            3041     5.51287E-03     6.35352E-03
            2589            3041     5.51287E-03     6.35352E-03
            2588            3041     5.51287E-03     6.35352E-03
            2589            3042     5.22071E-03     6.02600E-03
            2590            3042     5.22071E-03     6.02600E-03
            2608            3042     5.22071E-03     6.02600E-03
            2607            3042     5.22071E-03     6.02600E-03
            2608            3043     4.94583E-03     5.71691E-03
            2609            3043     4.94583E-03     5.71691E-03
            2590            3043     4.94583E-03     5.71691E-03
            2591            3043     4.94583E-03     5.71691E-03
            2609            3044     4.68094E-03     5.40932E-03
            2591            3044     4.68094E-03     5.40932E-03
            2592            3044     4.68094E-03     5.40932E-03
            2610            3044     4.68094E-03     5.40932E-03
            2593            3045     4.43430E-03     5.11609E-03
            2610            3045     4.43430E-03     5.11609E-03
            2592            3045     4.43430E-03     5.11609E-03
            2611            3045     4.43430E-03     5.11609E-03
            2594            3046     4.21356E-03     4.83548E-03
            2611            3046     4.21356E-03     4.83548E-03
            2593            3046     4.21356E-03     4.83548E-03
            2612            3046     4.21356E-03     4.83548E-03
            2595            3047     4.02528E-03     4.57769E-03
            2613            3047     4.02528E-03     4.57769E-03
            2612            3047     4.02528E-03     4.57769E-03
            2594            3047     4.02528E-03     4.57769E-03
            2595            3048     3.87488E-03     4.34164E-03
            2613            3048     3.87488E-03     4.34164E-03
            2614            3048     3.87488E-03     4.34164E-03
            2596            3048     3.87488E-03     4.34164E-03
            2597            3049     3.76665E-03     4.13722E-03
            2596            3049     3.76665E-03     4.13722E-03
            2614            3049     3.76665E-03     4.13722E-03
            2615            3049     3.76665E-03     4.13722E-03
            2598            3050     3.69181E-03     3.97281E-03
            2597            3050     3.69181E-03     3.97281E-03
            2615            3050     3.69181E-03     3.97281E-03
            2616            3050     3.69181E-03     3.97281E-03
            2598            3051     3.63509E-03     3.89073E-03
            2617            3051     3.63509E-03     3.89073E-03
            2616            3051     3.63509E-03     3.89073E-03
            2599            3051     3.63509E-03     3.89073E-03
            2617            3052     3.62738E-03     3.89268E-03
            2618            3052     3.62738E-03     3.89268E-03
            2600            3052     3.62738E-03     3.89268E-03
            2599            3052     3.62738E-03     3.89268E-03
            2620            3053     12.5509E-03     12.9917E-03
            2619            3053     12.5509E-03     12.9917E-03
            2601            3053     12.5509E-03     12.9917E-03
            2602            3053     12.5509E-03     12.9917E-03
            2621            3054     11.2900E-03     11.3993E-03
            2603            3054     11.2900E-03     11.3993E-03
            2620            3054     11.2900E-03     11.3993E-03
            2602            3054     11.2900E-03     11.3993E-03
            2621            3055     10.8112E-03     10.8827E-03
            2603            3055     10.8112E-03     10.8827E-03
            2604            3055     10.8112E-03     10.8827E-03
            2622            3055     10.8112E-03     10.8827E-03
            2605            3056     10.4333E-03     10.5483E-03
            2604            3056     10.4333E-03     10.5483E-03
            2622            3056     10.4333E-03     10.5483E-03
            2623            3056     10.4333E-03     10.5483E-03
            2605            3057     10.0798E-03     10.2266E-03
            2606            3057     10.0798E-03     10.2266E-03
            2624            3057     10.0798E-03     10.2266E-03
            2623            3057     10.0798E-03     10.2266E-03
            2607            3058     9.69580E-03     9.87356E-03
            2624            3058     9.69580E-03     9.87356E-03
            2606            3058     9.69580E-03     9.87356E-03
            2625            3058     9.69580E-03     9.87356E-03
            2608            3059     9.25832E-03     9.45280E-03
            2625            3059     9.25832E-03     9.45280E-03
            2626            3059     9.25832E-03     9.45280E-03
            2607            3059     9.25832E-03     9.45280E-03
            2627            3060     8.78481E-03     8.99050E-03
            2609            3060     8.78481E-03     8.99050E-03
            2626            3060     8.78481E-03     8.99050E-03
            2608            3060     8.78481E-03     8.99050E-03
            2610            3061     8.28556E-03     8.49126E-03
            2627            3061     8.28556E-03     8.49126E-03
            2628            3061     8.28556E-03     8.49126E-03
            2609            3061     8.28556E-03     8.49126E-03
            2610            3062     7.78149E-03     7.98062E-03
            2628            3062     7.78149E-03     7.98062E-03
            2629            3062     7.78149E-03     7.98062E-03
            2611            3062     7.78149E-03     7.98062E-03
            2611            3063     7.28574E-03     7.46844E-03
            2629            3063     7.28574E-03     7.46844E-03
            2630            3063     7.28574E-03     7.46844E-03
            2612            3063     7.28574E-03     7.46844E-03
            2613            3064     6.81767E-03     6.97623E-03
            2630            3064     6.81767E-03     6.97623E-03
            2631            3064     6.81767E-03     6.97623E-03
            2612            3064     6.81767E-03     6.97623E-03
            2613            3065     6.38609E-03     6.50924E-03
            2614            3065     6.38609E-03     6.50924E-03
            2631            3065     6.38609E-03     6.50924E-03
            2632            3065     6.38609E-03     6.50924E-03
            2633            3066     6.00917E-03     6.10494E-03
            2614            3066     6.00917E-03     6.10494E-03
            2632            3066     6.00917E-03     6.10494E-03
            2615            3066     6.00917E-03     6.10494E-03
            2615            3067     5.68506E-03     5.75019E-03
            2633            3067     5.68506E-03     5.75019E-03
            2634            3067     5.68506E-03     5.75019E-03
            2616            3067     5.68506E-03     5.75019E-03
            2617            3068     5.40890E-03     5.56282E-03
            2634            3068     5.40890E-03     5.56282E-03
            2635            3068     5.40890E-03     5.56282E-03
            2616            3068     5.40890E-03     5.56282E-03
            2635            3069     4.98288E-03     5.64110E-03
            2636            3069     4.98288E-03     5.64110E-03
            2618            3069     4.98288E-03     5.64110E-03
            2617            3069     4.98288E-03     5.64110E-03
            2638            3070     13.7372E-03     13.0681E-03
            2637            3070     13.7372E-03     13.0681E-03
            2619            3070     13.7372E-03     13.0681E-03
            2620            3070     13.7372E-03     13.0681E-03
            2639            3071     14.8818E-03     14.1646E-03
            2620            3071     14.8818E-03     14.1646E-03
            2621            3071     14.8818E-03     14.1646E-03
            2638            3071     14.8818E-03     14.1646E-03
            2621            3072     15.3881E-03     14.6703E-03
            2640            3072     15.3881E-03     14.6703E-03
            2622            3072     15.3881E-03     14.6703E-03
            2639            3072     15.3881E-03     14.6703E-03
            2640            3073     15.3282E-03     14.6726E-03
            2641            3073     15.3282E-03     14.6726E-03
            2622            3073     15.3282E-03     14.6726E-03
            2623            3073     15.3282E-03     14.6726E-03
            2624            3074     14.9769E-03     14.3820E-03
            2641            3074     14.9769E-03     14.3820E-03
            2642            3074     14.9769E-03     14.3820E-03
            2623            3074     14.9769E-03     14.3820E-03
            2642            3075     14.4143E-03     13.8810E-03
            2625            3075     14.4143E-03     13.8810E-03
            2624            3075     14.4143E-03     13.8810E-03
            2643            3075     14.4143E-03     13.8810E-03
            2644            3076     13.7243E-03     13.2442E-03
            2626            3076     13.7243E-03     13.2442E-03
            2625            3076     13.7243E-03     13.2442E-03
            2643            3076     13.7243E-03     13.2442E-03
            2645            3077     12.9482E-03     12.5119E-03
            2626            3077     12.9482E-03     12.5119E-03
            2644            3077     12.9482E-03     12.5119E-03
            2627            3077     12.9482E-03     12.5119E-03
            2645            3078     12.1228E-03     11.7269E-03
            2628            3078     12.1228E-03     11.7269E-03
            2627            3078     12.1228E-03     11.7269E-03
            2646            3078     12.1228E-03     11.7269E-03
            2646            3079     11.2773E-03     10.9137E-03
            2647            3079     11.2773E-03     10.9137E-03
            2629            3079     11.2773E-03     10.9137E-03
            2628            3079     11.2773E-03     10.9137E-03
            2630            3080     10.4319E-03     10.1018E-03
            2648            3080     10.4319E-03     10.1018E-03
            2647            3080     10.4319E-03     10.1018E-03
            2629            3080     10.4319E-03     10.1018E-03
            2631            3081     9.61247E-03     9.31351E-03
            2630            3081     9.61247E-03     9.31351E-03
            2649            3081     9.61247E-03     9.31351E-03
            2648            3081     9.61247E-03     9.31351E-03
            2650            3082     8.83295E-03     8.57728E-03
            2649            3082     8.83295E-03     8.57728E-03
            2632            3082     8.83295E-03     8.57728E-03
            2631            3082     8.83295E-03     8.57728E-03
            2651            3083     8.11917E-03     7.92830E-03
            2650            3083     8.11917E-03     7.92830E-03
            2633            3083     8.11917E-03     7.92830E-03
            2632            3083     8.11917E-03     7.92830E-03
            2651            3084     7.47316E-03     7.40720E-03
            2652            3084     7.47316E-03     7.40720E-03
            2633            3084     7.47316E-03     7.40720E-03
            2634            3084     7.47316E-03     7.40720E-03
            2634            3085     6.87866E-03     7.13979E-03
            2653            3085     6.87866E-03     7.13979E-03
            2635            3085     6.87866E-03     7.13979E-03
            2652            3085     6.87866E-03     7.13979E-03
            2636            3086     6.42582E-03     7.17533E-03
            2635            3086     6.42582E-03     7.17533E-03
            2653            3086     6.42582E-03     7.17533E-03
            2654            3086     6.42582E-03     7.17533E-03
            2638            3087     15.6155E-03     15.6160E-03
            2656            3087     15.6155E-03     15.6160E-03
            2655            3087     15.6155E-03     15.6160E-03
            2637            3087     15.6155E-03     15.6160E-03
            2638            3088     15.9410E-03     15.9216E-03
            2656            3088     15.9410E-03     15.9216E-03
            2639            3088     15.9410E-03     15.9216E-03
            2657            3088     15.9410E-03     15.9216E-03
            2640            3089     16.3764E-03     16.2083E-03
            2658            3089     16.3764E-03     16.2083E-03
            2657            3089     16.3764E-03     16.2083E-03
            2639            3089     16.3764E-03     16.2083E-03
            2659            3090     16.2453E-03     15.9907E-03
            2640            3090     16.2453E-03     15.9907E-03
            2641            3090     16.2453E-03     15.9907E-03
            2658            3090     16.2453E-03     15.9907E-03
            2642            3091     15.7533E-03     15.4689E-03
            2641            3091     15.7533E-03     15.4689E-03
            2659            3091     15.7533E-03     15.4689E-03
            2660            3091     15.7533E-03     15.4689E-03
            2642            3092     15.0336E-03     14.7431E-03
            2661            3092     15.0336E-03     14.7431E-03
            2660            3092     15.0336E-03     14.7431E-03
            2643            3092     15.0336E-03     14.7431E-03
            2644            3093     14.1728E-03     13.8894E-03
            2662            3093     14.1728E-03     13.8894E-03
            2661            3093     14.1728E-03     13.8894E-03
            2643            3093     14.1728E-03     13.8894E-03
            2662            3094     13.2313E-03     12.9631E-03
            2663            3094     13.2313E-03     12.9631E-03
            2644            3094     13.2313E-03     12.9631E-03
            2645            3094     13.2313E-03     12.9631E-03
            2663            3095     12.2523E-03     11.9993E-03
            2664            3095     12.2523E-03     11.9993E-03
            2646            3095     12.2523E-03     11.9993E-03
            2645            3095     12.2523E-03     11.9993E-03
            2665            3096     11.2619E-03     11.0283E-03
            2646            3096     11.2619E-03     11.0283E-03
            2664            3096     11.2619E-03     11.0283E-03
            2647            3096     11.2619E-03     11.0283E-03
            2647            3097     10.2851E-03     10.0734E-03
            2666            3097     10.2851E-03     10.0734E-03
            2665            3097     10.2851E-03     10.0734E-03
            2648            3097     10.2851E-03     10.0734E-03
            2667            3098     9.33869E-03     9.15756E-03
            2666            3098     9.33869E-03     9.15756E-03
            2649            3098     9.33869E-03     9.15756E-03
            2648            3098     9.33869E-03     9.15756E-03
            2668            3099     8.43934E-03     8.31194E-03
            2649            3099     8.43934E-03     8.31194E-03
            2667            3099     8.43934E-03     8.31194E-03
            2650            3099     8.43934E-03     8.31194E-03
            2650            3100     7.60919E-03     7.56948E-03
            2668            3100     7.60919E-03     7.56948E-03
            2669            3100     7.60919E-03     7.56948E-03
            2651            3100     7.60919E-03     7.56948E-03
            2669            3101     6.85266E-03     6.99857E-03
            2670            3101     6.85266E-03     6.99857E-03
            2651            3101     6.85266E-03     6.99857E-03
            2652            3101     6.85266E-03     6.99857E-03
            2652            3102     6.25583E-03     6.65241E-03
            2670            3102     6.25583E-03     6.65241E-03
            2653            3102     6.25583E-03     6.65241E-03
            2671            3102     6.25583E-03     6.65241E-03
            2653            3103     6.06056E-03     6.32275E-03
            2654            3103     6.06056E-03     6.32275E-03
            2671            3103     6.06056E-03     6.32275E-03
            2672            3103     6.06056E-03     6.32275E-03
            2674            3104     17.7333E-03     17.8273E-03
            2655            3104     17.7333E-03     17.8273E-03
            2656            3104     17.7333E-03     17.8273E-03
            2673            3104     17.7333E-03     17.8273E-03
            2675            3105     17.3326E-03     17.5849E-03
            2657            3105     17.3326E-03     17.5849E-03
            2656            3105     17.3326E-03     17.5849E-03
            2674            3105     17.3326E-03     17.5849E-03
            2676            3106     17.2945E-03     17.4756E-03
            2657            3106     17.2945E-03     17.4756E-03
            2658            3106     17.2945E-03     17.4756E-03
            2675            3106     17.2945E-03     17.4756E-03
            2659            3107     17.0026E-03     17.0789E-03
            2677            3107     17.0026E-03     17.0789E-03
            2676            3107     17.0026E-03     17.0789E-03
            2658            3107     17.0026E-03     17.0789E-03
            2659            3108     16.3718E-03     16.3691E-03
            2678            3108     16.3718E-03     16.3691E-03
            2677            3108     16.3718E-03     16.3691E-03
            2660            3108     16.3718E-03     16.3691E-03
            2678            3109     15.5169E-03     15.4665E-03
            2679            3109     15.5169E-03     15.4665E-03
            2660            3109     15.5169E-03     15.4665E-03
            2661            3109     15.5169E-03     15.4665E-03
            2680            3110     14.5192E-03     14.4458E-03
            2662            3110     14.5192E-03     14.4458E-03
            2679            3110     14.5192E-03     14.4458E-03
            2661            3110     14.5192E-03     14.4458E-03
            2663            3111     13.4505E-03     13.3637E-03
            2662            3111     13.4505E-03     13.3637E-03
            2680            3111     13.4505E-03     13.3637E-03
            2681            3111     13.4505E-03     13.3637E-03
            2663            3112     12.3466E-03     12.2590E-03
            2664            3112     12.3466E-03     12.2590E-03
            2681            3112     12.3466E-03     12.2590E-03
            2682            3112     12.3466E-03     12.2590E-03
            2664            3113     11.2426E-03     11.1590E-03
            2665            3113     11.2426E-03     11.1590E-03
            2683            3113     11.2426E-03     11.1590E-03
            2682            3113     11.2426E-03     11.1590E-03
            2684            3114     10.1551E-03     10.0847E-03
            2683            3114     10.1551E-03     10.0847E-03
            2666            3114     10.1551E-03     10.0847E-03
            2665            3114     10.1551E-03     10.0847E-03
            2684            3115     9.10237E-03     9.05890E-03
            2667            3115     9.10237E-03     9.05890E-03
            2666            3115     9.10237E-03     9.05890E-03
            2685            3115     9.10237E-03     9.05890E-03
            2685            3116     8.10382E-03     8.10672E-03
            2667            3116     8.10382E-03     8.10672E-03
            2686            3116     8.10382E-03     8.10672E-03
            2668            3116     8.10382E-03     8.10672E-03
            2668            3117     7.17761E-03     7.26276E-03
            2669            3117     7.17761E-03     7.26276E-03
            2686            3117     7.17761E-03     7.26276E-03
            2687            3117     7.17761E-03     7.26276E-03
            2669            3118     6.37650E-03     6.57579E-03
            2670            3118     6.37650E-03     6.57579E-03
            2688            3118     6.37650E-03     6.57579E-03
            2687            3118     6.37650E-03     6.57579E-03
            2688            3119     5.83084E-03     5.98592E-03
            2670            3119     5.83084E-03     5.98592E-03
            2689            3119     5.83084E-03     5.98592E-03
            2671            3119     5.83084E-03     5.98592E-03
            2690            3120     5.53704E-03     5.47832E-03
            2672            3120     5.53704E-03     5.47832E-03
            2671            3120     5.53704E-03     5.47832E-03
            2689            3120     5.53704E-03     5.47832E-03
            2691            3121     19.6602E-03     19.8277E-03
            2674            3121     19.6602E-03     19.8277E-03
            2673            3121     19.6602E-03     19.8277E-03
            2692            3121     19.6602E-03     19.8277E-03
            2693            3122     18.8409E-03     19.1376E-03
            2674            3122     18.8409E-03     19.1376E-03
            2675            3122     18.8409E-03     19.1376E-03
            2692            3122     18.8409E-03     19.1376E-03
            2694            3123     18.2613E-03     18.6139E-03
            2676            3123     18.2613E-03     18.6139E-03
            2693            3123     18.2613E-03     18.6139E-03
            2675            3123     18.2613E-03     18.6139E-03
            2695            3124     17.6554E-03     17.9455E-03
            2694            3124     17.6554E-03     17.9455E-03
            2676            3124     17.6554E-03     17.9455E-03
            2677            3124     17.6554E-03     17.9455E-03
            2696            3125     16.8371E-03     17.0558E-03
            2678            3125     16.8371E-03     17.0558E-03
            2695            3125     16.8371E-03     17.0558E-03
            2677            3125     16.8371E-03     17.0558E-03
            2678            3126     15.8331E-03     15.9972E-03
            2697            3126     15.8331E-03     15.9972E-03
            2696            3126     15.8331E-03     15.9972E-03
            2679            3126     15.8331E-03     15.9972E-03
            2680            3127     14.7226E-03     14.8429E-03
            2698            3127     14.7226E-03     14.8429E-03
            2697            3127     14.7226E-03     14.8429E-03
            2679            3127     14.7226E-03     14.8429E-03
            2680            3128     13.5469E-03     13.6437E-03
            2699            3128     13.5469E-03     13.6437E-03
            2681            3128     13.5469E-03     13.6437E-03
            2698            3128     13.5469E-03     13.6437E-03
            2700            3129     12.3560E-03     12.4361E-03
            2681            3129     12.3560E-03     12.4361E-03
            2682            3129     12.3560E-03     12.4361E-03
            2699            3129     12.3560E-03     12.4361E-03
            2701            3130     11.1658E-03     11.2407E-03
            2683            3130     11.1658E-03     11.2407E-03
            2700            3130     11.1658E-03     11.2407E-03
            2682            3130     11.1658E-03     11.2407E-03
            2701            3131     9.99869E-03     10.0770E-03
            2702            3131     9.99869E-03     10.0770E-03
            2683            3131     9.99869E-03     10.0770E-03
            2684            3131     9.99869E-03     10.0770E-03
            2702            3132     8.86805E-03     8.96186E-03
            2685            3132     8.86805E-03     8.96186E-03
            2703            3132     8.86805E-03     8.96186E-03
            2684            3132     8.86805E-03     8.96186E-03
            2704            3133     7.79289E-03     7.91481E-03
            2703            3133     7.79289E-03     7.91481E-03
            2686            3133     7.79289E-03     7.91481E-03
            2685            3133     7.79289E-03     7.91481E-03
            2705            3134     6.80371E-03     6.96691E-03
            2687            3134     6.80371E-03     6.96691E-03
            2704            3134     6.80371E-03     6.96691E-03
            2686            3134     6.80371E-03     6.96691E-03
            2706            3135     5.97180E-03     6.12080E-03
            2688            3135     5.97180E-03     6.12080E-03
            2705            3135     5.97180E-03     6.12080E-03
            2687            3135     5.97180E-03     6.12080E-03
            2688            3136     5.34955E-03     5.39320E-03
            2707            3136     5.34955E-03     5.39320E-03
            2689            3136     5.34955E-03     5.39320E-03
            2706            3136     5.34955E-03     5.39320E-03
            2707            3137     5.00509E-03     4.90812E-03
            2689            3137     5.00509E-03     4.90812E-03
            2708            3137     5.00509E-03     4.90812E-03
            2690            3137     5.00509E-03     4.90812E-03
            2709            3138     21.4934E-03     21.6957E-03
            2691            3138     21.4934E-03     21.6957E-03
            2692            3138     21.4934E-03     21.6957E-03
            2710            3138     21.4934E-03     21.6957E-03
            2692            3139     20.2387E-03     20.5989E-03
            2711            3139     20.2387E-03     20.5989E-03
            2693            3139     20.2387E-03     20.5989E-03
            2710            3139     20.2387E-03     20.5989E-03
            2711            3140     19.2418E-03     19.6489E-03
            2694            3140     19.2418E-03     19.6489E-03
            2693            3140     19.2418E-03     19.6489E-03
            2712            3140     19.2418E-03     19.6489E-03
            2695            3141     18.2347E-03     18.6545E-03
            2712            3141     18.2347E-03     18.6545E-03
            2694            3141     18.2347E-03     18.6545E-03
            2713            3141     18.2347E-03     18.6545E-03
            2714            3142     17.1580E-03     17.5418E-03
            2695            3142     17.1580E-03     17.5418E-03
            2696            3142     17.1580E-03     17.5418E-03
            2713            3142     17.1580E-03     17.5418E-03
            2715            3143     15.9934E-03     16.3257E-03
            2697            3143     15.9934E-03     16.3257E-03
            2696            3143     15.9934E-03     16.3257E-03
            2714            3143     15.9934E-03     16.3257E-03
            2698            3144     14.7591E-03     15.0573E-03
            2716            3144     14.7591E-03     15.0573E-03
            2715            3144     14.7591E-03     15.0573E-03
            2697            3144     14.7591E-03     15.0573E-03
            2698            3145     13.5096E-03     13.7748E-03
            2717            3145     13.5096E-03     13.7748E-03
            2716            3145     13.5096E-03     13.7748E-03
            2699            3145     13.5096E-03     13.7748E-03
            2700            3146     12.2513E-03     12.4956E-03
            2699            3146     12.2513E-03     12.4956E-03
            2718            3146     12.2513E-03     12.4956E-03
            2717            3146     12.2513E-03     12.4956E-03
            2700            3147     11.0086E-03     11.2389E-03
            2718            3147     11.0086E-03     11.2389E-03
            2701            3147     11.0086E-03     11.2389E-03
            2719            3147     11.0086E-03     11.2389E-03
            2719            3148     9.78878E-03     10.0135E-03
            2701            3148     9.78878E-03     10.0135E-03
            2702            3148     9.78878E-03     10.0135E-03
            2720            3148     9.78878E-03     10.0135E-03
            2702            3149     8.60721E-03     8.83177E-03
            2703            3149     8.60721E-03     8.83177E-03
            2721            3149     8.60721E-03     8.83177E-03
            2720            3149     8.60721E-03     8.83177E-03
            2704            3150     7.48034E-03     7.70919E-03
            2721            3150     7.48034E-03     7.70919E-03
            2722            3150     7.48034E-03     7.70919E-03
            2703            3150     7.48034E-03     7.70919E-03
            2705            3151     6.44644E-03     6.65890E-03
            2722            3151     6.44644E-03     6.65890E-03
            2704            3151     6.44644E-03     6.65890E-03
            2723            3151     6.44644E-03     6.65890E-03
            2706            3152     5.55123E-03     5.69961E-03
            2705            3152     5.55123E-03     5.69961E-03
            2724            3152     5.55123E-03     5.69961E-03
            2723            3152     5.55123E-03     5.69961E-03
            2724            3153     4.87078E-03     4.90094E-03
            2706            3153     4.87078E-03     4.90094E-03
            2707            3153     4.87078E-03     4.90094E-03
            2725            3153     4.87078E-03     4.90094E-03
            2708            3154     4.48999E-03     4.31866E-03
            2707            3154     4.48999E-03     4.31866E-03
            2726            3154     4.48999E-03     4.31866E-03
            2725            3154     4.48999E-03     4.31866E-03
            2710            3155     23.2108E-03     23.5065E-03
            2727            3155     23.2108E-03     23.5065E-03
            2728            3155     23.2108E-03     23.5065E-03
            2709            3155     23.2108E-03     23.5065E-03
            2729            3156     21.5976E-03     21.9545E-03
            2711            3156     21.5976E-03     21.9545E-03
            2710            3156     21.5976E-03     21.9545E-03
            2728            3156     21.5976E-03     21.9545E-03
            2712            3157     20.1048E-03     20.5763E-03
            2730            3157     20.1048E-03     20.5763E-03
            2711            3157     20.1048E-03     20.5763E-03
            2729            3157     20.1048E-03     20.5763E-03
            2731            3158     18.7088E-03     19.2112E-03
            2713            3158     18.7088E-03     19.2112E-03
            2712            3158     18.7088E-03     19.2112E-03
            2730            3158     18.7088E-03     19.2112E-03
            2731            3159     17.3379E-03     17.8300E-03
            2732            3159     17.3379E-03     17.8300E-03
            2713            3159     17.3379E-03     17.8300E-03
            2714            3159     17.3379E-03     17.8300E-03
            2732            3160     15.9740E-03     16.4542E-03
            2733            3160     15.9740E-03     16.4542E-03
            2714            3160     15.9740E-03     16.4542E-03
            2715            3160     15.9740E-03     16.4542E-03
            2715            3161     14.6476E-03     15.0957E-03
            2734            3161     14.6476E-03     15.0957E-03
            2716            3161     14.6476E-03     15.0957E-03
            2733            3161     14.6476E-03     15.0957E-03
            2716            3162     13.3302E-03     13.7515E-03
            2735            3162     13.3302E-03     13.7515E-03
            2734            3162     13.3302E-03     13.7515E-03
            2717            3162     13.3302E-03     13.7515E-03
            2717            3163     12.0365E-03     12.4346E-03
            2718            3163     12.0365E-03     12.4346E-03
            2735            3163     12.0365E-03     12.4346E-03
            2736            3163     12.0365E-03     12.4346E-03
            2737            3164     10.7627E-03     11.1424E-03
            2736            3164     10.7627E-03     11.1424E-03
            2718            3164     10.7627E-03     11.1424E-03
            2719            3164     10.7627E-03     11.1424E-03
            2738            3165     9.51641E-03     9.88212E-03
            2737            3165     9.51641E-03     9.88212E-03
            2719            3165     9.51641E-03     9.88212E-03
            2720            3165     9.51641E-03     9.88212E-03
            2720            3166     8.30481E-03     8.65763E-03
            2721            3166     8.30481E-03     8.65763E-03
            2739            3166     8.30481E-03     8.65763E-03
            2738            3166     8.30481E-03     8.65763E-03
            2721            3167     7.14671E-03     7.47717E-03
            2740            3167     7.14671E-03     7.47717E-03
            2722            3167     7.14671E-03     7.47717E-03
            2739            3167     7.14671E-03     7.47717E-03
            2740            3168     6.06843E-03     6.35111E-03
            2723            3168     6.06843E-03     6.35111E-03
            2722            3168     6.06843E-03     6.35111E-03
            2741            3168     6.06843E-03     6.35111E-03
            2723            3169     5.11992E-03     5.31641E-03
            2741            3169     5.11992E-03     5.31641E-03
            2742            3169     5.11992E-03     5.31641E-03
            2724            3169     5.11992E-03     5.31641E-03
            2724            3170     4.38130E-03     4.41620E-03
            2742            3170     4.38130E-03     4.41620E-03
            2743            3170     4.38130E-03     4.41620E-03
            2725            3170     4.38130E-03     4.41620E-03
            2744            3171     3.94695E-03     3.78346E-03
            2726            3171     3.94695E-03     3.78346E-03
            2725            3171     3.94695E-03     3.78346E-03
            2743            3171     3.94695E-03     3.78346E-03
            2728            3172     24.9645E-03     25.2296E-03
            2745            3172     24.9645E-03     25.2296E-03
            2746            3172     24.9645E-03     25.2296E-03
            2727            3172     24.9645E-03     25.2296E-03
            2746            3173     22.8017E-03     23.2539E-03
            2747            3173     22.8017E-03     23.2539E-03
            2728            3173     22.8017E-03     23.2539E-03
            2729            3173     22.8017E-03     23.2539E-03
            2748            3174     20.8381E-03     21.3394E-03
            2747            3174     20.8381E-03     21.3394E-03
            2730            3174     20.8381E-03     21.3394E-03
            2729            3174     20.8381E-03     21.3394E-03
            2730            3175     18.9915E-03     19.5443E-03
            2748            3175     18.9915E-03     19.5443E-03
            2749            3175     18.9915E-03     19.5443E-03
            2731            3175     18.9915E-03     19.5443E-03
            2731            3176     17.2996E-03     17.9049E-03
            2750            3176     17.2996E-03     17.9049E-03
            2749            3176     17.2996E-03     17.9049E-03
            2732            3176     17.2996E-03     17.9049E-03
            2751            3177     15.8009E-03     16.4006E-03
            2750            3177     15.8009E-03     16.4006E-03
            2732            3177     15.8009E-03     16.4006E-03
            2733            3177     15.8009E-03     16.4006E-03
            2751            3178     14.3854E-03     14.9690E-03
            2733            3178     14.3854E-03     14.9690E-03
            2752            3178     14.3854E-03     14.9690E-03
            2734            3178     14.3854E-03     14.9690E-03
            2752            3179     13.0346E-03     13.5985E-03
            2753            3179     13.0346E-03     13.5985E-03
            2735            3179     13.0346E-03     13.5985E-03
            2734            3179     13.0346E-03     13.5985E-03
            2753            3180     11.7226E-03     12.2649E-03
            2754            3180     11.7226E-03     12.2649E-03
            2736            3180     11.7226E-03     12.2649E-03
            2735            3180     11.7226E-03     12.2649E-03
            2754            3181     10.4399E-03     10.9644E-03
            2736            3181     10.4399E-03     10.9644E-03
            2755            3181     10.4399E-03     10.9644E-03
            2737            3181     10.4399E-03     10.9644E-03
            2755            3182     9.18482E-03     9.69039E-03
            2738            3182     9.18482E-03     9.69039E-03
            2737            3182     9.18482E-03     9.69039E-03
            2756            3182     9.18482E-03     9.69039E-03
            2756            3183     7.96084E-03     8.44384E-03
            2757            3183     7.96084E-03     8.44384E-03
            2739            3183     7.96084E-03     8.44384E-03
            2738            3183     7.96084E-03     8.44384E-03
            2739            3184     6.78003E-03     7.22702E-03
            2758            3184     6.78003E-03     7.22702E-03
            2757            3184     6.78003E-03     7.22702E-03
            2740            3184     6.78003E-03     7.22702E-03
            2741            3185     5.66762E-03     6.05340E-03
            2758            3185     5.66762E-03     6.05340E-03
            2740            3185     5.66762E-03     6.05340E-03
            2759            3185     5.66762E-03     6.05340E-03
            2742            3186     4.67026E-03     4.94218E-03
            2759            3186     4.67026E-03     4.94218E-03
            2760            3186     4.67026E-03     4.94218E-03
            2741            3186     4.67026E-03     4.94218E-03
            2742            3187     3.86471E-03     3.96782E-03
            2760            3187     3.86471E-03     3.96782E-03
            2743            3187     3.86471E-03     3.96782E-03
            2761            3187     3.86471E-03     3.96782E-03
            2761            3188     3.39100E-03     3.25063E-03
            2744            3188     3.39100E-03     3.25063E-03
            2762            3188     3.39100E-03     3.25063E-03
            2743            3188     3.39100E-03     3.25063E-03
            2746            3189     26.5892E-03     27.0708E-03
            2745            3189     26.5892E-03     27.0708E-03
            2764            3189     26.5892E-03     27.0708E-03
            2763            3189     26.5892E-03     27.0708E-03
            2764            3190     23.9365E-03     24.3306E-03
            2747            3190     23.9365E-03     24.3306E-03
            2746            3190     23.9365E-03     24.3306E-03
            2765            3190     23.9365E-03     24.3306E-03
            2748            3191     21.2496E-03     21.7698E-03
            2747            3191     21.2496E-03     21.7698E-03
            2765            3191     21.2496E-03     21.7698E-03
            2766            3191     21.2496E-03     21.7698E-03
            2749            3192     18.9085E-03     19.5781E-03
            2748            3192     18.9085E-03     19.5781E-03
            2766            3192     18.9085E-03     19.5781E-03
            2767            3192     18.9085E-03     19.5781E-03
            2750            3193     17.0706E-03     17.7765E-03
            2767            3193     17.0706E-03     17.7765E-03
            2749            3193     17.0706E-03     17.7765E-03
            2768            3193     17.0706E-03     17.7765E-03
            2751            3194     15.4660E-03     16.1771E-03
            2750            3194     15.4660E-03     16.1771E-03
            2768            3194     15.4660E-03     16.1771E-03
            2769            3194     15.4660E-03     16.1771E-03
            2769            3195     14.0128E-03     14.7218E-03
            2770            3195     14.0128E-03     14.7218E-03
            2751            3195     14.0128E-03     14.7218E-03
            2752            3195     14.0128E-03     14.7218E-03
            2770            3196     12.6514E-03     13.3458E-03
            2753            3196     12.6514E-03     13.3458E-03
            2771            3196     12.6514E-03     13.3458E-03
            2752            3196     12.6514E-03     13.3458E-03
            2754            3197     11.3392E-03     12.0221E-03
            2771            3197     11.3392E-03     12.0221E-03
            2772            3197     11.3392E-03     12.0221E-03
            2753            3197     11.3392E-03     12.0221E-03
            2772            3198     10.0634E-03     10.7303E-03
            2755            3198     10.0634E-03     10.7303E-03
            2754            3198     10.0634E-03     10.7303E-03
            2773            3198     10.0634E-03     10.7303E-03
            2755            3199     8.81095E-03     9.46069E-03
            2773            3199     8.81095E-03     9.46069E-03
            2756            3199     8.81095E-03     9.46069E-03
            2774            3199     8.81095E-03     9.46069E-03
            2756            3200     7.58454E-03     8.20876E-03
            2774            3200     7.58454E-03     8.20876E-03
            2757            3200     7.58454E-03     8.20876E-03
            2775            3200     7.58454E-03     8.20876E-03
            2775            3201     6.38995E-03     6.97593E-03
            2776            3201     6.38995E-03     6.97593E-03
            2758            3201     6.38995E-03     6.97593E-03
            2757            3201     6.38995E-03     6.97593E-03
            2759            3202     5.24757E-03     5.76762E-03
            2777            3202     5.24757E-03     5.76762E-03
            2776            3202     5.24757E-03     5.76762E-03
            2758            3202     5.24757E-03     5.76762E-03
            2760            3203     4.19755E-03     4.60558E-03
            2777            3203     4.19755E-03     4.60558E-03
            2778            3203     4.19755E-03     4.60558E-03
            2759            3203     4.19755E-03     4.60558E-03
            2779            3204     3.33133E-03     3.53943E-03
            2760            3204     3.33133E-03     3.53943E-03
            2778            3204     3.33133E-03     3.53943E-03
            2761            3204     3.33133E-03     3.53943E-03
            2779            3205     2.79523E-03     2.72322E-03
            2762            3205     2.79523E-03     2.72322E-03
            2761            3205     2.79523E-03     2.72322E-03
            2780            3205     2.79523E-03     2.72322E-03
            2763            3206     28.4053E-03     28.4764E-03
            2764            3206     28.4053E-03     28.4764E-03
            2782            3206     28.4053E-03     28.4764E-03
            2781            3206     28.4053E-03     28.4764E-03
            2765            3207     24.4675E-03     24.9124E-03
            2764            3207     24.4675E-03     24.9124E-03
            2783            3207     24.4675E-03     24.9124E-03
            2782            3207     24.4675E-03     24.9124E-03
            2783            3208     20.9643E-03     21.6896E-03
            2784            3208     20.9643E-03     21.6896E-03
            2765            3208     20.9643E-03     21.6896E-03
            2766            3208     20.9643E-03     21.6896E-03
            2766            3209     18.5629E-03     19.3518E-03
            2785            3209     18.5629E-03     19.3518E-03
            2767            3209     18.5629E-03     19.3518E-03
            2784            3209     18.5629E-03     19.3518E-03
            2786            3210     16.6592E-03     17.4613E-03
            2785            3210     16.6592E-03     17.4613E-03
            2768            3210     16.6592E-03     17.4613E-03
            2767            3210     16.6592E-03     17.4613E-03
            2768            3211     15.0297E-03     15.8493E-03
            2786            3211     15.0297E-03     15.8493E-03
            2769            3211     15.0297E-03     15.8493E-03
            2787            3211     15.0297E-03     15.8493E-03
            2770            3212     13.5821E-03     14.4021E-03
            2769            3212     13.5821E-03     14.4021E-03
            2788            3212     13.5821E-03     14.4021E-03
            2787            3212     13.5821E-03     14.4021E-03
            2771            3213     12.2237E-03     13.0473E-03
            2789            3213     12.2237E-03     13.0473E-03
            2788            3213     12.2237E-03     13.0473E-03
            2770            3213     12.2237E-03     13.0473E-03
            2789            3214     10.9283E-03     11.7484E-03
            2771            3214     10.9283E-03     11.7484E-03
            2790            3214     10.9283E-03     11.7484E-03
            2772            3214     10.9283E-03     11.7484E-03
            2791            3215     9.66273E-03     10.4775E-03
            2773            3215     9.66273E-03     10.4775E-03
            2772            3215     9.66273E-03     10.4775E-03
            2790            3215     9.66273E-03     10.4775E-03
            2774            3216     8.42165E-03     9.22395E-03
            2773            3216     8.42165E-03     9.22395E-03
            2792            3216     8.42165E-03     9.22395E-03
            2791            3216     8.42165E-03     9.22395E-03
            2774            3217     7.19699E-03     7.97928E-03
            2792            3217     7.19699E-03     7.97928E-03
            2775            3217     7.19699E-03     7.97928E-03
            2793            3217     7.19699E-03     7.97928E-03
            2776            3218     5.99519E-03     6.74244E-03
            2793            3218     5.99519E-03     6.74244E-03
            2794            3218     5.99519E-03     6.74244E-03
            2775            3218     5.99519E-03     6.74244E-03
            2776            3219     4.82569E-03     5.51745E-03
            2777            3219     4.82569E-03     5.51745E-03
            2794            3219     4.82569E-03     5.51745E-03
            2795            3219     4.82569E-03     5.51745E-03
            2778            3220     3.72157E-03     4.31804E-03
            2795            3220     3.72157E-03     4.31804E-03
            2777            3220     3.72157E-03     4.31804E-03
            2796            3220     3.72157E-03     4.31804E-03
            2778            3221     2.76459E-03     3.17719E-03
            2796            3221     2.76459E-03     3.17719E-03
            2797            3221     2.76459E-03     3.17719E-03
            2779            3221     2.76459E-03     3.17719E-03
            2798            3222     2.16202E-03     2.22494E-03
            2779            3222     2.16202E-03     2.22494E-03
            2797            3222     2.16202E-03     2.22494E-03
            2780            3222     2.16202E-03     2.22494E-03
            2799            3223     28.9786E-03     29.7633E-03
            2781            3223     28.9786E-03     29.7633E-03
            2782            3223     28.9786E-03     29.7633E-03
            2800            3223     28.9786E-03     29.7633E-03
            2783            3224     23.6577E-03     24.6352E-03
            2782            3224     23.6577E-03     24.6352E-03
            2800            3224     23.6577E-03     24.6352E-03
            2801            3224     23.6577E-03     24.6352E-03
            2784            3225     20.3550E-03     21.2611E-03
            2802            3225     20.3550E-03     21.2611E-03
            2801            3225     20.3550E-03     21.2611E-03
            2783            3225     20.3550E-03     21.2611E-03
            2785            3226     18.0681E-03     18.9424E-03
            2802            3226     18.0681E-03     18.9424E-03
            2803            3226     18.0681E-03     18.9424E-03
            2784            3226     18.0681E-03     18.9424E-03
            2786            3227     16.1786E-03     17.0654E-03
            2804            3227     16.1786E-03     17.0654E-03
            2803            3227     16.1786E-03     17.0654E-03
            2785            3227     16.1786E-03     17.0654E-03
            2787            3228     14.5918E-03     15.4981E-03
            2786            3228     14.5918E-03     15.4981E-03
            2805            3228     14.5918E-03     15.4981E-03
            2804            3228     14.5918E-03     15.4981E-03
            2806            3229     13.1485E-03     14.0793E-03
            2788            3229     13.1485E-03     14.0793E-03
            2787            3229     13.1485E-03     14.0793E-03
            2805            3229     13.1485E-03     14.0793E-03
            2806            3230     11.8114E-03     12.7624E-03
            2788            3230     11.8114E-03     12.7624E-03
            2789            3230     11.8114E-03     12.7624E-03
            2807            3230     11.8114E-03     12.7624E-03
            2789            3231     10.5254E-03     11.4903E-03
            2807            3231     10.5254E-03     11.4903E-03
            2808            3231     10.5254E-03     11.4903E-03
            2790            3231     10.5254E-03     11.4903E-03
            2808            3232     9.27607E-03     10.2476E-03
            2791            3232     9.27607E-03     10.2476E-03
            2790            3232     9.27607E-03     10.2476E-03
            2809            3232     9.27607E-03     10.2476E-03
            2810            3233     8.04434E-03     9.01356E-03
            2792            3233     8.04434E-03     9.01356E-03
            2809            3233     8.04434E-03     9.01356E-03
            2791            3233     8.04434E-03     9.01356E-03
            2811            3234     6.82782E-03     7.78424E-03
            2793            3234     6.82782E-03     7.78424E-03
            2792            3234     6.82782E-03     7.78424E-03
            2810            3234     6.82782E-03     7.78424E-03
            2812            3235     5.62229E-03     6.55415E-03
            2811            3235     5.62229E-03     6.55415E-03
            2793            3235     5.62229E-03     6.55415E-03
            2794            3235     5.62229E-03     6.55415E-03
            2794            3236     4.43589E-03     5.32529E-03
            2812            3236     4.43589E-03     5.32529E-03
            2813            3236     4.43589E-03     5.32529E-03
            2795            3236     4.43589E-03     5.32529E-03
            2814            3237     3.28053E-03     4.10436E-03
            2813            3237     3.28053E-03     4.10436E-03
            2796            3237     3.28053E-03     4.10436E-03
            2795            3237     3.28053E-03     4.10436E-03
            2796            3238     2.21204E-03     2.91689E-03
            2814            3238     2.21204E-03     2.91689E-03
            2797            3238     2.21204E-03     2.91689E-03
            2815            3238     2.21204E-03     2.91689E-03
            2798            3239     1.46178E-03     1.83859E-03
            2797            3239     1.46178E-03     1.83859E-03
            2815            3239     1.46178E-03     1.83859E-03
            2816            3239     1.46178E-03     1.83859E-03
            2817            3240     28.6821E-03     29.3635E-03
            2818            3240     28.6821E-03     29.3635E-03
            2800            3240     28.6821E-03     29.3635E-03
            2799            3240     28.6821E-03     29.3635E-03
            2800            3241     25.8591E-03     25.9685E-03
            2818            3241     25.8591E-03     25.9685E-03
            2801            3241     25.8591E-03     25.9685E-03
            2819            3241     25.8591E-03     25.9685E-03
            2801            3242     24.0024E-03     24.0478E-03
            2820            3242     24.0024E-03     24.0478E-03
            2802            3242     24.0024E-03     24.0478E-03
            2819            3242     24.0024E-03     24.0478E-03
            2803            3243     22.2886E-03     22.4099E-03
            2802            3243     22.2886E-03     22.4099E-03
            2820            3243     22.2886E-03     22.4099E-03
            2821            3243     22.2886E-03     22.4099E-03
            2804            3244     20.7392E-03     20.9251E-03
            2822            3244     20.7392E-03     20.9251E-03
            2821            3244     20.7392E-03     20.9251E-03
            2803            3244     20.7392E-03     20.9251E-03
            2822            3245     19.2253E-03     19.5060E-03
            2804            3245     19.2253E-03     19.5060E-03
            2805            3245     19.2253E-03     19.5060E-03
            2823            3245     19.2253E-03     19.5060E-03
            2824            3246     17.7555E-03     18.0979E-03
            2823            3246     17.7555E-03     18.0979E-03
            2805            3246     17.7555E-03     18.0979E-03
            2806            3246     17.7555E-03     18.0979E-03
            2825            3247     16.2911E-03     16.6965E-03
            2806            3247     16.2911E-03     16.6965E-03
            2807            3247     16.2911E-03     16.6965E-03
            2824            3247     16.2911E-03     16.6965E-03
            2807            3248     14.8410E-03     15.2840E-03
            2826            3248     14.8410E-03     15.2840E-03
            2808            3248     14.8410E-03     15.2840E-03
            2825            3248     14.8410E-03     15.2840E-03
            2826            3249     13.3956E-03     13.8692E-03
            2808            3249     13.3956E-03     13.8692E-03
            2827            3249     13.3956E-03     13.8692E-03
            2809            3249     13.3956E-03     13.8692E-03
            2810            3250     11.9679E-03     12.4535E-03
            2809            3250     11.9679E-03     12.4535E-03
            2828            3250     11.9679E-03     12.4535E-03
            2827            3250     11.9679E-03     12.4535E-03
            2811            3251     10.5621E-03     11.0492E-03
            2828            3251     10.5621E-03     11.0492E-03
            2810            3251     10.5621E-03     11.0492E-03
            2829            3251     10.5621E-03     11.0492E-03
            2812            3252     9.19936E-03     9.66979E-03
            2811            3252     9.19936E-03     9.66979E-03
            2830            3252     9.19936E-03     9.66979E-03
            2829            3252     9.19936E-03     9.66979E-03
            2813            3253     7.89536E-03     8.34316E-03
            2830            3253     7.89536E-03     8.34316E-03
            2831            3253     7.89536E-03     8.34316E-03
            2812            3253     7.89536E-03     8.34316E-03
            2813            3254     6.68058E-03     7.09357E-03
            2814            3254     6.68058E-03     7.09357E-03
            2831            3254     6.68058E-03     7.09357E-03
            2832            3254     6.68058E-03     7.09357E-03
            2815            3255     5.58417E-03     6.03354E-03
            2833            3255     5.58417E-03     6.03354E-03
            2832            3255     5.58417E-03     6.03354E-03
            2814            3255     5.58417E-03     6.03354E-03
            2834            3256     4.56368E-03     5.34854E-03
            2816            3256     4.56368E-03     5.34854E-03
            2833            3256     4.56368E-03     5.34854E-03
            2815            3256     4.56368E-03     5.34854E-03
            2817            3257     30.0636E-03     29.4738E-03
            2818            3257     30.0636E-03     29.4738E-03
            2836            3257     30.0636E-03     29.4738E-03
            2835            3257     30.0636E-03     29.4738E-03
            2837            3258     29.6125E-03     29.1194E-03
            2818            3258     29.6125E-03     29.1194E-03
            2819            3258     29.6125E-03     29.1194E-03
            2836            3258     29.6125E-03     29.1194E-03
            2838            3259     28.7148E-03     28.2258E-03
            2819            3259     28.7148E-03     28.2258E-03
            2820            3259     28.7148E-03     28.2258E-03
            2837            3259     28.7148E-03     28.2258E-03
            2820            3260     27.5160E-03     27.0953E-03
            2838            3260     27.5160E-03     27.0953E-03
            2839            3260     27.5160E-03     27.0953E-03
            2821            3260     27.5160E-03     27.0953E-03
            2839            3261     26.1084E-03     25.7676E-03
            2840            3261     26.1084E-03     25.7676E-03
            2821            3261     26.1084E-03     25.7676E-03
            2822            3261     26.1084E-03     25.7676E-03
            2822            3262     24.5644E-03     24.3039E-03
            2841            3262     24.5644E-03     24.3039E-03
            2823            3262     24.5644E-03     24.3039E-03
            2840            3262     24.5644E-03     24.3039E-03
            2823            3263     22.9241E-03     22.7346E-03
            2842            3263     22.9241E-03     22.7346E-03
            2841            3263     22.9241E-03     22.7346E-03
            2824            3263     22.9241E-03     22.7346E-03
            2843            3264     21.2245E-03     21.0907E-03
            2824            3264     21.2245E-03     21.0907E-03
            2842            3264     21.2245E-03     21.0907E-03
            2825            3264     21.2245E-03     21.0907E-03
            2843            3265     19.4883E-03     19.4010E-03
            2844            3265     19.4883E-03     19.4010E-03
            2826            3265     19.4883E-03     19.4010E-03
            2825            3265     19.4883E-03     19.4010E-03
            2827            3266     17.7445E-03     17.6870E-03
            2844            3266     17.7445E-03     17.6870E-03
            2845            3266     17.7445E-03     17.6870E-03
            2826            3266     17.7445E-03     17.6870E-03
            2827            3267     16.0102E-03     15.9747E-03
            2846            3267     16.0102E-03     15.9747E-03
            2845            3267     16.0102E-03     15.9747E-03
            2828            3267     16.0102E-03     15.9747E-03
            2846            3268     14.3170E-03     14.2892E-03
            2828            3268     14.3170E-03     14.2892E-03
            2847            3268     14.3170E-03     14.2892E-03
            2829            3268     14.3170E-03     14.2892E-03
            2847            3269     12.6861E-03     12.6646E-03
            2829            3269     12.6861E-03     12.6646E-03
            2848            3269     12.6861E-03     12.6646E-03
            2830            3269     12.6861E-03     12.6646E-03
            2849            3270     11.1635E-03     11.1549E-03
            2831            3270     11.1635E-03     11.1549E-03
            2848            3270     11.1635E-03     11.1549E-03
            2830            3270     11.1635E-03     11.1549E-03
            2849            3271     9.77660E-03     9.83719E-03
            2831            3271     9.77660E-03     9.83719E-03
            2832            3271     9.77660E-03     9.83719E-03
            2850            3271     9.77660E-03     9.83719E-03
            2850            3272     8.55165E-03     8.92118E-03
            2832            3272     8.55165E-03     8.92118E-03
            2851            3272     8.55165E-03     8.92118E-03
            2833            3272     8.55165E-03     8.92118E-03
            2852            3273     7.63723E-03     8.60203E-03
            2833            3273     7.63723E-03     8.60203E-03
            2851            3273     7.63723E-03     8.60203E-03
            2834            3273     7.63723E-03     8.60203E-03
            2836            3274     32.1333E-03     32.2482E-03
            2854            3274     32.1333E-03     32.2482E-03
            2835            3274     32.1333E-03     32.2482E-03
            2853            3274     32.1333E-03     32.2482E-03
            2837            3275     31.2757E-03     31.4726E-03
            2855            3275     31.2757E-03     31.4726E-03
            2854            3275     31.2757E-03     31.4726E-03
            2836            3275     31.2757E-03     31.4726E-03
            2856            3276     30.1969E-03     30.3319E-03
            2838            3276     30.1969E-03     30.3319E-03
            2855            3276     30.1969E-03     30.3319E-03
            2837            3276     30.1969E-03     30.3319E-03
            2856            3277     28.8255E-03     28.8824E-03
            2839            3277     28.8255E-03     28.8824E-03
            2857            3277     28.8255E-03     28.8824E-03
            2838            3277     28.8255E-03     28.8824E-03
            2840            3278     27.2202E-03     27.2439E-03
            2839            3278     27.2202E-03     27.2439E-03
            2858            3278     27.2202E-03     27.2439E-03
            2857            3278     27.2202E-03     27.2439E-03
            2859            3279     25.4628E-03     25.4821E-03
            2840            3279     25.4628E-03     25.4821E-03
            2841            3279     25.4628E-03     25.4821E-03
            2858            3279     25.4628E-03     25.4821E-03
            2860            3280     23.6122E-03     23.6359E-03
            2842            3280     23.6122E-03     23.6359E-03
            2841            3280     23.6122E-03     23.6359E-03
            2859            3280     23.6122E-03     23.6359E-03
            2861            3281     21.7040E-03     21.7437E-03
            2843            3281     21.7040E-03     21.7437E-03
            2860            3281     21.7040E-03     21.7437E-03
            2842            3281     21.7040E-03     21.7437E-03
            2861            3282     19.7745E-03     19.8257E-03
            2843            3282     19.7745E-03     19.8257E-03
            2862            3282     19.7745E-03     19.8257E-03
            2844            3282     19.7745E-03     19.8257E-03
            2863            3283     17.8400E-03     17.9057E-03
            2845            3283     17.8400E-03     17.9057E-03
            2862            3283     17.8400E-03     17.9057E-03
            2844            3283     17.8400E-03     17.9057E-03
            2845            3284     15.9245E-03     16.0012E-03
            2864            3284     15.9245E-03     16.0012E-03
            2846            3284     15.9245E-03     16.0012E-03
            2863            3284     15.9245E-03     16.0012E-03
            2847            3285     14.0432E-03     14.1349E-03
            2865            3285     14.0432E-03     14.1349E-03
            2864            3285     14.0432E-03     14.1349E-03
            2846            3285     14.0432E-03     14.1349E-03
            2866            3286     12.2184E-03     12.3403E-03
            2865            3286     12.2184E-03     12.3403E-03
            2847            3286     12.2184E-03     12.3403E-03
            2848            3286     12.2184E-03     12.3403E-03
            2849            3287     10.4816E-03     10.6679E-03
            2848            3287     10.4816E-03     10.6679E-03
            2867            3287     10.4816E-03     10.6679E-03
            2866            3287     10.4816E-03     10.6679E-03
            2850            3288     8.86266E-03     9.22318E-03
            2849            3288     8.86266E-03     9.22318E-03
            2868            3288     8.86266E-03     9.22318E-03
            2867            3288     8.86266E-03     9.22318E-03
            2869            3289     7.49419E-03     8.16717E-03
            2850            3289     7.49419E-03     8.16717E-03
            2851            3289     7.49419E-03     8.16717E-03
            2868            3289     7.49419E-03     8.16717E-03
            2870            3290     6.79674E-03     7.33882E-03
            2852            3290     6.79674E-03     7.33882E-03
            2851            3290     6.79674E-03     7.33882E-03
            2869            3290     6.79674E-03     7.33882E-03
            2871            3291     34.0464E-03     34.4362E-03
            2853            3291     34.0464E-03     34.4362E-03
            2854            3291     34.0464E-03     34.4362E-03
            2872            3291     34.0464E-03     34.4362E-03
            2873            3292     32.8054E-03     33.3275E-03
            2854            3292     32.8054E-03     33.3275E-03
            2872            3292     32.8054E-03     33.3275E-03
            2855            3292     32.8054E-03     33.3275E-03
            2873            3293     31.4969E-03     31.9785E-03
            2856            3293     31.4969E-03     31.9785E-03
            2855            3293     31.4969E-03     31.9785E-03
            2874            3293     31.4969E-03     31.9785E-03
            2856            3294     29.9120E-03     30.3311E-03
            2857            3294     29.9120E-03     30.3311E-03
            2874            3294     29.9120E-03     30.3311E-03
            2875            3294     29.9120E-03     30.3311E-03
            2875            3295     28.1319E-03     28.4675E-03
            2876            3295     28.1319E-03     28.4675E-03
            2858            3295     28.1319E-03     28.4675E-03
            2857            3295     28.1319E-03     28.4675E-03
            2859            3296     26.1949E-03     26.4756E-03
            2876            3296     26.1949E-03     26.4756E-03
            2858            3296     26.1949E-03     26.4756E-03
            2877            3296     26.1949E-03     26.4756E-03
            2878            3297     24.1690E-03     24.4174E-03
            2860            3297     24.1690E-03     24.4174E-03
            2859            3297     24.1690E-03     24.4174E-03
            2877            3297     24.1690E-03     24.4174E-03
            2861            3298     22.1008E-03     22.3251E-03
            2860            3298     22.1008E-03     22.3251E-03
            2879            3298     22.1008E-03     22.3251E-03
            2878            3298     22.1008E-03     22.3251E-03
            2879            3299     20.0126E-03     20.2287E-03
            2862            3299     20.0126E-03     20.2287E-03
            2880            3299     20.0126E-03     20.2287E-03
            2861            3299     20.0126E-03     20.2287E-03
            2880            3300     17.9311E-03     18.1431E-03
            2862            3300     17.9311E-03     18.1431E-03
            2881            3300     17.9311E-03     18.1431E-03
            2863            3300     17.9311E-03     18.1431E-03
            2863            3301     15.8659E-03     16.0847E-03
            2864            3301     15.8659E-03     16.0847E-03
            2881            3301     15.8659E-03     16.0847E-03
            2882            3301     15.8659E-03     16.0847E-03
            2882            3302     13.8322E-03     14.0703E-03
            2865            3302     13.8322E-03     14.0703E-03
            2864            3302     13.8322E-03     14.0703E-03
            2883            3302     13.8322E-03     14.0703E-03
            2883            3303     11.8461E-03     12.1286E-03
            2865            3303     11.8461E-03     12.1286E-03
            2866            3303     11.8461E-03     12.1286E-03
            2884            3303     11.8461E-03     12.1286E-03
            2866            3304     9.93218E-03     10.2994E-03
            2884            3304     9.93218E-03     10.2994E-03
            2867            3304     9.93218E-03     10.2994E-03
            2885            3304     9.93218E-03     10.2994E-03
            2867            3305     8.15239E-03     8.67549E-03
            2885            3305     8.15239E-03     8.67549E-03
            2868            3305     8.15239E-03     8.67549E-03
            2886            3305     8.15239E-03     8.67549E-03
            2886            3306     6.72856E-03     7.25117E-03
            2887            3306     6.72856E-03     7.25117E-03
            2869            3306     6.72856E-03     7.25117E-03
            2868            3306     6.72856E-03     7.25117E-03
            2870            3307     5.84453E-03     6.05921E-03
            2887            3307     5.84453E-03     6.05921E-03
            2888            3307     5.84453E-03     6.05921E-03
            2869            3307     5.84453E-03     6.05921E-03
            2872            3308     35.7856E-03     36.1696E-03
            2889            3308     35.7856E-03     36.1696E-03
            2890            3308     35.7856E-03     36.1696E-03
            2871            3308     35.7856E-03     36.1696E-03
            2890            3309     34.2244E-03     34.8281E-03
            2873            3309     34.2244E-03     34.8281E-03
            2872            3309     34.2244E-03     34.8281E-03
            2891            3309     34.2244E-03     34.8281E-03
            2892            3310     32.5797E-03     33.2569E-03
            2891            3310     32.5797E-03     33.2569E-03
            2874            3310     32.5797E-03     33.2569E-03
            2873            3310     32.5797E-03     33.2569E-03
            2875            3311     30.7870E-03     31.4130E-03
            2874            3311     30.7870E-03     31.4130E-03
            2893            3311     30.7870E-03     31.4130E-03
            2892            3311     30.7870E-03     31.4130E-03
            2876            3312     28.7992E-03     29.3668E-03
            2894            3312     28.7992E-03     29.3668E-03
            2893            3312     28.7992E-03     29.3668E-03
            2875            3312     28.7992E-03     29.3668E-03
            2877            3313     26.6999E-03     27.2006E-03
            2876            3313     26.6999E-03     27.2006E-03
            2895            3313     26.6999E-03     27.2006E-03
            2894            3313     26.6999E-03     27.2006E-03
            2878            3314     24.5342E-03     24.9779E-03
            2896            3314     24.5342E-03     24.9779E-03
            2877            3314     24.5342E-03     24.9779E-03
            2895            3314     24.5342E-03     24.9779E-03
            2879            3315     22.3364E-03     22.7433E-03
            2897            3315     22.3364E-03     22.7433E-03
            2878            3315     22.3364E-03     22.7433E-03
            2896            3315     22.3364E-03     22.7433E-03
            2879            3316     20.1391E-03     20.5175E-03
            2897            3316     20.1391E-03     20.5175E-03
            2898            3316     20.1391E-03     20.5175E-03
            2880            3316     20.1391E-03     20.5175E-03
            2898            3317     17.9481E-03     18.3145E-03
            2881            3317     17.9481E-03     18.3145E-03
            2880            3317     17.9481E-03     18.3145E-03
            2899            3317     17.9481E-03     18.3145E-03
            2900            3318     15.7777E-03     16.1443E-03
            2881            3318     15.7777E-03     16.1443E-03
            2899            3318     15.7777E-03     16.1443E-03
            2882            3318     15.7777E-03     16.1443E-03
            2901            3319     13.6329E-03     14.0204E-03
            2882            3319     13.6329E-03     14.0204E-03
            2883            3319     13.6329E-03     14.0204E-03
            2900            3319     13.6329E-03     14.0204E-03
            2883            3320     11.5280E-03     11.9559E-03
            2901            3320     11.5280E-03     11.9559E-03
            2902            3320     11.5280E-03     11.9559E-03
            2884            3320     11.5280E-03     11.9559E-03
            2884            3321     9.48384E-03     9.99031E-03
            2885            3321     9.48384E-03     9.99031E-03
            2902            3321     9.48384E-03     9.99031E-03
            2903            3321     9.48384E-03     9.99031E-03
            2903            3322     7.59109E-03     8.13992E-03
            2886            3322     7.59109E-03     8.13992E-03
            2885            3322     7.59109E-03     8.13992E-03
            2904            3322     7.59109E-03     8.13992E-03
            2905            3323     5.98106E-03     6.43645E-03
            2887            3323     5.98106E-03     6.43645E-03
            2886            3323     5.98106E-03     6.43645E-03
            2904            3323     5.98106E-03     6.43645E-03
            2887            3324     4.92383E-03     5.14685E-03
            2888            3324     4.92383E-03     5.14685E-03
            2906            3324     4.92383E-03     5.14685E-03
            2905            3324     4.92383E-03     5.14685E-03
            2908            3325     37.3593E-03     37.7967E-03
            2889            3325     37.3593E-03     37.7967E-03
            2907            3325     37.3593E-03     37.7967E-03
            2890            3325     37.3593E-03     37.7967E-03
            2909            3326     35.4665E-03     36.1100E-03
            2908            3326     35.4665E-03     36.1100E-03
            2891            3326     35.4665E-03     36.1100E-03
            2890            3326     35.4665E-03     36.1100E-03
            2910            3327     33.5169E-03     34.2489E-03
            2891            3327     33.5169E-03     34.2489E-03
            2892            3327     33.5169E-03     34.2489E-03
            2909            3327     33.5169E-03     34.2489E-03
            2910            3328     31.4165E-03     32.1753E-03
            2892            3328     31.4165E-03     32.1753E-03
            2911            3328     31.4165E-03     32.1753E-03
            2893            3328     31.4165E-03     32.1753E-03
            2894            3329     29.2192E-03     29.9386E-03
            2912            3329     29.2192E-03     29.9386E-03
            2911            3329     29.2192E-03     29.9386E-03
            2893            3329     29.2192E-03     29.9386E-03
            2913            3330     26.9571E-03     27.6181E-03
            2895            3330     26.9571E-03     27.6181E-03
            2912            3330     26.9571E-03     27.6181E-03
            2894            3330     26.9571E-03     27.6181E-03
            2913            3331     24.6671E-03     25.2777E-03
            2896            3331     24.6671E-03     25.2777E-03
            2895            3331     24.6671E-03     25.2777E-03
            2914            3331     24.6671E-03     25.2777E-03
            2896            3332     22.3865E-03     22.9490E-03
            2914            3332     22.3865E-03     22.9490E-03
            2897            3332     22.3865E-03     22.9490E-03
            2915            3332     22.3865E-03     22.9490E-03
            2916            3333     20.1131E-03     20.6432E-03
            2898            3333     20.1131E-03     20.6432E-03
            2915            3333     20.1131E-03     20.6432E-03
            2897            3333     20.1131E-03     20.6432E-03
            2917            3334     17.8597E-03     18.3695E-03
            2898            3334     17.8597E-03     18.3695E-03
            2899            3334     17.8597E-03     18.3695E-03
            2916            3334     17.8597E-03     18.3695E-03
            2918            3335     15.6241E-03     16.1304E-03
            2899            3335     15.6241E-03     16.1304E-03
            2900            3335     15.6241E-03     16.1304E-03
            2917            3335     15.6241E-03     16.1304E-03
            2901            3336     13.4122E-03     13.9310E-03
            2900            3336     13.4122E-03     13.9310E-03
            2919            3336     13.4122E-03     13.9310E-03
            2918            3336     13.4122E-03     13.9310E-03
            2902            3337     11.2286E-03     11.7831E-03
            2920            3337     11.2286E-03     11.7831E-03
            2919            3337     11.2286E-03     11.7831E-03
            2901            3337     11.2286E-03     11.7831E-03
            2921            3338     9.10324E-03     9.69307E-03
            2903            3338     9.10324E-03     9.69307E-03
            2902            3338     9.10324E-03     9.69307E-03
            2920            3338     9.10324E-03     9.69307E-03
            2921            3339     7.08152E-03     7.67234E-03
            2904            3339     7.08152E-03     7.67234E-03
            2903            3339     7.08152E-03     7.67234E-03
            2922            3339     7.08152E-03     7.67234E-03
            2922            3340     5.29529E-03     5.80954E-03
            2904            3340     5.29529E-03     5.80954E-03
            2923            3340     5.29529E-03     5.80954E-03
            2905            3340     5.29529E-03     5.80954E-03
            2905            3341     4.06618E-03     4.25113E-03
            2924            3341     4.06618E-03     4.25113E-03
            2923            3341     4.06618E-03     4.25113E-03
            2906            3341     4.06618E-03     4.25113E-03
            2925            3342     38.8026E-03     39.3179E-03
            2907            3342     38.8026E-03     39.3179E-03
            2926            3342     38.8026E-03     39.3179E-03
            2908            3342     38.8026E-03     39.3179E-03
            2908            3343     36.5946E-03     37.2344E-03
            2927            3343     36.5946E-03     37.2344E-03
            2909            3343     36.5946E-03     37.2344E-03
            2926            3343     36.5946E-03     37.2344E-03
            2928            3344     34.2306E-03     35.0161E-03
            2909            3344     34.2306E-03     35.0161E-03
            2910            3344     34.2306E-03     35.0161E-03
            2927            3344     34.2306E-03     35.0161E-03
            2910            3345     31.8095E-03     32.6356E-03
            2929            3345     31.8095E-03     32.6356E-03
            2911            3345     31.8095E-03     32.6356E-03
            2928            3345     31.8095E-03     32.6356E-03
            2911            3346     29.3678E-03     30.1763E-03
            2930            3346     29.3678E-03     30.1763E-03
            2929            3346     29.3678E-03     30.1763E-03
            2912            3346     29.3678E-03     30.1763E-03
            2931            3347     26.9396E-03     27.7234E-03
            2930            3347     26.9396E-03     27.7234E-03
            2912            3347     26.9396E-03     27.7234E-03
            2913            3347     26.9396E-03     27.7234E-03
            2932            3348     24.5731E-03     25.3084E-03
            2913            3348     24.5731E-03     25.3084E-03
            2914            3348     24.5731E-03     25.3084E-03
            2931            3348     24.5731E-03     25.3084E-03
            2914            3349     22.2359E-03     22.9292E-03
            2933            3349     22.2359E-03     22.9292E-03
            2932            3349     22.2359E-03     22.9292E-03
            2915            3349     22.2359E-03     22.9292E-03
            2915            3350     19.9333E-03     20.5929E-03
            2934            3350     19.9333E-03     20.5929E-03
            2933            3350     19.9333E-03     20.5929E-03
            2916            3350     19.9333E-03     20.5929E-03
            2934            3351     17.6533E-03     18.2902E-03
            2917            3351     17.6533E-03     18.2902E-03
            2935            3351     17.6533E-03     18.2902E-03
            2916            3351     17.6533E-03     18.2902E-03
            2935            3352     15.3939E-03     16.0221E-03
            2917            3352     15.3939E-03     16.0221E-03
            2918            3352     15.3939E-03     16.0221E-03
            2936            3352     15.3939E-03     16.0221E-03
            2936            3353     13.1524E-03     13.7854E-03
            2918            3353     13.1524E-03     13.7854E-03
            2937            3353     13.1524E-03     13.7854E-03
            2919            3353     13.1524E-03     13.7854E-03
            2920            3354     10.9330E-03     11.5834E-03
            2937            3354     10.9330E-03     11.5834E-03
            2938            3354     10.9330E-03     11.5834E-03
            2919            3354     10.9330E-03     11.5834E-03
            2939            3355     8.74755E-03     9.41553E-03
            2920            3355     8.74755E-03     9.41553E-03
            2921            3355     8.74755E-03     9.41553E-03
            2938            3355     8.74755E-03     9.41553E-03
            2940            3356     6.63134E-03     7.29744E-03
            2922            3356     6.63134E-03     7.29744E-03
            2939            3356     6.63134E-03     7.29744E-03
            2921            3356     6.63134E-03     7.29744E-03
            2923            3357     4.67762E-03     5.25820E-03
            2940            3357     4.67762E-03     5.25820E-03
            2922            3357     4.67762E-03     5.25820E-03
            2941            3357     4.67762E-03     5.25820E-03
            2924            3358     3.21249E-03     3.49875E-03
            2941            3358     3.21249E-03     3.49875E-03
            2942            3358     3.21249E-03     3.49875E-03
            2923            3358     3.21249E-03     3.49875E-03
            2926            3359     40.2431E-03     40.7063E-03
            2944            3359     40.2431E-03     40.7063E-03
            2943            3359     40.2431E-03     40.7063E-03
            2925            3359     40.2431E-03     40.7063E-03
            2944            3360     37.5090E-03     38.2415E-03
            2926            3360     37.5090E-03     38.2415E-03
            2945            3360     37.5090E-03     38.2415E-03
            2927            3360     37.5090E-03     38.2415E-03
            2927            3361     34.7120E-03     35.5102E-03
            2945            3361     34.7120E-03     35.5102E-03
            2928            3361     34.7120E-03     35.5102E-03
            2946            3361     34.7120E-03     35.5102E-03
            2947            3362     31.8931E-03     32.7347E-03
            2946            3362     31.8931E-03     32.7347E-03
            2928            3362     31.8931E-03     32.7347E-03
            2929            3362     31.8931E-03     32.7347E-03
            2948            3363     29.1809E-03     30.0676E-03
            2947            3363     29.1809E-03     30.0676E-03
            2929            3363     29.1809E-03     30.0676E-03
            2930            3363     29.1809E-03     30.0676E-03
            2931            3364     26.6706E-03     27.5322E-03
            2949            3364     26.6706E-03     27.5322E-03
            2948            3364     26.6706E-03     27.5322E-03
            2930            3364     26.6706E-03     27.5322E-03
            2950            3365     24.2513E-03     25.0808E-03
            2932            3365     24.2513E-03     25.0808E-03
            2949            3365     24.2513E-03     25.0808E-03
            2931            3365     24.2513E-03     25.0808E-03
            2950            3366     21.9087E-03     22.7062E-03
            2951            3366     21.9087E-03     22.7062E-03
            2933            3366     21.9087E-03     22.7062E-03
            2932            3366     21.9087E-03     22.7062E-03
            2933            3367     19.6109E-03     20.3781E-03
            2934            3367     19.6109E-03     20.3781E-03
            2952            3367     19.6109E-03     20.3781E-03
            2951            3367     19.6109E-03     20.3781E-03
            2934            3368     17.3416E-03     18.0898E-03
            2952            3368     17.3416E-03     18.0898E-03
            2935            3368     17.3416E-03     18.0898E-03
            2953            3368     17.3416E-03     18.0898E-03
            2936            3369     15.0926E-03     15.8274E-03
            2953            3369     15.0926E-03     15.8274E-03
            2935            3369     15.0926E-03     15.8274E-03
            2954            3369     15.0926E-03     15.8274E-03
            2936            3370     12.8568E-03     13.5889E-03
            2937            3370     12.8568E-03     13.5889E-03
            2954            3370     12.8568E-03     13.5889E-03
            2955            3370     12.8568E-03     13.5889E-03
            2938            3371     10.6349E-03     11.3662E-03
            2937            3371     10.6349E-03     11.3662E-03
            2956            3371     10.6349E-03     11.3662E-03
            2955            3371     10.6349E-03     11.3662E-03
            2938            3372     8.42500E-03     9.16827E-03
            2957            3372     8.42500E-03     9.16827E-03
            2939            3372     8.42500E-03     9.16827E-03
            2956            3372     8.42500E-03     9.16827E-03
            2958            3373     6.24623E-03     6.99521E-03
            2940            3373     6.24623E-03     6.99521E-03
            2957            3373     6.24623E-03     6.99521E-03
            2939            3373     6.24623E-03     6.99521E-03
            2940            3374     4.15535E-03     4.85082E-03
            2958            3374     4.15535E-03     4.85082E-03
            2959            3374     4.15535E-03     4.85082E-03
            2941            3374     4.15535E-03     4.85082E-03
            2960            3375     2.43015E-03     2.84649E-03
            2941            3375     2.43015E-03     2.84649E-03
            2942            3375     2.43015E-03     2.84649E-03
            2959            3375     2.43015E-03     2.84649E-03
            2943            3376     41.4817E-03     42.1925E-03
            2944            3376     41.4817E-03     42.1925E-03
            2961            3376     41.4817E-03     42.1925E-03
            2962            3376     41.4817E-03     42.1925E-03
            2962            3377     38.2783E-03     38.9148E-03
            2944            3377     38.2783E-03     38.9148E-03
            2963            3377     38.2783E-03     38.9148E-03
            2945            3377     38.2783E-03     38.9148E-03
            2963            3378     34.7669E-03     35.5274E-03
            2945            3378     34.7669E-03     35.5274E-03
            2964            3378     34.7669E-03     35.5274E-03
            2946            3378     34.7669E-03     35.5274E-03
            2964            3379     31.4883E-03     32.3966E-03
            2965            3379     31.4883E-03     32.3966E-03
            2946            3379     31.4883E-03     32.3966E-03
            2947            3379     31.4883E-03     32.3966E-03
            2965            3380     28.7100E-03     29.6310E-03
            2947            3380     28.7100E-03     29.6310E-03
            2948            3380     28.7100E-03     29.6310E-03
            2966            3380     28.7100E-03     29.6310E-03
            2948            3381     26.1524E-03     27.0641E-03
            2966            3381     26.1524E-03     27.0641E-03
            2949            3381     26.1524E-03     27.0641E-03
            2967            3381     26.1524E-03     27.0641E-03
            2950            3382     23.7502E-03     24.6489E-03
            2967            3382     23.7502E-03     24.6489E-03
            2968            3382     23.7502E-03     24.6489E-03
            2949            3382     23.7502E-03     24.6489E-03
            2968            3383     21.4409E-03     22.3172E-03
            2951            3383     21.4409E-03     22.3172E-03
            2969            3383     21.4409E-03     22.3172E-03
            2950            3383     21.4409E-03     22.3172E-03
            2951            3384     19.1806E-03     20.0433E-03
            2969            3384     19.1806E-03     20.0433E-03
            2952            3384     19.1806E-03     20.0433E-03
            2970            3384     19.1806E-03     20.0433E-03
            2970            3385     16.9541E-03     17.8011E-03
            2971            3385     16.9541E-03     17.8011E-03
            2952            3385     16.9541E-03     17.8011E-03
            2953            3385     16.9541E-03     17.8011E-03
            2972            3386     14.7429E-03     15.5796E-03
            2971            3386     14.7429E-03     15.5796E-03
            2953            3386     14.7429E-03     15.5796E-03
            2954            3386     14.7429E-03     15.5796E-03
            2955            3387     12.5438E-03     13.3678E-03
            2972            3387     12.5438E-03     13.3678E-03
            2973            3387     12.5438E-03     13.3678E-03
            2954            3387     12.5438E-03     13.3678E-03
            2974            3388     10.3493E-03     11.1653E-03
            2955            3388     10.3493E-03     11.1653E-03
            2973            3388     10.3493E-03     11.1653E-03
            2956            3388     10.3493E-03     11.1653E-03
            2975            3389     8.16234E-03     8.96339E-03
            2974            3389     8.16234E-03     8.96339E-03
            2957            3389     8.16234E-03     8.96339E-03
            2956            3389     8.16234E-03     8.96339E-03
            2976            3390     5.96893E-03     6.78308E-03
            2958            3390     5.96893E-03     6.78308E-03
            2975            3390     5.96893E-03     6.78308E-03
            2957            3390     5.96893E-03     6.78308E-03
            2959            3391     3.78884E-03     4.64001E-03
            2976            3391     3.78884E-03     4.64001E-03
            2958            3391     3.78884E-03     4.64001E-03
            2977            3391     3.78884E-03     4.64001E-03
            2978            3392     1.78858E-03     2.46896E-03
            2959            3392     1.78858E-03     2.46896E-03
            2960            3392     1.78858E-03     2.46896E-03
            2977            3392     1.78858E-03     2.46896E-03
            2961            3393     42.8658E-03     43.0236E-03
            2962            3393     42.8658E-03     43.0236E-03
            2979            3393     42.8658E-03     43.0236E-03
            2980            3393     42.8658E-03     43.0236E-03
            2962            3394     38.3259E-03     38.9090E-03
            2980            3394     38.3259E-03     38.9090E-03
            2981            3394     38.3259E-03     38.9090E-03
            2963            3394     38.3259E-03     38.9090E-03
            2981            3395     33.9837E-03     34.8582E-03
            2982            3395     33.9837E-03     34.8582E-03
            2964            3395     33.9837E-03     34.8582E-03
            2963            3395     33.9837E-03     34.8582E-03
            2964            3396     30.7423E-03     31.6603E-03
            2982            3396     30.7423E-03     31.6603E-03
            2983            3396     30.7423E-03     31.6603E-03
            2965            3396     30.7423E-03     31.6603E-03
            2983            3397     27.9742E-03     28.8959E-03
            2984            3397     27.9742E-03     28.8959E-03
            2966            3397     27.9742E-03     28.8959E-03
            2965            3397     27.9742E-03     28.8959E-03
            2966            3398     25.4687E-03     26.4068E-03
            2984            3398     25.4687E-03     26.4068E-03
            2985            3398     25.4687E-03     26.4068E-03
            2967            3398     25.4687E-03     26.4068E-03
            2967            3399     23.1370E-03     24.0761E-03
            2985            3399     23.1370E-03     24.0761E-03
            2986            3399     23.1370E-03     24.0761E-03
            2968            3399     23.1370E-03     24.0761E-03
            2986            3400     20.8870E-03     21.8354E-03
            2987            3400     20.8870E-03     21.8354E-03
            2969            3400     20.8870E-03     21.8354E-03
            2968            3400     20.8870E-03     21.8354E-03
            2969            3401     18.6967E-03     19.6454E-03
            2970            3401     18.6967E-03     19.6454E-03
            2988            3401     18.6967E-03     19.6454E-03
            2987            3401     18.6967E-03     19.6454E-03
            2970            3402     16.5306E-03     17.4798E-03
            2988            3402     16.5306E-03     17.4798E-03
            2971            3402     16.5306E-03     17.4798E-03
            2989            3402     16.5306E-03     17.4798E-03
            2971            3403     14.3841E-03     15.3250E-03
            2990            3403     14.3841E-03     15.3250E-03
            2989            3403     14.3841E-03     15.3250E-03
            2972            3403     14.3841E-03     15.3250E-03
            2973            3404     12.2447E-03     13.1720E-03
            2972            3404     12.2447E-03     13.1720E-03
            2990            3404     12.2447E-03     13.1720E-03
            2991            3404     12.2447E-03     13.1720E-03
            2992            3405     10.1137E-03     11.0155E-03
            2974            3405     10.1137E-03     11.0155E-03
            2973            3405     10.1137E-03     11.0155E-03
            2991            3405     10.1137E-03     11.0155E-03
            2974            3406     7.98632E-03     8.85799E-03
            2992            3406     7.98632E-03     8.85799E-03
            2975            3406     7.98632E-03     8.85799E-03
            2993            3406     7.98632E-03     8.85799E-03
            2975            3407     5.86797E-03     6.69994E-03
            2994            3407     5.86797E-03     6.69994E-03
            2993            3407     5.86797E-03     6.69994E-03
            2976            3407     5.86797E-03     6.69994E-03
            2976            3408     3.73032E-03     4.61110E-03
            2995            3408     3.73032E-03     4.61110E-03
            2994            3408     3.73032E-03     4.61110E-03
            2977            3408     3.73032E-03     4.61110E-03
            2996            3409     1.75235E-03     2.67085E-03
            2978            3409     1.75235E-03     2.67085E-03
            2995            3409     1.75235E-03     2.67085E-03
            2977            3409     1.75235E-03     2.67085E-03
            2979            3410     42.8227E-03     43.4963E-03
            2998            3410     42.8227E-03     43.4963E-03
            2997            3410     42.8227E-03     43.4963E-03
            2980            3410     42.8227E-03     43.4963E-03
            2999            3411     36.8453E-03     37.7701E-03
            2998            3411     36.8453E-03     37.7701E-03
            2981            3411     36.8453E-03     37.7701E-03
            2980            3411     36.8453E-03     37.7701E-03
            2981            3412     32.8108E-03     33.6643E-03
            3000            3412     32.8108E-03     33.6643E-03
            2999            3412     32.8108E-03     33.6643E-03
            2982            3412     32.8108E-03     33.6643E-03
            2982            3413     29.7854E-03     30.6277E-03
            2983            3413     29.7854E-03     30.6277E-03
            3000            3413     29.7854E-03     30.6277E-03
            3001            3413     29.7854E-03     30.6277E-03
            2983            3414     27.1198E-03     28.0024E-03
            3001            3414     27.1198E-03     28.0024E-03
            3002            3414     27.1198E-03     28.0024E-03
            2984            3414     27.1198E-03     28.0024E-03
            3003            3415     24.7405E-03     25.6696E-03
            2984            3415     24.7405E-03     25.6696E-03
            3002            3415     24.7405E-03     25.6696E-03
            2985            3415     24.7405E-03     25.6696E-03
            2986            3416     22.4854E-03     23.4642E-03
            3003            3416     22.4854E-03     23.4642E-03
            3004            3416     22.4854E-03     23.4642E-03
            2985            3416     22.4854E-03     23.4642E-03
            2986            3417     20.3274E-03     21.3453E-03
            3005            3417     20.3274E-03     21.3453E-03
            2987            3417     20.3274E-03     21.3453E-03
            3004            3417     20.3274E-03     21.3453E-03
            2987            3418     18.2115E-03     19.2585E-03
            3005            3418     18.2115E-03     19.2585E-03
            3006            3418     18.2115E-03     19.2585E-03
            2988            3418     18.2115E-03     19.2585E-03
            3006            3419     16.1289E-03     17.1906E-03
            2989            3419     16.1289E-03     17.1906E-03
            3007            3419     16.1289E-03     17.1906E-03
            2988            3419     16.1289E-03     17.1906E-03
            2990            3420     14.0606E-03     15.1235E-03
            2989            3420     14.0606E-03     15.1235E-03
            3008            3420     14.0606E-03     15.1235E-03
            3007            3420     14.0606E-03     15.1235E-03
            3008            3421     12.0086E-03     13.0541E-03
            2991            3421     12.0086E-03     13.0541E-03
            3009            3421     12.0086E-03     13.0541E-03
            2990            3421     12.0086E-03     13.0541E-03
            3010            3422     9.96911E-03     10.9777E-03
            2991            3422     9.96911E-03     10.9777E-03
            2992            3422     9.96911E-03     10.9777E-03
            3009            3422     9.96911E-03     10.9777E-03
            2993            3423     7.95557E-03     8.89924E-03
            3010            3423     7.95557E-03     8.89924E-03
            3011            3423     7.95557E-03     8.89924E-03
            2992            3423     7.95557E-03     8.89924E-03
            3011            3424     5.97855E-03     6.82832E-03
            3012            3424     5.97855E-03     6.82832E-03
            2993            3424     5.97855E-03     6.82832E-03
            2994            3424     5.97855E-03     6.82832E-03
            2995            3425     4.08869E-03     4.82088E-03
            3013            3425     4.08869E-03     4.82088E-03
            2994            3425     4.08869E-03     4.82088E-03
            3012            3425     4.08869E-03     4.82088E-03
            3014            3426     2.41809E-03     3.19242E-03
            2996            3426     2.41809E-03     3.19242E-03
            3013            3426     2.41809E-03     3.19242E-03
            2995            3426     2.41809E-03     3.19242E-03
            3015            3427     42.1279E-03     43.0110E-03
            3016            3427     42.1279E-03     43.0110E-03
            2997            3427     42.1279E-03     43.0110E-03
            2998            3427     42.1279E-03     43.0110E-03
            2998            3428     38.2130E-03     38.3118E-03
            3017            3428     38.2130E-03     38.3118E-03
            3016            3428     38.2130E-03     38.3118E-03
            2999            3428     38.2130E-03     38.3118E-03
            3000            3429     35.5096E-03     35.5445E-03
            3017            3429     35.5096E-03     35.5445E-03
            3018            3429     35.5096E-03     35.5445E-03
            2999            3429     35.5096E-03     35.5445E-03
            3000            3430     32.9798E-03     33.1323E-03
            3019            3430     32.9798E-03     33.1323E-03
            3001            3430     32.9798E-03     33.1323E-03
            3018            3430     32.9798E-03     33.1323E-03
            3001            3431     30.6583E-03     30.9110E-03
            3002            3431     30.6583E-03     30.9110E-03
            3019            3431     30.6583E-03     30.9110E-03
            3020            3431     30.6583E-03     30.9110E-03
            3002            3432     28.3719E-03     28.7649E-03
            3003            3432     28.3719E-03     28.7649E-03
            3020            3432     28.3719E-03     28.7649E-03
            3021            3432     28.3719E-03     28.7649E-03
            3003            3433     26.1437E-03     26.6273E-03
            3022            3433     26.1437E-03     26.6273E-03
            3004            3433     26.1437E-03     26.6273E-03
            3021            3433     26.1437E-03     26.6273E-03
            3004            3434     23.9171E-03     24.4922E-03
            3023            3434     23.9171E-03     24.4922E-03
            3022            3434     23.9171E-03     24.4922E-03
            3005            3434     23.9171E-03     24.4922E-03
            3005            3435     21.7109E-03     22.3388E-03
            3024            3435     21.7109E-03     22.3388E-03
            3006            3435     21.7109E-03     22.3388E-03
            3023            3435     21.7109E-03     22.3388E-03
            3007            3436     19.5073E-03     20.1761E-03
            3024            3436     19.5073E-03     20.1761E-03
            3006            3436     19.5073E-03     20.1761E-03
            3025            3436     19.5073E-03     20.1761E-03
            3007            3437     17.3271E-03     18.0074E-03
            3008            3437     17.3271E-03     18.0074E-03
            3026            3437     17.3271E-03     18.0074E-03
            3025            3437     17.3271E-03     18.0074E-03
            3008            3438     15.1732E-03     15.8440E-03
            3026            3438     15.1732E-03     15.8440E-03
            3009            3438     15.1732E-03     15.8440E-03
            3027            3438     15.1732E-03     15.8440E-03
            3010            3439     13.0772E-03     13.7065E-03
            3028            3439     13.0772E-03     13.7065E-03
            3009            3439     13.0772E-03     13.7065E-03
            3027            3439     13.0772E-03     13.7065E-03
            3029            3440     11.0651E-03     11.6232E-03
            3010            3440     11.0651E-03     11.6232E-03
            3011            3440     11.0651E-03     11.6232E-03
            3028            3440     11.0651E-03     11.6232E-03
            3012            3441     9.19286E-03     9.64113E-03
            3029            3441     9.19286E-03     9.64113E-03
            3030            3441     9.19286E-03     9.64113E-03
            3011            3441     9.19286E-03     9.64113E-03
            3013            3442     7.53069E-03     7.91549E-03
            3012            3442     7.53069E-03     7.91549E-03
            3030            3442     7.53069E-03     7.91549E-03
            3031            3442     7.53069E-03     7.91549E-03
            3013            3443     5.96744E-03     6.81548E-03
            3031            3443     5.96744E-03     6.81548E-03
            3032            3443     5.96744E-03     6.81548E-03
            3014            3443     5.96744E-03     6.81548E-03
            3033            3444     43.8606E-03     43.3954E-03
            3034            3444     43.8606E-03     43.3954E-03
            3016            3444     43.8606E-03     43.3954E-03
            3015            3444     43.8606E-03     43.3954E-03
            3035            3445     41.8483E-03     41.5688E-03
            3016            3445     41.8483E-03     41.5688E-03
            3034            3445     41.8483E-03     41.5688E-03
            3017            3445     41.8483E-03     41.5688E-03
            3017            3446     39.7600E-03     39.4809E-03
            3036            3446     39.7600E-03     39.4809E-03
            3018            3446     39.7600E-03     39.4809E-03
            3035            3446     39.7600E-03     39.4809E-03
            3018            3447     37.6156E-03     37.4119E-03
            3036            3447     37.6156E-03     37.4119E-03
            3019            3447     37.6156E-03     37.4119E-03
            3037            3447     37.6156E-03     37.4119E-03
            3038            3448     35.3407E-03     35.2366E-03
            3037            3448     35.3407E-03     35.2366E-03
            3019            3448     35.3407E-03     35.2366E-03
            3020            3448     35.3407E-03     35.2366E-03
            3038            3449     32.9970E-03     32.9931E-03
            3020            3449     32.9970E-03     32.9931E-03
            3021            3449     32.9970E-03     32.9931E-03
            3039            3449     32.9970E-03     32.9931E-03
            3039            3450     30.5838E-03     30.6706E-03
            3040            3450     30.5838E-03     30.6706E-03
            3021            3450     30.5838E-03     30.6706E-03
            3022            3450     30.5838E-03     30.6706E-03
            3041            3451     28.1338E-03     28.2916E-03
            3023            3451     28.1338E-03     28.2916E-03
            3022            3451     28.1338E-03     28.2916E-03
            3040            3451     28.1338E-03     28.2916E-03
            3042            3452     25.6561E-03     25.8715E-03
            3023            3452     25.6561E-03     25.8715E-03
            3041            3452     25.6561E-03     25.8715E-03
            3024            3452     25.6561E-03     25.8715E-03
            3025            3453     23.1787E-03     23.4285E-03
            3024            3453     23.1787E-03     23.4285E-03
            3042            3453     23.1787E-03     23.4285E-03
            3043            3453     23.1787E-03     23.4285E-03
            3025            3454     20.7140E-03     20.9843E-03
            3043            3454     20.7140E-03     20.9843E-03
            3044            3454     20.7140E-03     20.9843E-03
            3026            3454     20.7140E-03     20.9843E-03
            3027            3455     18.2960E-03     18.5630E-03
            3045            3455     18.2960E-03     18.5630E-03
            3044            3455     18.2960E-03     18.5630E-03
            3026            3455     18.2960E-03     18.5630E-03
            3045            3456     15.9480E-03     16.1991E-03
            3027            3456     15.9480E-03     16.1991E-03
            3046            3456     15.9480E-03     16.1991E-03
            3028            3456     15.9480E-03     16.1991E-03
            3029            3457     13.7275E-03     13.9536E-03
            3028            3457     13.7275E-03     13.9536E-03
            3046            3457     13.7275E-03     13.9536E-03
            3047            3457     13.7275E-03     13.9536E-03
            3030            3458     11.6789E-03     11.9224E-03
            3047            3458     11.6789E-03     11.9224E-03
            3029            3458     11.6789E-03     11.9224E-03
            3048            3458     11.6789E-03     11.9224E-03
            3048            3459     9.86777E-03     10.3772E-03
            3049            3459     9.86777E-03     10.3772E-03
            3031            3459     9.86777E-03     10.3772E-03
            3030            3459     9.86777E-03     10.3772E-03
            3050            3460     8.50649E-03     9.66206E-03
            3031            3460     8.50649E-03     9.66206E-03
            3032            3460     8.50649E-03     9.66206E-03
            3049            3460     8.50649E-03     9.66206E-03
            3034            3461     46.0480E-03     46.2367E-03
            3033            3461     46.0480E-03     46.2367E-03
            3051            3461     46.0480E-03     46.2367E-03
            3052            3461     46.0480E-03     46.2367E-03
            3052            3462     44.0115E-03     44.3902E-03
            3035            3462     44.0115E-03     44.3902E-03
            3034            3462     44.0115E-03     44.3902E-03
            3053            3462     44.0115E-03     44.3902E-03
            3053            3463     41.6539E-03     42.0489E-03
            3054            3463     41.6539E-03     42.0489E-03
            3036            3463     41.6539E-03     42.0489E-03
            3035            3463     41.6539E-03     42.0489E-03
            3036            3464     39.2604E-03     39.5892E-03
            3054            3464     39.2604E-03     39.5892E-03
            3055            3464     39.2604E-03     39.5892E-03
            3037            3464     39.2604E-03     39.5892E-03
            3055            3465     36.7458E-03     37.0427E-03
            3056            3465     36.7458E-03     37.0427E-03
            3038            3465     36.7458E-03     37.0427E-03
            3037            3465     36.7458E-03     37.0427E-03
            3038            3466     34.1428E-03     34.4410E-03
            3056            3466     34.1428E-03     34.4410E-03
            3039            3466     34.1428E-03     34.4410E-03
            3057            3466     34.1428E-03     34.4410E-03
            3058            3467     31.4888E-03     31.7931E-03
            3039            3467     31.4888E-03     31.7931E-03
            3057            3467     31.4888E-03     31.7931E-03
            3040            3467     31.4888E-03     31.7931E-03
            3059            3468     28.7962E-03     29.1210E-03
            3041            3468     28.7962E-03     29.1210E-03
            3058            3468     28.7962E-03     29.1210E-03
            3040            3468     28.7962E-03     29.1210E-03
            3042            3469     26.0960E-03     26.4337E-03
            3059            3469     26.0960E-03     26.4337E-03
            3041            3469     26.0960E-03     26.4337E-03
            3060            3469     26.0960E-03     26.4337E-03
            3043            3470     23.3949E-03     23.7480E-03
            3042            3470     23.3949E-03     23.7480E-03
            3060            3470     23.3949E-03     23.7480E-03
            3061            3470     23.3949E-03     23.7480E-03
            3044            3471     20.7153E-03     21.0764E-03
            3062            3471     20.7153E-03     21.0764E-03
            3061            3471     20.7153E-03     21.0764E-03
            3043            3471     20.7153E-03     21.0764E-03
            3063            3472     18.0686E-03     18.4384E-03
            3062            3472     18.0686E-03     18.4384E-03
            3044            3472     18.0686E-03     18.4384E-03
            3045            3472     18.0686E-03     18.4384E-03
            3064            3473     15.4780E-03     15.8648E-03
            3045            3473     15.4780E-03     15.8648E-03
            3046            3473     15.4780E-03     15.8648E-03
            3063            3473     15.4780E-03     15.8648E-03
            3046            3474     12.9751E-03     13.4101E-03
            3064            3474     12.9751E-03     13.4101E-03
            3047            3474     12.9751E-03     13.4101E-03
            3065            3474     12.9751E-03     13.4101E-03
            3065            3475     10.6006E-03     11.1926E-03
            3047            3475     10.6006E-03     11.1926E-03
            3048            3475     10.6006E-03     11.1926E-03
            3066            3475     10.6006E-03     11.1926E-03
            3066            3476     8.50912E-03     9.45107E-03
            3067            3476     8.50912E-03     9.45107E-03
            3048            3476     8.50912E-03     9.45107E-03
            3049            3476     8.50912E-03     9.45107E-03
            3050            3477     7.28842E-03     8.09627E-03
            3067            3477     7.28842E-03     8.09627E-03
            3068            3477     7.28842E-03     8.09627E-03
            3049            3477     7.28842E-03     8.09627E-03
            3070            3478     47.7042E-03     48.3328E-03
            3052            3478     47.7042E-03     48.3328E-03
            3069            3478     47.7042E-03     48.3328E-03
            3051            3478     47.7042E-03     48.3328E-03
            3053            3479     45.6225E-03     46.3666E-03
            3070            3479     45.6225E-03     46.3666E-03
            3052            3479     45.6225E-03     46.3666E-03
            3071            3479     45.6225E-03     46.3666E-03
            3053            3480     43.2528E-03     43.9869E-03
            3054            3480     43.2528E-03     43.9869E-03
            3071            3480     43.2528E-03     43.9869E-03
            3072            3480     43.2528E-03     43.9869E-03
            3073            3481     40.6169E-03     41.3274E-03
            3055            3481     40.6169E-03     41.3274E-03
            3054            3481     40.6169E-03     41.3274E-03
            3072            3481     40.6169E-03     41.3274E-03
            3055            3482     37.9079E-03     38.5354E-03
            3074            3482     37.9079E-03     38.5354E-03
            3073            3482     37.9079E-03     38.5354E-03
            3056            3482     37.9079E-03     38.5354E-03
            3056            3483     35.0968E-03     35.6657E-03
            3074            3483     35.0968E-03     35.6657E-03
            3075            3483     35.0968E-03     35.6657E-03
            3057            3483     35.0968E-03     35.6657E-03
            3058            3484     32.2389E-03     32.7709E-03
            3076            3484     32.2389E-03     32.7709E-03
            3075            3484     32.2389E-03     32.7709E-03
            3057            3484     32.2389E-03     32.7709E-03
            3076            3485     29.3626E-03     29.8641E-03
            3058            3485     29.3626E-03     29.8641E-03
            3077            3485     29.3626E-03     29.8641E-03
            3059            3485     29.3626E-03     29.8641E-03
            3060            3486     26.4783E-03     26.9685E-03
            3078            3486     26.4783E-03     26.9685E-03
            3059            3486     26.4783E-03     26.9685E-03
            3077            3486     26.4783E-03     26.9685E-03
            3079            3487     23.6073E-03     24.0894E-03
            3061            3487     23.6073E-03     24.0894E-03
            3060            3487     23.6073E-03     24.0894E-03
            3078            3487     23.6073E-03     24.0894E-03
            3079            3488     20.7521E-03     21.2394E-03
            3080            3488     20.7521E-03     21.2394E-03
            3062            3488     20.7521E-03     21.2394E-03
            3061            3488     20.7521E-03     21.2394E-03
            3063            3489     17.9250E-03     18.4288E-03
            3080            3489     17.9250E-03     18.4288E-03
            3062            3489     17.9250E-03     18.4288E-03
            3081            3489     17.9250E-03     18.4288E-03
            3064            3490     15.1357E-03     15.6849E-03
            3063            3490     15.1357E-03     15.6849E-03
            3082            3490     15.1357E-03     15.6849E-03
            3081            3490     15.1357E-03     15.6849E-03
            3083            3491     12.4063E-03     13.0417E-03
            3064            3491     12.4063E-03     13.0417E-03
            3065            3491     12.4063E-03     13.0417E-03
            3082            3491     12.4063E-03     13.0417E-03
            3083            3492     9.78622E-03     10.6085E-03
            3066            3492     9.78622E-03     10.6085E-03
            3065            3492     9.78622E-03     10.6085E-03
            3084            3492     9.78622E-03     10.6085E-03
            3066            3493     7.53580E-03     8.40847E-03
            3085            3493     7.53580E-03     8.40847E-03
            3084            3493     7.53580E-03     8.40847E-03
            3067            3493     7.53580E-03     8.40847E-03
            3086            3494     6.01378E-03     6.51321E-03
            3067            3494     6.01378E-03     6.51321E-03
            3068            3494     6.01378E-03     6.51321E-03
            3085            3494     6.01378E-03     6.51321E-03
            3088            3495     49.2179E-03     49.7716E-03
            3070            3495     49.2179E-03     49.7716E-03
            3087            3495     49.2179E-03     49.7716E-03
            3069            3495     49.2179E-03     49.7716E-03
            3071            3496     46.9241E-03     47.7806E-03
            3089            3496     46.9241E-03     47.7806E-03
            3088            3496     46.9241E-03     47.7806E-03
            3070            3496     46.9241E-03     47.7806E-03
            3071            3497     44.3979E-03     45.3477E-03
            3072            3497     44.3979E-03     45.3477E-03
            3089            3497     44.3979E-03     45.3477E-03
            3090            3497     44.3979E-03     45.3477E-03
            3072            3498     41.6609E-03     42.5699E-03
            3091            3498     41.6609E-03     42.5699E-03
            3090            3498     41.6609E-03     42.5699E-03
            3073            3498     41.6609E-03     42.5699E-03
            3091            3499     38.7421E-03     39.6046E-03
            3073            3499     38.7421E-03     39.6046E-03
            3074            3499     38.7421E-03     39.6046E-03
            3092            3499     38.7421E-03     39.6046E-03
            3093            3500     35.7677E-03     36.5544E-03
            3074            3500     35.7677E-03     36.5544E-03
            3092            3500     35.7677E-03     36.5544E-03
            3075            3500     35.7677E-03     36.5544E-03
            3076            3501     32.7549E-03     33.4745E-03
            3075            3501     32.7549E-03     33.4745E-03
            3094            3501     32.7549E-03     33.4745E-03
            3093            3501     32.7549E-03     33.4745E-03
            3076            3502     29.7342E-03     30.4072E-03
            3077            3502     29.7342E-03     30.4072E-03
            3094            3502     29.7342E-03     30.4072E-03
            3095            3502     29.7342E-03     30.4072E-03
            3077            3503     26.7265E-03     27.3622E-03
            3096            3503     26.7265E-03     27.3622E-03
            3078            3503     26.7265E-03     27.3622E-03
            3095            3503     26.7265E-03     27.3622E-03
            3078            3504     23.7307E-03     24.3500E-03
            3096            3504     23.7307E-03     24.3500E-03
            3097            3504     23.7307E-03     24.3500E-03
            3079            3504     23.7307E-03     24.3500E-03
            3079            3505     20.7555E-03     21.3733E-03
            3098            3505     20.7555E-03     21.3733E-03
            3080            3505     20.7555E-03     21.3733E-03
            3097            3505     20.7555E-03     21.3733E-03
            3080            3506     17.7994E-03     18.4426E-03
            3081            3506     17.7994E-03     18.4426E-03
            3098            3506     17.7994E-03     18.4426E-03
            3099            3506     17.7994E-03     18.4426E-03
            3081            3507     14.8710E-03     15.5637E-03
            3099            3507     14.8710E-03     15.5637E-03
            3082            3507     14.8710E-03     15.5637E-03
            3100            3507     14.8710E-03     15.5637E-03
            3083            3508     11.9771E-03     12.7749E-03
            3100            3508     11.9771E-03     12.7749E-03
            3101            3508     11.9771E-03     12.7749E-03
            3082            3508     11.9771E-03     12.7749E-03
            3084            3509     9.19788E-03     10.0876E-03
            3101            3509     9.19788E-03     10.0876E-03
            3102            3509     9.19788E-03     10.0876E-03
            3083            3509     9.19788E-03     10.0876E-03
            3102            3510     6.67201E-03     7.51537E-03
            3084            3510     6.67201E-03     7.51537E-03
            3103            3510     6.67201E-03     7.51537E-03
            3085            3510     6.67201E-03     7.51537E-03
            3086            3511     4.82383E-03     5.39720E-03
            3104            3511     4.82383E-03     5.39720E-03
            3085            3511     4.82383E-03     5.39720E-03
            3103            3511     4.82383E-03     5.39720E-03
            3106            3512     50.5058E-03     51.1305E-03
            3088            3512     50.5058E-03     51.1305E-03
            3087            3512     50.5058E-03     51.1305E-03
            3105            3512     50.5058E-03     51.1305E-03
            3089            3513     47.9971E-03     48.8713E-03
            3106            3513     47.9971E-03     48.8713E-03
            3088            3513     47.9971E-03     48.8713E-03
            3107            3513     47.9971E-03     48.8713E-03
            3108            3514     45.2673E-03     46.2707E-03
            3090            3514     45.2673E-03     46.2707E-03
            3089            3514     45.2673E-03     46.2707E-03
            3107            3514     45.2673E-03     46.2707E-03
            3091            3515     42.3109E-03     43.3538E-03
            3108            3515     42.3109E-03     43.3538E-03
            3090            3515     42.3109E-03     43.3538E-03
            3109            3515     42.3109E-03     43.3538E-03
            3092            3516     39.2381E-03     40.2371E-03
            3109            3516     39.2381E-03     40.2371E-03
            3110            3516     39.2381E-03     40.2371E-03
            3091            3516     39.2381E-03     40.2371E-03
            3092            3517     36.1099E-03     37.0432E-03
            3093            3517     36.1099E-03     37.0432E-03
            3111            3517     36.1099E-03     37.0432E-03
            3110            3517     36.1099E-03     37.0432E-03
            3112            3518     32.9797E-03     33.8482E-03
            3093            3518     32.9797E-03     33.8482E-03
            3111            3518     32.9797E-03     33.8482E-03
            3094            3518     32.9797E-03     33.8482E-03
            3112            3519     29.8738E-03     30.6812E-03
            3094            3519     29.8738E-03     30.6812E-03
            3095            3519     29.8738E-03     30.6812E-03
            3113            3519     29.8738E-03     30.6812E-03
            3095            3520     26.7869E-03     27.5521E-03
            3114            3520     26.7869E-03     27.5521E-03
            3113            3520     26.7869E-03     27.5521E-03
            3096            3520     26.7869E-03     27.5521E-03
            3096            3521     23.7247E-03     24.4640E-03
            3097            3521     23.7247E-03     24.4640E-03
            3114            3521     23.7247E-03     24.4640E-03
            3115            3521     23.7247E-03     24.4640E-03
            3115            3522     20.6799E-03     21.4164E-03
            3097            3522     20.6799E-03     21.4164E-03
            3098            3522     20.6799E-03     21.4164E-03
            3116            3522     20.6799E-03     21.4164E-03
            3117            3523     17.6524E-03     18.4097E-03
            3099            3523     17.6524E-03     18.4097E-03
            3098            3523     17.6524E-03     18.4097E-03
            3116            3523     17.6524E-03     18.4097E-03
            3118            3524     14.6385E-03     15.4520E-03
            3117            3524     14.6385E-03     15.4520E-03
            3100            3524     14.6385E-03     15.4520E-03
            3099            3524     14.6385E-03     15.4520E-03
            3119            3525     11.6566E-03     12.5412E-03
            3101            3525     11.6566E-03     12.5412E-03
            3100            3525     11.6566E-03     12.5412E-03
            3118            3525     11.6566E-03     12.5412E-03
            3101            3526     8.73117E-03     9.67439E-03
            3120            3526     8.73117E-03     9.67439E-03
            3102            3526     8.73117E-03     9.67439E-03
            3119            3526     8.73117E-03     9.67439E-03
            3121            3527     5.96338E-03     6.91308E-03
            3103            3527     5.96338E-03     6.91308E-03
            3102            3527     5.96338E-03     6.91308E-03
            3120            3527     5.96338E-03     6.91308E-03
            3121            3528     3.76982E-03     4.37580E-03
            3122            3528     3.76982E-03     4.37580E-03
            3103            3528     3.76982E-03     4.37580E-03
            3104            3528     3.76982E-03     4.37580E-03
            3124            3529     51.6558E-03     52.3429E-03
            3105            3529     51.6558E-03     52.3429E-03
            3106            3529     51.6558E-03     52.3429E-03
            3123            3529     51.6558E-03     52.3429E-03
            3124            3530     48.8918E-03     49.7626E-03
            3106            3530     48.8918E-03     49.7626E-03
            3125            3530     48.8918E-03     49.7626E-03
            3107            3530     48.8918E-03     49.7626E-03
            3107            3531     45.8302E-03     46.8754E-03
            3108            3531     45.8302E-03     46.8754E-03
            3125            3531     45.8302E-03     46.8754E-03
            3126            3531     45.8302E-03     46.8754E-03
            3109            3532     42.6192E-03     43.7133E-03
            3108            3532     42.6192E-03     43.7133E-03
            3126            3532     42.6192E-03     43.7133E-03
            3127            3532     42.6192E-03     43.7133E-03
            3127            3533     39.3529E-03     40.4202E-03
            3109            3533     39.3529E-03     40.4202E-03
            3110            3533     39.3529E-03     40.4202E-03
            3128            3533     39.3529E-03     40.4202E-03
            3111            3534     36.0948E-03     37.1224E-03
            3110            3534     36.0948E-03     37.1224E-03
            3129            3534     36.0948E-03     37.1224E-03
            3128            3534     36.0948E-03     37.1224E-03
            3112            3535     32.9064E-03     33.8701E-03
            3129            3535     32.9064E-03     33.8701E-03
            3111            3535     32.9064E-03     33.8701E-03
            3130            3535     32.9064E-03     33.8701E-03
            3131            3536     29.7583E-03     30.6653E-03
            3112            3536     29.7583E-03     30.6653E-03
            3130            3536     29.7583E-03     30.6653E-03
            3113            3536     29.7583E-03     30.6653E-03
            3131            3537     26.6514E-03     27.5147E-03
            3113            3537     26.6514E-03     27.5147E-03
            3114            3537     26.6514E-03     27.5147E-03
            3132            3537     26.6514E-03     27.5147E-03
            3115            3538     23.5712E-03     24.4066E-03
            3132            3538     23.5712E-03     24.4066E-03
            3133            3538     23.5712E-03     24.4066E-03
            3114            3538     23.5712E-03     24.4066E-03
            3134            3539     20.5110E-03     21.3395E-03
            3116            3539     20.5110E-03     21.3395E-03
            3115            3539     20.5110E-03     21.3395E-03
            3133            3539     20.5110E-03     21.3395E-03
            3116            3540     17.4633E-03     18.3072E-03
            3134            3540     17.4633E-03     18.3072E-03
            3135            3540     17.4633E-03     18.3072E-03
            3117            3540     17.4633E-03     18.3072E-03
            3135            3541     14.4241E-03     15.3115E-03
            3118            3541     14.4241E-03     15.3115E-03
            3136            3541     14.4241E-03     15.3115E-03
            3117            3541     14.4241E-03     15.3115E-03
            3136            3542     11.3965E-03     12.3444E-03
            3118            3542     11.3965E-03     12.3444E-03
            3119            3542     11.3965E-03     12.3444E-03
            3137            3542     11.3965E-03     12.3444E-03
            3120            3543     8.39226E-03     9.40252E-03
            3137            3543     8.39226E-03     9.40252E-03
            3138            3543     8.39226E-03     9.40252E-03
            3119            3543     8.39226E-03     9.40252E-03
            3138            3544     5.44702E-03     6.48814E-03
            3139            3544     5.44702E-03     6.48814E-03
            3121            3544     5.44702E-03     6.48814E-03
            3120            3544     5.44702E-03     6.48814E-03
            3122            3545     2.82589E-03     3.68231E-03
            3121            3545     2.82589E-03     3.68231E-03
            3140            3545     2.82589E-03     3.68231E-03
            3139            3545     2.82589E-03     3.68231E-03
            3141            3546     52.7687E-03     53.3871E-03
            3142            3546     52.7687E-03     53.3871E-03
            3123            3546     52.7687E-03     53.3871E-03
            3124            3546     52.7687E-03     53.3871E-03
            3125            3547     49.5262E-03     50.4851E-03
            3142            3547     49.5262E-03     50.4851E-03
            3124            3547     49.5262E-03     50.4851E-03
            3143            3547     49.5262E-03     50.4851E-03
            3143            3548     46.0794E-03     47.1217E-03
            3144            3548     46.0794E-03     47.1217E-03
            3125            3548     46.0794E-03     47.1217E-03
            3126            3548     46.0794E-03     47.1217E-03
            3126            3549     42.5267E-03     43.6016E-03
            3127            3549     42.5267E-03     43.6016E-03
            3145            3549     42.5267E-03     43.6016E-03
            3144            3549     42.5267E-03     43.6016E-03
            3128            3550     39.0365E-03     40.1449E-03
            3146            3550     39.0365E-03     40.1449E-03
            3127            3550     39.0365E-03     40.1449E-03
            3145            3550     39.0365E-03     40.1449E-03
            3129            3551     35.7423E-03     36.8057E-03
            3128            3551     35.7423E-03     36.8057E-03
            3146            3551     35.7423E-03     36.8057E-03
            3147            3551     35.7423E-03     36.8057E-03
            3129            3552     32.5358E-03     33.5503E-03
            3130            3552     32.5358E-03     33.5503E-03
            3147            3552     32.5358E-03     33.5503E-03
            3148            3552     32.5358E-03     33.5503E-03
            3131            3553     29.4088E-03     30.3790E-03
            3130            3553     29.4088E-03     30.3790E-03
            3148            3553     29.4088E-03     30.3790E-03
            3149            3553     29.4088E-03     30.3790E-03
            3149            3554     26.3305E-03     27.2609E-03
            3131            3554     26.3305E-03     27.2609E-03
            3150            3554     26.3305E-03     27.2609E-03
            3132            3554     26.3305E-03     27.2609E-03
            3150            3555     23.2823E-03     24.1899E-03
            3151            3555     23.2823E-03     24.1899E-03
            3133            3555     23.2823E-03     24.1899E-03
            3132            3555     23.2823E-03     24.1899E-03
            3134            3556     20.2547E-03     21.1502E-03
            3152            3556     20.2547E-03     21.1502E-03
            3151            3556     20.2547E-03     21.1502E-03
            3133            3556     20.2547E-03     21.1502E-03
            3152            3557     17.2367E-03     18.1406E-03
            3153            3557     17.2367E-03     18.1406E-03
            3135            3557     17.2367E-03     18.1406E-03
            3134            3557     17.2367E-03     18.1406E-03
            3153            3558     14.2252E-03     15.1502E-03
            3135            3558     14.2252E-03     15.1502E-03
            3136            3558     14.2252E-03     15.1502E-03
            3154            3558     14.2252E-03     15.1502E-03
            3155            3559     11.2065E-03     12.1932E-03
            3137            3559     11.2065E-03     12.1932E-03
            3136            3559     11.2065E-03     12.1932E-03
            3154            3559     11.2065E-03     12.1932E-03
            3155            3560     8.19261E-03     9.26114E-03
            3137            3560     8.19261E-03     9.26114E-03
            3156            3560     8.19261E-03     9.26114E-03
            3138            3560     8.19261E-03     9.26114E-03
            3156            3561     5.19734E-03     6.31293E-03
            3157            3561     5.19734E-03     6.31293E-03
            3138            3561     5.19734E-03     6.31293E-03
            3139            3561     5.19734E-03     6.31293E-03
            3157            3562     2.31293E-03     3.43945E-03
            3140            3562     2.31293E-03     3.43945E-03
            3158            3562     2.31293E-03     3.43945E-03
            3139            3562     2.31293E-03     3.43945E-03
            3142            3563     53.6204E-03     54.5079E-03
            3159            3563     53.6204E-03     54.5079E-03
            3141            3563     53.6204E-03     54.5079E-03
            3160            3563     53.6204E-03     54.5079E-03
            3142            3564     49.9535E-03     50.7860E-03
            3160            3564     49.9535E-03     50.7860E-03
            3143            3564     49.9535E-03     50.7860E-03
            3161            3564     49.9535E-03     50.7860E-03
            3162            3565     45.8254E-03     46.7767E-03
            3143            3565     45.8254E-03     46.7767E-03
            3161            3565     45.8254E-03     46.7767E-03
            3144            3565     45.8254E-03     46.7767E-03
            3144            3566     41.8479E-03     42.9387E-03
            3162            3566     41.8479E-03     42.9387E-03
            3163            3566     41.8479E-03     42.9387E-03
            3145            3566     41.8479E-03     42.9387E-03
            3146            3567     38.3559E-03     39.4354E-03
            3163            3567     38.3559E-03     39.4354E-03
            3164            3567     38.3559E-03     39.4354E-03
            3145            3567     38.3559E-03     39.4354E-03
            3147            3568     35.0635E-03     36.1177E-03
            3165            3568     35.0635E-03     36.1177E-03
            3146            3568     35.0635E-03     36.1177E-03
            3164            3568     35.0635E-03     36.1177E-03
            3166            3569     31.9206E-03     32.9501E-03
            3147            3569     31.9206E-03     32.9501E-03
            3165            3569     31.9206E-03     32.9501E-03
            3148            3569     31.9206E-03     32.9501E-03
            3148            3570     28.8675E-03     29.8654E-03
            3167            3570     28.8675E-03     29.8654E-03
            3166            3570     28.8675E-03     29.8654E-03
            3149            3570     28.8675E-03     29.8654E-03
            3167            3571     25.8623E-03     26.8422E-03
            3168            3571     25.8623E-03     26.8422E-03
            3149            3571     25.8623E-03     26.8422E-03
            3150            3571     25.8623E-03     26.8422E-03
            3168            3572     22.8924E-03     23.8535E-03
            3169            3572     22.8924E-03     23.8535E-03
            3150            3572     22.8924E-03     23.8535E-03
            3151            3572     22.8924E-03     23.8535E-03
            3151            3573     19.9385E-03     20.8905E-03
            3170            3573     19.9385E-03     20.8905E-03
            3169            3573     19.9385E-03     20.8905E-03
            3152            3573     19.9385E-03     20.8905E-03
            3153            3574     16.9977E-03     17.9423E-03
            3171            3574     16.9977E-03     17.9423E-03
            3170            3574     16.9977E-03     17.9423E-03
            3152            3574     16.9977E-03     17.9423E-03
            3153            3575     14.0606E-03     15.0139E-03
            3171            3575     14.0606E-03     15.0139E-03
            3172            3575     14.0606E-03     15.0139E-03
            3154            3575     14.0606E-03     15.0139E-03
            3154            3576     11.1288E-03     12.1007E-03
            3172            3576     11.1288E-03     12.1007E-03
            3173            3576     11.1288E-03     12.1007E-03
            3155            3576     11.1288E-03     12.1007E-03
            3173            3577     8.17997E-03     9.25131E-03
            3155            3577     8.17997E-03     9.25131E-03
            3156            3577     8.17997E-03     9.25131E-03
            3174            3577     8.17997E-03     9.25131E-03
            3174            3578     5.27473E-03     6.48365E-03
            3156            3578     5.27473E-03     6.48365E-03
            3175            3578     5.27473E-03     6.48365E-03
            3157            3578     5.27473E-03     6.48365E-03
            3157            3579     2.63248E-03     3.73546E-03
            3158            3579     2.63248E-03     3.73546E-03
            3175            3579     2.63248E-03     3.73546E-03
            3176            3579     2.63248E-03     3.73546E-03
            3178            3580     54.5749E-03     54.7972E-03
            3177            3580     54.5749E-03     54.7972E-03
            3159            3580     54.5749E-03     54.7972E-03
            3160            3580     54.5749E-03     54.7972E-03
            3160            3581     49.5743E-03     50.2617E-03
            3178            3581     49.5743E-03     50.2617E-03
            3161            3581     49.5743E-03     50.2617E-03
            3179            3581     49.5743E-03     50.2617E-03
            3161            3582     44.6232E-03     45.6022E-03
            3162            3582     44.6232E-03     45.6022E-03
            3180            3582     44.6232E-03     45.6022E-03
            3179            3582     44.6232E-03     45.6022E-03
            3162            3583     40.7586E-03     41.7591E-03
            3180            3583     40.7586E-03     41.7591E-03
            3181            3583     40.7586E-03     41.7591E-03
            3163            3583     40.7586E-03     41.7591E-03
            3164            3584     37.3365E-03     38.3295E-03
            3181            3584     37.3365E-03     38.3295E-03
            3182            3584     37.3365E-03     38.3295E-03
            3163            3584     37.3365E-03     38.3295E-03
            3182            3585     34.1582E-03     35.1642E-03
            3183            3585     34.1582E-03     35.1642E-03
            3164            3585     34.1582E-03     35.1642E-03
            3165            3585     34.1582E-03     35.1642E-03
            3165            3586     31.1419E-03     32.1472E-03
            3166            3586     31.1419E-03     32.1472E-03
            3184            3586     31.1419E-03     32.1472E-03
            3183            3586     31.1419E-03     32.1472E-03
            3167            3587     28.1989E-03     29.2156E-03
            3166            3587     28.1989E-03     29.2156E-03
            3184            3587     28.1989E-03     29.2156E-03
            3185            3587     28.1989E-03     29.2156E-03
            3168            3588     25.3134E-03     26.3306E-03
            3167            3588     25.3134E-03     26.3306E-03
            3185            3588     25.3134E-03     26.3306E-03
            3186            3588     25.3134E-03     26.3306E-03
            3187            3589     22.4515E-03     23.4698E-03
            3169            3589     22.4515E-03     23.4698E-03
            3186            3589     22.4515E-03     23.4698E-03
            3168            3589     22.4515E-03     23.4698E-03
            3188            3590     19.6126E-03     20.6216E-03
            3187            3590     19.6126E-03     20.6216E-03
            3169            3590     19.6126E-03     20.6216E-03
            3170            3590     19.6126E-03     20.6216E-03
            3188            3591     16.7867E-03     17.7812E-03
            3170            3591     16.7867E-03     17.7812E-03
            3189            3591     16.7867E-03     17.7812E-03
            3171            3591     16.7867E-03     17.7812E-03
            3189            3592     13.9795E-03     14.9497E-03
            3190            3592     13.9795E-03     14.9497E-03
            3172            3592     13.9795E-03     14.9497E-03
            3171            3592     13.9795E-03     14.9497E-03
            3190            3593     11.1928E-03     12.1438E-03
            3191            3593     11.1928E-03     12.1438E-03
            3172            3593     11.1928E-03     12.1438E-03
            3173            3593     11.1928E-03     12.1438E-03
            3174            3594     8.44209E-03     9.39874E-03
            3173            3594     8.44209E-03     9.39874E-03
            3191            3594     8.44209E-03     9.39874E-03
            3192            3594     8.44209E-03     9.39874E-03
            3174            3595     5.74815E-03     6.89147E-03
            3175            3595     5.74815E-03     6.89147E-03
            3193            3595     5.74815E-03     6.89147E-03
            3192            3595     5.74815E-03     6.89147E-03
            3194            3596     3.63252E-03     4.73694E-03
            3175            3596     3.63252E-03     4.73694E-03
            3176            3596     3.63252E-03     4.73694E-03
            3193            3596     3.63252E-03     4.73694E-03
            3178            3597     53.9700E-03     54.5319E-03
            3195            3597     53.9700E-03     54.5319E-03
            3177            3597     53.9700E-03     54.5319E-03
            3196            3597     53.9700E-03     54.5319E-03
            3179            3598     47.5332E-03     48.3888E-03
            3197            3598     47.5332E-03     48.3888E-03
            3178            3598     47.5332E-03     48.3888E-03
            3196            3598     47.5332E-03     48.3888E-03
            3198            3599     42.9724E-03     43.7533E-03
            3180            3599     42.9724E-03     43.7533E-03
            3179            3599     42.9724E-03     43.7533E-03
            3197            3599     42.9724E-03     43.7533E-03
            3181            3600     39.3992E-03     40.1843E-03
            3198            3600     39.3992E-03     40.1843E-03
            3199            3600     39.3992E-03     40.1843E-03
            3180            3600     39.3992E-03     40.1843E-03
            3199            3601     36.1496E-03     36.9965E-03
            3182            3601     36.1496E-03     36.9965E-03
            3200            3601     36.1496E-03     36.9965E-03
            3181            3601     36.1496E-03     36.9965E-03
            3201            3602     33.1678E-03     34.0821E-03
            3200            3602     33.1678E-03     34.0821E-03
            3183            3602     33.1678E-03     34.0821E-03
            3182            3602     33.1678E-03     34.0821E-03
            3202            3603     30.2924E-03     31.2750E-03
            3184            3603     30.2924E-03     31.2750E-03
            3183            3603     30.2924E-03     31.2750E-03
            3201            3603     30.2924E-03     31.2750E-03
            3202            3604     27.5053E-03     28.5399E-03
            3203            3604     27.5053E-03     28.5399E-03
            3185            3604     27.5053E-03     28.5399E-03
            3184            3604     27.5053E-03     28.5399E-03
            3185            3605     24.7538E-03     25.8271E-03
            3204            3605     24.7538E-03     25.8271E-03
            3203            3605     24.7538E-03     25.8271E-03
            3186            3605     24.7538E-03     25.8271E-03
            3186            3606     22.0366E-03     23.1273E-03
            3187            3606     22.0366E-03     23.1273E-03
            3205            3606     22.0366E-03     23.1273E-03
            3204            3606     22.0366E-03     23.1273E-03
            3188            3607     19.3376E-03     20.4279E-03
            3187            3607     19.3376E-03     20.4279E-03
            3206            3607     19.3376E-03     20.4279E-03
            3205            3607     19.3376E-03     20.4279E-03
            3189            3608     16.6682E-03     17.7319E-03
            3206            3608     16.6682E-03     17.7319E-03
            3188            3608     16.6682E-03     17.7319E-03
            3207            3608     16.6682E-03     17.7319E-03
            3208            3609     14.0322E-03     15.0435E-03
            3189            3609     14.0322E-03     15.0435E-03
            3190            3609     14.0322E-03     15.0435E-03
            3207            3609     14.0322E-03     15.0435E-03
            3209            3610     11.4623E-03     12.3863E-03
            3208            3610     11.4623E-03     12.3863E-03
            3191            3610     11.4623E-03     12.3863E-03
            3190            3610     11.4623E-03     12.3863E-03
            3191            3611     8.99163E-03     9.80487E-03
            3192            3611     8.99163E-03     9.80487E-03
            3209            3611     8.99163E-03     9.80487E-03
            3210            3611     8.99163E-03     9.80487E-03
            3210            3612     6.71292E-03     7.47285E-03
            3193            3612     6.71292E-03     7.47285E-03
            3211            3612     6.71292E-03     7.47285E-03
            3192            3612     6.71292E-03     7.47285E-03
            3193            3613     4.87600E-03     5.88200E-03
            3212            3613     4.87600E-03     5.88200E-03
            3211            3613     4.87600E-03     5.88200E-03
            3194            3613     4.87600E-03     5.88200E-03
            3196            3614     52.9171E-03     53.9793E-03
            3195            3614     52.9171E-03     53.9793E-03
            3214            3614     52.9171E-03     53.9793E-03
            3213            3614     52.9171E-03     53.9793E-03
            3197            3615     48.1571E-03     48.2586E-03
            3215            3615     48.1571E-03     48.2586E-03
            3214            3615     48.1571E-03     48.2586E-03
            3196            3615     48.1571E-03     48.2586E-03
            3197            3616     44.8112E-03     44.8497E-03
            3216            3616     44.8112E-03     44.8497E-03
            3215            3616     44.8112E-03     44.8497E-03
            3198            3616     44.8112E-03     44.8497E-03
            3198            3617     41.6455E-03     41.8448E-03
            3199            3617     41.6455E-03     41.8448E-03
            3217            3617     41.6455E-03     41.8448E-03
            3216            3617     41.6455E-03     41.8448E-03
            3200            3618     38.7275E-03     39.0558E-03
            3217            3618     38.7275E-03     39.0558E-03
            3199            3618     38.7275E-03     39.0558E-03
            3218            3618     38.7275E-03     39.0558E-03
            3218            3619     35.8288E-03     36.3340E-03
            3219            3619     35.8288E-03     36.3340E-03
            3200            3619     35.8288E-03     36.3340E-03
            3201            3619     35.8288E-03     36.3340E-03
            3202            3620     33.0032E-03     33.6186E-03
            3220            3620     33.0032E-03     33.6186E-03
            3219            3620     33.0032E-03     33.6186E-03
            3201            3620     33.0032E-03     33.6186E-03
            3221            3621     30.1675E-03     30.8919E-03
            3202            3621     30.1675E-03     30.8919E-03
            3220            3621     30.1675E-03     30.8919E-03
            3203            3621     30.1675E-03     30.8919E-03
            3204            3622     27.3573E-03     28.1422E-03
            3203            3622     27.3573E-03     28.1422E-03
            3222            3622     27.3573E-03     28.1422E-03
            3221            3622     27.3573E-03     28.1422E-03
            3222            3623     24.5454E-03     25.3761E-03
            3204            3623     24.5454E-03     25.3761E-03
            3205            3623     24.5454E-03     25.3761E-03
            3223            3623     24.5454E-03     25.3761E-03
            3224            3624     21.7596E-03     22.5999E-03
            3223            3624     21.7596E-03     22.5999E-03
            3205            3624     21.7596E-03     22.5999E-03
            3206            3624     21.7596E-03     22.5999E-03
            3224            3625     19.0059E-03     19.8294E-03
            3207            3625     19.0059E-03     19.8294E-03
            3225            3625     19.0059E-03     19.8294E-03
            3206            3625     19.0059E-03     19.8294E-03
            3225            3626     16.3208E-03     17.0851E-03
            3226            3626     16.3208E-03     17.0851E-03
            3208            3626     16.3208E-03     17.0851E-03
            3207            3626     16.3208E-03     17.0851E-03
            3208            3627     13.7494E-03     14.4103E-03
            3226            3627     13.7494E-03     14.4103E-03
            3227            3627     13.7494E-03     14.4103E-03
            3209            3627     13.7494E-03     14.4103E-03
            3227            3628     11.3684E-03     11.8636E-03
            3210            3628     11.3684E-03     11.8636E-03
            3209            3628     11.3684E-03     11.8636E-03
            3228            3628     11.3684E-03     11.8636E-03
            3210            3629     9.29467E-03     9.67670E-03
            3228            3629     9.29467E-03     9.67670E-03
            3229            3629     9.29467E-03     9.67670E-03
            3211            3629     9.29467E-03     9.67670E-03
            3212            3630     7.39613E-03     8.36240E-03
            3211            3630     7.39613E-03     8.36240E-03
            3230            3630     7.39613E-03     8.36240E-03
            3229            3630     7.39613E-03     8.36240E-03
            3214            3631     54.9208E-03     54.5977E-03
            3213            3631     54.9208E-03     54.5977E-03
            3232            3631     54.9208E-03     54.5977E-03
            3231            3631     54.9208E-03     54.5977E-03
            3214            3632     51.6141E-03     51.5533E-03
            3233            3632     51.6141E-03     51.5533E-03
            3232            3632     51.6141E-03     51.5533E-03
            3215            3632     51.6141E-03     51.5533E-03
            3215            3633     48.5703E-03     48.5289E-03
            3216            3633     48.5703E-03     48.5289E-03
            3233            3633     48.5703E-03     48.5289E-03
            3234            3633     48.5703E-03     48.5289E-03
            3235            3634     45.6746E-03     45.7063E-03
            3217            3634     45.6746E-03     45.7063E-03
            3234            3634     45.6746E-03     45.7063E-03
            3216            3634     45.6746E-03     45.7063E-03
            3217            3635     42.6850E-03     42.8454E-03
            3235            3635     42.6850E-03     42.8454E-03
            3236            3635     42.6850E-03     42.8454E-03
            3218            3635     42.6850E-03     42.8454E-03
            3218            3636     39.6889E-03     39.9593E-03
            3236            3636     39.6889E-03     39.9593E-03
            3219            3636     39.6889E-03     39.9593E-03
            3237            3636     39.6889E-03     39.9593E-03
            3238            3637     36.6326E-03     37.0047E-03
            3219            3637     36.6326E-03     37.0047E-03
            3237            3637     36.6326E-03     37.0047E-03
            3220            3637     36.6326E-03     37.0047E-03
            3220            3638     33.5580E-03     34.0103E-03
            3238            3638     33.5580E-03     34.0103E-03
            3221            3638     33.5580E-03     34.0103E-03
            3239            3638     33.5580E-03     34.0103E-03
            3240            3639     30.4612E-03     30.9709E-03
            3222            3639     30.4612E-03     30.9709E-03
            3239            3639     30.4612E-03     30.9709E-03
            3221            3639     30.4612E-03     30.9709E-03
            3223            3640     27.3644E-03     27.9138E-03
            3241            3640     27.3644E-03     27.9138E-03
            3222            3640     27.3644E-03     27.9138E-03
            3240            3640     27.3644E-03     27.9138E-03
            3241            3641     24.2809E-03     24.8468E-03
            3242            3641     24.2809E-03     24.8468E-03
            3224            3641     24.2809E-03     24.8468E-03
            3223            3641     24.2809E-03     24.8468E-03
            3242            3642     21.2358E-03     21.7980E-03
            3243            3642     21.2358E-03     21.7980E-03
            3224            3642     21.2358E-03     21.7980E-03
            3225            3642     21.2358E-03     21.7980E-03
            3244            3643     18.2594E-03     18.7925E-03
            3225            3643     18.2594E-03     18.7925E-03
            3243            3643     18.2594E-03     18.7925E-03
            3226            3643     18.2594E-03     18.7925E-03
            3226            3644     15.4040E-03     15.8882E-03
            3244            3644     15.4040E-03     15.8882E-03
            3227            3644     15.4040E-03     15.8882E-03
            3245            3644     15.4040E-03     15.8882E-03
            3245            3645     12.7333E-03     13.1884E-03
            3228            3645     12.7333E-03     13.1884E-03
            3227            3645     12.7333E-03     13.1884E-03
            3246            3645     12.7333E-03     13.1884E-03
            3247            3646     10.3484E-03     10.9796E-03
            3228            3646     10.3484E-03     10.9796E-03
            3229            3646     10.3484E-03     10.9796E-03
            3246            3646     10.3484E-03     10.9796E-03
            3247            3647     8.52128E-03     9.77667E-03
            3230            3647     8.52128E-03     9.77667E-03
            3229            3647     8.52128E-03     9.77667E-03
            3248            3647     8.52128E-03     9.77667E-03
            3232            3648     57.1477E-03     57.4076E-03
            3249            3648     57.1477E-03     57.4076E-03
            3250            3648     57.1477E-03     57.4076E-03
            3231            3648     57.1477E-03     57.4076E-03
            3251            3649     54.1240E-03     54.7040E-03
            3250            3649     54.1240E-03     54.7040E-03
            3232            3649     54.1240E-03     54.7040E-03
            3233            3649     54.1240E-03     54.7040E-03
            3251            3650     50.7319E-03     51.3791E-03
            3233            3650     50.7319E-03     51.3791E-03
            3234            3650     50.7319E-03     51.3791E-03
            3252            3650     50.7319E-03     51.3791E-03
            3252            3651     47.4876E-03     48.0994E-03
            3235            3651     47.4876E-03     48.0994E-03
            3253            3651     47.4876E-03     48.0994E-03
            3234            3651     47.4876E-03     48.0994E-03
            3253            3652     44.2293E-03     44.7973E-03
            3236            3652     44.2293E-03     44.7973E-03
            3235            3652     44.2293E-03     44.7973E-03
            3254            3652     44.2293E-03     44.7973E-03
            3236            3653     40.9215E-03     41.4944E-03
            3254            3653     40.9215E-03     41.4944E-03
            3255            3653     40.9215E-03     41.4944E-03
            3237            3653     40.9215E-03     41.4944E-03
            3237            3654     37.6022E-03     38.1811E-03
            3238            3654     37.6022E-03     38.1811E-03
            3255            3654     37.6022E-03     38.1811E-03
            3256            3654     37.6022E-03     38.1811E-03
            3256            3655     34.2665E-03     34.8610E-03
            3238            3655     34.2665E-03     34.8610E-03
            3257            3655     34.2665E-03     34.8610E-03
            3239            3655     34.2665E-03     34.8610E-03
            3240            3656     30.9325E-03     31.5430E-03
            3257            3656     30.9325E-03     31.5430E-03
            3258            3656     30.9325E-03     31.5430E-03
            3239            3656     30.9325E-03     31.5430E-03
            3258            3657     27.6079E-03     28.2289E-03
            3240            3657     27.6079E-03     28.2289E-03
            3241            3657     27.6079E-03     28.2289E-03
            3259            3657     27.6079E-03     28.2289E-03
            3241            3658     24.3005E-03     24.9306E-03
            3242            3658     24.3005E-03     24.9306E-03
            3259            3658     24.3005E-03     24.9306E-03
            3260            3658     24.3005E-03     24.9306E-03
            3243            3659     21.0248E-03     21.6564E-03
            3261            3659     21.0248E-03     21.6564E-03
            3242            3659     21.0248E-03     21.6564E-03
            3260            3659     21.0248E-03     21.6564E-03
            3243            3660     17.7909E-03     18.4337E-03
            3244            3660     17.7909E-03     18.4337E-03
            3262            3660     17.7909E-03     18.4337E-03
            3261            3660     17.7909E-03     18.4337E-03
            3263            3661     14.6339E-03     15.3057E-03
            3245            3661     14.6339E-03     15.3057E-03
            3262            3661     14.6339E-03     15.3057E-03
            3244            3661     14.6339E-03     15.3057E-03
            3245            3662     11.5835E-03     12.3794E-03
            3263            3662     11.5835E-03     12.3794E-03
            3246            3662     11.5835E-03     12.3794E-03
            3264            3662     11.5835E-03     12.3794E-03
            3246            3663     8.78765E-03     9.94386E-03
            3264            3663     8.78765E-03     9.94386E-03
            3265            3663     8.78765E-03     9.94386E-03
            3247            3663     8.78765E-03     9.94386E-03
            3265            3664     6.97706E-03     7.99766E-03
            3247            3664     6.97706E-03     7.99766E-03
            3248            3664     6.97706E-03     7.99766E-03
            3266            3664     6.97706E-03     7.99766E-03
            3249            3665     58.5033E-03     59.3785E-03
            3268            3665     58.5033E-03     59.3785E-03
            3267            3665     58.5033E-03     59.3785E-03
            3250            3665     58.5033E-03     59.3785E-03
            3250            3666     55.7299E-03     56.6798E-03
            3268            3666     55.7299E-03     56.6798E-03
            3251            3666     55.7299E-03     56.6798E-03
            3269            3666     55.7299E-03     56.6798E-03
            3269            3667     52.4439E-03     53.4531E-03
            3270            3667     52.4439E-03     53.4531E-03
            3252            3667     52.4439E-03     53.4531E-03
            3251            3667     52.4439E-03     53.4531E-03
            3270            3668     48.9430E-03     49.9317E-03
            3271            3668     48.9430E-03     49.9317E-03
            3253            3668     48.9430E-03     49.9317E-03
            3252            3668     48.9430E-03     49.9317E-03
            3271            3669     45.4471E-03     46.3544E-03
            3254            3669     45.4471E-03     46.3544E-03
            3272            3669     45.4471E-03     46.3544E-03
            3253            3669     45.4471E-03     46.3544E-03
            3255            3670     41.9089E-03     42.7484E-03
            3254            3670     41.9089E-03     42.7484E-03
            3272            3670     41.9089E-03     42.7484E-03
            3273            3670     41.9089E-03     42.7484E-03
            3256            3671     38.3749E-03     39.1609E-03
            3255            3671     38.3749E-03     39.1609E-03
            3273            3671     38.3749E-03     39.1609E-03
            3274            3671     38.3749E-03     39.1609E-03
            3274            3672     34.8427E-03     35.5962E-03
            3275            3672     34.8427E-03     35.5962E-03
            3257            3672     34.8427E-03     35.5962E-03
            3256            3672     34.8427E-03     35.5962E-03
            3258            3673     31.3313E-03     32.0623E-03
            3276            3673     31.3313E-03     32.0623E-03
            3275            3673     31.3313E-03     32.0623E-03
            3257            3673     31.3313E-03     32.0623E-03
            3258            3674     27.8342E-03     28.5562E-03
            3276            3674     27.8342E-03     28.5562E-03
            3277            3674     27.8342E-03     28.5562E-03
            3259            3674     27.8342E-03     28.5562E-03
            3278            3675     24.3598E-03     25.0812E-03
            3277            3675     24.3598E-03     25.0812E-03
            3260            3675     24.3598E-03     25.0812E-03
            3259            3675     24.3598E-03     25.0812E-03
            3261            3676     20.9042E-03     21.6419E-03
            3278            3676     20.9042E-03     21.6419E-03
            3279            3676     20.9042E-03     21.6419E-03
            3260            3676     20.9042E-03     21.6419E-03
            3280            3677     17.4766E-03     18.2529E-03
            3279            3677     17.4766E-03     18.2529E-03
            3261            3677     17.4766E-03     18.2529E-03
            3262            3677     17.4766E-03     18.2529E-03
            3262            3678     14.0803E-03     14.9432E-03
            3263            3678     14.0803E-03     14.9432E-03
            3280            3678     14.0803E-03     14.9432E-03
            3281            3678     14.0803E-03     14.9432E-03
            3264            3679     10.7486E-03     11.8049E-03
            3282            3679     10.7486E-03     11.8049E-03
            3263            3679     10.7486E-03     11.8049E-03
            3281            3679     10.7486E-03     11.8049E-03
            3282            3680     7.69830E-03     8.87422E-03
            3283            3680     7.69830E-03     8.87422E-03
            3265            3680     7.69830E-03     8.87422E-03
            3264            3680     7.69830E-03     8.87422E-03
            3283            3681     5.42213E-03     6.24045E-03
            3265            3681     5.42213E-03     6.24045E-03
            3266            3681     5.42213E-03     6.24045E-03
            3284            3681     5.42213E-03     6.24045E-03
            3285            3682     59.7723E-03     60.4680E-03
            3286            3682     59.7723E-03     60.4680E-03
            3267            3682     59.7723E-03     60.4680E-03
            3268            3682     59.7723E-03     60.4680E-03
            3269            3683     56.7710E-03     57.9328E-03
            3286            3683     56.7710E-03     57.9328E-03
            3287            3683     56.7710E-03     57.9328E-03
            3268            3683     56.7710E-03     57.9328E-03
            3270            3684     53.5120E-03     54.7201E-03
            3269            3684     53.5120E-03     54.7201E-03
            3287            3684     53.5120E-03     54.7201E-03
            3288            3684     53.5120E-03     54.7201E-03
            3271            3685     49.9342E-03     51.1254E-03
            3270            3685     49.9342E-03     51.1254E-03
            3289            3685     49.9342E-03     51.1254E-03
            3288            3685     49.9342E-03     51.1254E-03
            3289            3686     46.2250E-03     47.3608E-03
            3272            3686     46.2250E-03     47.3608E-03
            3290            3686     46.2250E-03     47.3608E-03
            3271            3686     46.2250E-03     47.3608E-03
            3291            3687     42.5357E-03     43.5653E-03
            3272            3687     42.5357E-03     43.5653E-03
            3290            3687     42.5357E-03     43.5653E-03
            3273            3687     42.5357E-03     43.5653E-03
            3291            3688     38.8381E-03     39.7966E-03
            3292            3688     38.8381E-03     39.7966E-03
            3273            3688     38.8381E-03     39.7966E-03
            3274            3688     38.8381E-03     39.7966E-03
            3274            3689     35.1901E-03     36.0802E-03
            3275            3689     35.1901E-03     36.0802E-03
            3292            3689     35.1901E-03     36.0802E-03
            3293            3689     35.1901E-03     36.0802E-03
            3293            3690     31.5593E-03     32.4079E-03
            3276            3690     31.5593E-03     32.4079E-03
            3275            3690     31.5593E-03     32.4079E-03
            3294            3690     31.5593E-03     32.4079E-03
            3276            3691     27.9605E-03     28.7837E-03
            3294            3691     27.9605E-03     28.7837E-03
            3277            3691     27.9605E-03     28.7837E-03
            3295            3691     27.9605E-03     28.7837E-03
            3277            3692     24.3781E-03     25.1973E-03
            3278            3692     24.3781E-03     25.1973E-03
            3296            3692     24.3781E-03     25.1973E-03
            3295            3692     24.3781E-03     25.1973E-03
            3278            3693     20.8118E-03     21.6548E-03
            3279            3693     20.8118E-03     21.6548E-03
            3296            3693     20.8118E-03     21.6548E-03
            3297            3693     20.8118E-03     21.6548E-03
            3280            3694     17.2572E-03     18.1571E-03
            3297            3694     17.2572E-03     18.1571E-03
            3279            3694     17.2572E-03     18.1571E-03
            3298            3694     17.2572E-03     18.1571E-03
            3280            3695     13.7116E-03     14.7216E-03
            3298            3695     13.7116E-03     14.7216E-03
            3281            3695     13.7116E-03     14.7216E-03
            3299            3695     13.7116E-03     14.7216E-03
            3299            3696     10.2094E-03     11.3703E-03
            3300            3696     10.2094E-03     11.3703E-03
            3281            3696     10.2094E-03     11.3703E-03
            3282            3696     10.2094E-03     11.3703E-03
            3283            3697     6.86289E-03     8.04972E-03
            3300            3697     6.86289E-03     8.04972E-03
            3282            3697     6.86289E-03     8.04972E-03
            3301            3697     6.86289E-03     8.04972E-03
            3301            3698     4.07894E-03     5.04217E-03
            3302            3698     4.07894E-03     5.04217E-03
            3284            3698     4.07894E-03     5.04217E-03
            3283            3698     4.07894E-03     5.04217E-03
            3286            3699     60.6310E-03     61.5280E-03
            3285            3699     60.6310E-03     61.5280E-03
            3304            3699     60.6310E-03     61.5280E-03
            3303            3699     60.6310E-03     61.5280E-03
            3305            3700     57.6116E-03     58.6842E-03
            3304            3700     57.6116E-03     58.6842E-03
            3286            3700     57.6116E-03     58.6842E-03
            3287            3700     57.6116E-03     58.6842E-03
            3287            3701     54.0881E-03     55.3965E-03
            3306            3701     54.0881E-03     55.3965E-03
            3288            3701     54.0881E-03     55.3965E-03
            3305            3701     54.0881E-03     55.3965E-03
            3306            3702     50.3617E-03     51.6696E-03
            3288            3702     50.3617E-03     51.6696E-03
            3307            3702     50.3617E-03     51.6696E-03
            3289            3702     50.3617E-03     51.6696E-03
            3307            3703     46.5412E-03     47.7655E-03
            3308            3703     46.5412E-03     47.7655E-03
            3289            3703     46.5412E-03     47.7655E-03
            3290            3703     46.5412E-03     47.7655E-03
            3291            3704     42.7024E-03     43.8642E-03
            3308            3704     42.7024E-03     43.8642E-03
            3309            3704     42.7024E-03     43.8642E-03
            3290            3704     42.7024E-03     43.8642E-03
            3309            3705     38.9594E-03     40.0207E-03
            3292            3705     38.9594E-03     40.0207E-03
            3310            3705     38.9594E-03     40.0207E-03
            3291            3705     38.9594E-03     40.0207E-03
            3293            3706     35.2422E-03     36.2366E-03
            3310            3706     35.2422E-03     36.2366E-03
            3311            3706     35.2422E-03     36.2366E-03
            3292            3706     35.2422E-03     36.2366E-03
            3312            3707     31.5784E-03     32.5176E-03
            3293            3707     31.5784E-03     32.5176E-03
            3294            3707     31.5784E-03     32.5176E-03
            3311            3707     31.5784E-03     32.5176E-03
            3294            3708     27.9362E-03     28.8448E-03
            3295            3708     27.9362E-03     28.8448E-03
            3313            3708     27.9362E-03     28.8448E-03
            3312            3708     27.9362E-03     28.8448E-03
            3313            3709     24.3168E-03     25.2195E-03
            3296            3709     24.3168E-03     25.2195E-03
            3314            3709     24.3168E-03     25.2195E-03
            3295            3709     24.3168E-03     25.2195E-03
            3315            3710     20.7082E-03     21.6307E-03
            3296            3710     20.7082E-03     21.6307E-03
            3297            3710     20.7082E-03     21.6307E-03
            3314            3710     20.7082E-03     21.6307E-03
            3298            3711     17.0988E-03     18.0861E-03
            3316            3711     17.0988E-03     18.0861E-03
            3315            3711     17.0988E-03     18.0861E-03
            3297            3711     17.0988E-03     18.0861E-03
            3317            3712     13.4940E-03     14.5902E-03
            3316            3712     13.4940E-03     14.5902E-03
            3298            3712     13.4940E-03     14.5902E-03
            3299            3712     13.4940E-03     14.5902E-03
            3317            3713     9.90894E-03     11.0930E-03
            3299            3713     9.90894E-03     11.0930E-03
            3318            3713     9.90894E-03     11.0930E-03
            3300            3713     9.90894E-03     11.0930E-03
            3301            3714     6.33411E-03     7.67034E-03
            3319            3714     6.33411E-03     7.67034E-03
            3300            3714     6.33411E-03     7.67034E-03
            3318            3714     6.33411E-03     7.67034E-03
            3302            3715     3.05420E-03     4.23938E-03
            3301            3715     3.05420E-03     4.23938E-03
            3319            3715     3.05420E-03     4.23938E-03
            3320            3715     3.05420E-03     4.23938E-03
            3303            3716     61.5438E-03     62.2757E-03
            3304            3716     61.5438E-03     62.2757E-03
            3322            3716     61.5438E-03     62.2757E-03
            3321            3716     61.5438E-03     62.2757E-03
            3323            3717     58.0316E-03     59.2415E-03
            3304            3717     58.0316E-03     59.2415E-03
            3305            3717     58.0316E-03     59.2415E-03
            3322            3717     58.0316E-03     59.2415E-03
            3323            3718     54.2630E-03     55.5301E-03
            3306            3718     54.2630E-03     55.5301E-03
            3305            3718     54.2630E-03     55.5301E-03
            3324            3718     54.2630E-03     55.5301E-03
            3324            3719     50.2635E-03     51.5504E-03
            3306            3719     50.2635E-03     51.5504E-03
            3325            3719     50.2635E-03     51.5504E-03
            3307            3719     50.2635E-03     51.5504E-03
            3326            3720     46.2752E-03     47.5538E-03
            3307            3720     46.2752E-03     47.5538E-03
            3308            3720     46.2752E-03     47.5538E-03
            3325            3720     46.2752E-03     47.5538E-03
            3309            3721     42.4558E-03     43.6424E-03
            3326            3721     42.4558E-03     43.6424E-03
            3327            3721     42.4558E-03     43.6424E-03
            3308            3721     42.4558E-03     43.6424E-03
            3327            3722     38.6935E-03     39.8104E-03
            3310            3722     38.6935E-03     39.8104E-03
            3309            3722     38.6935E-03     39.8104E-03
            3328            3722     38.6935E-03     39.8104E-03
            3310            3723     35.0146E-03     36.0624E-03
            3329            3723     35.0146E-03     36.0624E-03
            3311            3723     35.0146E-03     36.0624E-03
            3328            3723     35.0146E-03     36.0624E-03
            3311            3724     31.3700E-03     32.3706E-03
            3330            3724     31.3700E-03     32.3706E-03
            3312            3724     31.3700E-03     32.3706E-03
            3329            3724     31.3700E-03     32.3706E-03
            3312            3725     27.7597E-03     28.7305E-03
            3330            3725     27.7597E-03     28.7305E-03
            3331            3725     27.7597E-03     28.7305E-03
            3313            3725     27.7597E-03     28.7305E-03
            3331            3726     24.1654E-03     25.1256E-03
            3332            3726     24.1654E-03     25.1256E-03
            3313            3726     24.1654E-03     25.1256E-03
            3314            3726     24.1654E-03     25.1256E-03
            3332            3727     20.5803E-03     21.5568E-03
            3314            3727     20.5803E-03     21.5568E-03
            3315            3727     20.5803E-03     21.5568E-03
            3333            3727     20.5803E-03     21.5568E-03
            3333            3728     16.9988E-03     18.0201E-03
            3316            3728     16.9988E-03     18.0201E-03
            3334            3728     16.9988E-03     18.0201E-03
            3315            3728     16.9988E-03     18.0201E-03
            3317            3729     13.4087E-03     14.5197E-03
            3334            3729     13.4087E-03     14.5197E-03
            3316            3729     13.4087E-03     14.5197E-03
            3335            3729     13.4087E-03     14.5197E-03
            3317            3730     9.81503E-03     11.0757E-03
            3336            3730     9.81503E-03     11.0757E-03
            3318            3730     9.81503E-03     11.0757E-03
            3335            3730     9.81503E-03     11.0757E-03
            3336            3731     6.27049E-03     7.59671E-03
            3337            3731     6.27049E-03     7.59671E-03
            3319            3731     6.27049E-03     7.59671E-03
            3318            3731     6.27049E-03     7.59671E-03
            3320            3732     2.83779E-03     4.25558E-03
            3338            3732     2.83779E-03     4.25558E-03
            3319            3732     2.83779E-03     4.25558E-03
            3337            3732     2.83779E-03     4.25558E-03
            3339            3733     62.0384E-03     63.0824E-03
            3340            3733     62.0384E-03     63.0824E-03
            3322            3733     62.0384E-03     63.0824E-03
            3321            3733     62.0384E-03     63.0824E-03
            3322            3734     58.2332E-03     59.2414E-03
            3341            3734     58.2332E-03     59.2414E-03
            3340            3734     58.2332E-03     59.2414E-03
            3323            3734     58.2332E-03     59.2414E-03
            3323            3735     53.8154E-03     54.9690E-03
            3341            3735     53.8154E-03     54.9690E-03
            3342            3735     53.8154E-03     54.9690E-03
            3324            3735     53.8154E-03     54.9690E-03
            3343            3736     49.4777E-03     50.7328E-03
            3324            3736     49.4777E-03     50.7328E-03
            3325            3736     49.4777E-03     50.7328E-03
            3342            3736     49.4777E-03     50.7328E-03
            3325            3737     45.5491E-03     46.7617E-03
            3344            3737     45.5491E-03     46.7617E-03
            3326            3737     45.5491E-03     46.7617E-03
            3343            3737     45.5491E-03     46.7617E-03
            3345            3738     41.7713E-03     42.9300E-03
            3344            3738     41.7713E-03     42.9300E-03
            3327            3738     41.7713E-03     42.9300E-03
            3326            3738     41.7713E-03     42.9300E-03
            3328            3739     38.1157E-03     39.2234E-03
            3345            3739     38.1157E-03     39.2234E-03
            3346            3739     38.1157E-03     39.2234E-03
            3327            3739     38.1157E-03     39.2234E-03
            3328            3740     34.5239E-03     35.5894E-03
            3329            3740     34.5239E-03     35.5894E-03
            3347            3740     34.5239E-03     35.5894E-03
            3346            3740     34.5239E-03     35.5894E-03
            3348            3741     30.9752E-03     32.0105E-03
            3330            3741     30.9752E-03     32.0105E-03
            3329            3741     30.9752E-03     32.0105E-03
            3347            3741     30.9752E-03     32.0105E-03
            3349            3742     27.4516E-03     28.4660E-03
            3330            3742     27.4516E-03     28.4660E-03
            3348            3742     27.4516E-03     28.4660E-03
            3331            3742     27.4516E-03     28.4660E-03
            3349            3743     23.9452E-03     24.9484E-03
            3331            3743     23.9452E-03     24.9484E-03
            3332            3743     23.9452E-03     24.9484E-03
            3350            3743     23.9452E-03     24.9484E-03
            3351            3744     20.4494E-03     21.4537E-03
            3350            3744     20.4494E-03     21.4537E-03
            3333            3744     20.4494E-03     21.4537E-03
            3332            3744     20.4494E-03     21.4537E-03
            3334            3745     16.9623E-03     17.9849E-03
            3351            3745     16.9623E-03     17.9849E-03
            3352            3745     16.9623E-03     17.9849E-03
            3333            3745     16.9623E-03     17.9849E-03
            3334            3746     13.4797E-03     14.5557E-03
            3352            3746     13.4797E-03     14.5557E-03
            3335            3746     13.4797E-03     14.5557E-03
            3353            3746     13.4797E-03     14.5557E-03
            3336            3747     9.99890E-03     11.2211E-03
            3354            3747     9.99890E-03     11.2211E-03
            3353            3747     9.99890E-03     11.2211E-03
            3335            3747     9.99890E-03     11.2211E-03
            3337            3748     6.61496E-03     8.01638E-03
            3336            3748     6.61496E-03     8.01638E-03
            3354            3748     6.61496E-03     8.01638E-03
            3355            3748     6.61496E-03     8.01638E-03
            3356            3749     3.71923E-03     4.93354E-03
            3355            3749     3.71923E-03     4.93354E-03
            3337            3749     3.71923E-03     4.93354E-03
            3338            3749     3.71923E-03     4.93354E-03
            3357            3750     62.6102E-03     62.8901E-03
            3358            3750     62.6102E-03     62.8901E-03
            3340            3750     62.6102E-03     62.8901E-03
            3339            3750     62.6102E-03     62.8901E-03
            3341            3751     57.5216E-03     58.3236E-03
            3340            3751     57.5216E-03     58.3236E-03
            3358            3751     57.5216E-03     58.3236E-03
            3359            3751     57.5216E-03     58.3236E-03
            3360            3752     52.3615E-03     53.4392E-03
            3359            3752     52.3615E-03     53.4392E-03
            3342            3752     52.3615E-03     53.4392E-03
            3341            3752     52.3615E-03     53.4392E-03
            3361            3753     48.1885E-03     49.2804E-03
            3342            3753     48.1885E-03     49.2804E-03
            3360            3753     48.1885E-03     49.2804E-03
            3343            3753     48.1885E-03     49.2804E-03
            3343            3754     44.3937E-03     45.4561E-03
            3361            3754     44.3937E-03     45.4561E-03
            3362            3754     44.3937E-03     45.4561E-03
            3344            3754     44.3937E-03     45.4561E-03
            3345            3755     40.7811E-03     41.8480E-03
            3362            3755     40.7811E-03     41.8480E-03
            3363            3755     40.7811E-03     41.8480E-03
            3344            3755     40.7811E-03     41.8480E-03
            3364            3756     37.2934E-03     38.3521E-03
            3363            3756     37.2934E-03     38.3521E-03
            3346            3756     37.2934E-03     38.3521E-03
            3345            3756     37.2934E-03     38.3521E-03
            3346            3757     33.8539E-03     34.9159E-03
            3365            3757     33.8539E-03     34.9159E-03
            3347            3757     33.8539E-03     34.9159E-03
            3364            3757     33.8539E-03     34.9159E-03
            3365            3758     30.4536E-03     31.5139E-03
            3366            3758     30.4536E-03     31.5139E-03
            3348            3758     30.4536E-03     31.5139E-03
            3347            3758     30.4536E-03     31.5139E-03
            3366            3759     27.0705E-03     28.1264E-03
            3349            3759     27.0705E-03     28.1264E-03
            3367            3759     27.0705E-03     28.1264E-03
            3348            3759     27.0705E-03     28.1264E-03
            3367            3760     23.7048E-03     24.7520E-03
            3350            3760     23.7048E-03     24.7520E-03
            3368            3760     23.7048E-03     24.7520E-03
            3349            3760     23.7048E-03     24.7520E-03
            3350            3761     20.3566E-03     21.3864E-03
            3351            3761     20.3566E-03     21.3864E-03
            3368            3761     20.3566E-03     21.3864E-03
            3369            3761     20.3566E-03     21.3864E-03
            3352            3762     17.0302E-03     18.0442E-03
            3351            3762     17.0302E-03     18.0442E-03
            3369            3762     17.0302E-03     18.0442E-03
            3370            3762     17.0302E-03     18.0442E-03
            3352            3763     13.7444E-03     14.7472E-03
            3371            3763     13.7444E-03     14.7472E-03
            3353            3763     13.7444E-03     14.7472E-03
            3370            3763     13.7444E-03     14.7472E-03
            3353            3764     10.5133E-03     11.5610E-03
            3354            3764     10.5133E-03     11.5610E-03
            3372            3764     10.5133E-03     11.5610E-03
            3371            3764     10.5133E-03     11.5610E-03
            3373            3765     7.40947E-03     8.73239E-03
            3354            3765     7.40947E-03     8.73239E-03
            3355            3765     7.40947E-03     8.73239E-03
            3372            3765     7.40947E-03     8.73239E-03
            3373            3766     5.12523E-03     6.35595E-03
            3355            3766     5.12523E-03     6.35595E-03
            3356            3766     5.12523E-03     6.35595E-03
            3374            3766     5.12523E-03     6.35595E-03
            3376            3767     61.5605E-03     62.0139E-03
            3357            3767     61.5605E-03     62.0139E-03
            3375            3767     61.5605E-03     62.0139E-03
            3358            3767     61.5605E-03     62.0139E-03
            3358            3768     55.1061E-03     55.8908E-03
            3377            3768     55.1061E-03     55.8908E-03
            3359            3768     55.1061E-03     55.8908E-03
            3376            3768     55.1061E-03     55.8908E-03
            3378            3769     50.3856E-03     51.1205E-03
            3360            3769     50.3856E-03     51.1205E-03
            3377            3769     50.3856E-03     51.1205E-03
            3359            3769     50.3856E-03     51.1205E-03
            3379            3770     46.5687E-03     47.3256E-03
            3360            3770     46.5687E-03     47.3256E-03
            3361            3770     46.5687E-03     47.3256E-03
            3378            3770     46.5687E-03     47.3256E-03
            3361            3771     42.9916E-03     43.8415E-03
            3362            3771     42.9916E-03     43.8415E-03
            3379            3771     42.9916E-03     43.8415E-03
            3380            3771     42.9916E-03     43.8415E-03
            3362            3772     39.6387E-03     40.5691E-03
            3381            3772     39.6387E-03     40.5691E-03
            3380            3772     39.6387E-03     40.5691E-03
            3363            3772     39.6387E-03     40.5691E-03
            3382            3773     36.3452E-03     37.3540E-03
            3381            3773     36.3452E-03     37.3540E-03
            3363            3773     36.3452E-03     37.3540E-03
            3364            3773     36.3452E-03     37.3540E-03
            3364            3774     33.1137E-03     34.1784E-03
            3382            3774     33.1137E-03     34.1784E-03
            3383            3774     33.1137E-03     34.1784E-03
            3365            3774     33.1137E-03     34.1784E-03
            3365            3775     29.8967E-03     30.9975E-03
            3383            3775     29.8967E-03     30.9975E-03
            3384            3775     29.8967E-03     30.9975E-03
            3366            3775     29.8967E-03     30.9975E-03
            3367            3776     26.7009E-03     27.8179E-03
            3385            3776     26.7009E-03     27.8179E-03
            3366            3776     26.7009E-03     27.8179E-03
            3384            3776     26.7009E-03     27.8179E-03
            3386            3777     23.5191E-03     24.6294E-03
            3385            3777     23.5191E-03     24.6294E-03
            3367            3777     23.5191E-03     24.6294E-03
            3368            3777     23.5191E-03     24.6294E-03
            3368            3778     20.3671E-03     21.4480E-03
            3369            3778     20.3671E-03     21.4480E-03
            3386            3778     20.3671E-03     21.4480E-03
            3387            3778     20.3671E-03     21.4480E-03
            3370            3779     17.2628E-03     18.2829E-03
            3388            3779     17.2628E-03     18.2829E-03
            3369            3779     17.2628E-03     18.2829E-03
            3387            3779     17.2628E-03     18.2829E-03
            3389            3780     14.2457E-03     15.1730E-03
            3371            3780     14.2457E-03     15.1730E-03
            3370            3780     14.2457E-03     15.1730E-03
            3388            3780     14.2457E-03     15.1730E-03
            3390            3781     11.3720E-03     12.1921E-03
            3371            3781     11.3720E-03     12.1921E-03
            3389            3781     11.3720E-03     12.1921E-03
            3372            3781     11.3720E-03     12.1921E-03
            3372            3782     8.75246E-03     9.57094E-03
            3373            3782     8.75246E-03     9.57094E-03
            3391            3782     8.75246E-03     9.57094E-03
            3390            3782     8.75246E-03     9.57094E-03
            3374            3783     6.67585E-03     7.90365E-03
            3373            3783     6.67585E-03     7.90365E-03
            3391            3783     6.67585E-03     7.90365E-03
            3392            3783     6.67585E-03     7.90365E-03
            4348            4562     56.4749E-03     58.1135E-03
            4366            4562     56.4749E-03     58.1135E-03
            4365            4562     56.4749E-03     58.1135E-03
            4347            4562     56.4749E-03     58.1135E-03
            4366            4563     51.1781E-03     52.0828E-03
            4367            4563     51.1781E-03     52.0828E-03
            4349            4563     51.1781E-03     52.0828E-03
            4348            4563     51.1781E-03     52.0828E-03
            4349            4564     47.3159E-03     48.0945E-03
            4350            4564     47.3159E-03     48.0945E-03
            4368            4564     47.3159E-03     48.0945E-03
            4367            4564     47.3159E-03     48.0945E-03
            4369            4565     43.7156E-03     44.5380E-03
            4368            4565     43.7156E-03     44.5380E-03
            4351            4565     43.7156E-03     44.5380E-03
            4350            4565     43.7156E-03     44.5380E-03
            4352            4566     40.3828E-03     41.2399E-03
            4351            4566     40.3828E-03     41.2399E-03
            4370            4566     40.3828E-03     41.2399E-03
            4369            4566     40.3828E-03     41.2399E-03
            4352            4567     37.1297E-03     38.0658E-03
            4370            4567     37.1297E-03     38.0658E-03
            4371            4567     37.1297E-03     38.0658E-03
            4353            4567     37.1297E-03     38.0658E-03
            4353            4568     33.9664E-03     34.9468E-03
            4371            4568     33.9664E-03     34.9468E-03
            4354            4568     33.9664E-03     34.9468E-03
            4372            4568     33.9664E-03     34.9468E-03
            4355            4569     30.8279E-03     31.8594E-03
            4373            4569     30.8279E-03     31.8594E-03
            4372            4569     30.8279E-03     31.8594E-03
            4354            4569     30.8279E-03     31.8594E-03
            4355            4570     27.7223E-03     28.7785E-03
            4374            4570     27.7223E-03     28.7785E-03
            4373            4570     27.7223E-03     28.7785E-03
            4356            4570     27.7223E-03     28.7785E-03
            4356            4571     24.6248E-03     25.7002E-03
            4375            4571     24.6248E-03     25.7002E-03
            4374            4571     24.6248E-03     25.7002E-03
            4357            4571     24.6248E-03     25.7002E-03
            4357            4572     21.5444E-03     22.6193E-03
            4376            4572     21.5444E-03     22.6193E-03
            4358            4572     21.5444E-03     22.6193E-03
            4375            4572     21.5444E-03     22.6193E-03
            4358            4573     18.4753E-03     19.5361E-03
            4377            4573     18.4753E-03     19.5361E-03
            4376            4573     18.4753E-03     19.5361E-03
            4359            4573     18.4753E-03     19.5361E-03
            4378            4574     15.4325E-03     16.4569E-03
            4377            4574     15.4325E-03     16.4569E-03
            4359            4574     15.4325E-03     16.4569E-03
            4360            4574     15.4325E-03     16.4569E-03
            4379            4575     12.4279E-03     13.3884E-03
            4378            4575     12.4279E-03     13.3884E-03
            4360            4575     12.4279E-03     13.3884E-03
            4361            4575     12.4279E-03     13.3884E-03
            4362            4576     9.49801E-03     10.3566E-03
            4380            4576     9.49801E-03     10.3566E-03
            4361            4576     9.49801E-03     10.3566E-03
            4379            4576     9.49801E-03     10.3566E-03
            4380            4577     6.70417E-03     7.43950E-03
            4363            4577     6.70417E-03     7.43950E-03
            4381            4577     6.70417E-03     7.43950E-03
            4362            4577     6.70417E-03     7.43950E-03
            4364            4578     4.06316E-03     4.89850E-03
            4382            4578     4.06316E-03     4.89850E-03
            4381            4578     4.06316E-03     4.89850E-03
            4363            4578     4.06316E-03     4.89850E-03
            4383            4579     58.6308E-03     59.3146E-03
            4365            4579     58.6308E-03     59.3146E-03
            4384            4579     58.6308E-03     59.3146E-03
            4366            4579     58.6308E-03     59.3146E-03
            4385            4580     51.3822E-03     52.3914E-03
            4367            4580     51.3822E-03     52.3914E-03
            4384            4580     51.3822E-03     52.3914E-03
            4366            4580     51.3822E-03     52.3914E-03
            4386            4581     46.3355E-03     47.2565E-03
            4385            4581     46.3355E-03     47.2565E-03
            4368            4581     46.3355E-03     47.2565E-03
            4367            4581     46.3355E-03     47.2565E-03
            4386            4582     42.4190E-03     43.3444E-03
            4369            4582     42.4190E-03     43.3444E-03
            4368            4582     42.4190E-03     43.3444E-03
            4387            4582     42.4190E-03     43.3444E-03
            4387            4583     38.8751E-03     39.8696E-03
            4369            4583     38.8751E-03     39.8696E-03
            4370            4583     38.8751E-03     39.8696E-03
            4388            4583     38.8751E-03     39.8696E-03
            4370            4584     35.6385E-03     36.7068E-03
            4371            4584     35.6385E-03     36.7068E-03
            4389            4584     35.6385E-03     36.7068E-03
            4388            4584     35.6385E-03     36.7068E-03
            4390            4585     32.5226E-03     33.6657E-03
            4371            4585     32.5226E-03     33.6657E-03
            4372            4585     32.5226E-03     33.6657E-03
            4389            4585     32.5226E-03     33.6657E-03
            4372            4586     29.5065E-03     30.7061E-03
            4373            4586     29.5065E-03     30.7061E-03
            4391            4586     29.5065E-03     30.7061E-03
            4390            4586     29.5065E-03     30.7061E-03
            4391            4587     26.5288E-03     27.7705E-03
            4373            4587     26.5288E-03     27.7705E-03
            4374            4587     26.5288E-03     27.7705E-03
            4392            4587     26.5288E-03     27.7705E-03
            4375            4588     23.5872E-03     24.8481E-03
            4374            4588     23.5872E-03     24.8481E-03
            4392            4588     23.5872E-03     24.8481E-03
            4393            4588     23.5872E-03     24.8481E-03
            4394            4589     20.6623E-03     21.9236E-03
            4376            4589     20.6623E-03     21.9236E-03
            4375            4589     20.6623E-03     21.9236E-03
            4393            4589     20.6623E-03     21.9236E-03
            4376            4590     17.7651E-03     18.9988E-03
            4395            4590     17.7651E-03     18.9988E-03
            4394            4590     17.7651E-03     18.9988E-03
            4377            4590     17.7651E-03     18.9988E-03
            4377            4591     14.8978E-03     16.0759E-03
            4395            4591     14.8978E-03     16.0759E-03
            4396            4591     14.8978E-03     16.0759E-03
            4378            4591     14.8978E-03     16.0759E-03
            4397            4592     12.0924E-03     13.1754E-03
            4379            4592     12.0924E-03     13.1754E-03
            4396            4592     12.0924E-03     13.1754E-03
            4378            4592     12.0924E-03     13.1754E-03
            4380            4593     9.38114E-03     10.3370E-03
            4398            4593     9.38114E-03     10.3370E-03
            4379            4593     9.38114E-03     10.3370E-03
            4397            4593     9.38114E-03     10.3370E-03
            4380            4594     6.86146E-03     7.72341E-03
            4399            4594     6.86146E-03     7.72341E-03
            4398            4594     6.86146E-03     7.72341E-03
            4381            4594     6.86146E-03     7.72341E-03
            4399            4595     4.79760E-03     5.87199E-03
            4382            4595     4.79760E-03     5.87199E-03
            4381            4595     4.79760E-03     5.87199E-03
            4400            4595     4.79760E-03     5.87199E-03
            4401            4596     59.1841E-03     59.4033E-03
            4384            4596     59.1841E-03     59.4033E-03
            4402            4596     59.1841E-03     59.4033E-03
            4383            4596     59.1841E-03     59.4033E-03
            4403            4597     53.5605E-03     54.3228E-03
            4402            4597     53.5605E-03     54.3228E-03
            4385            4597     53.5605E-03     54.3228E-03
            4384            4597     53.5605E-03     54.3228E-03
            4404            4598     48.0632E-03     49.1651E-03
            4386            4598     48.0632E-03     49.1651E-03
            4403            4598     48.0632E-03     49.1651E-03
            4385            4598     48.0632E-03     49.1651E-03
            4405            4599     43.8369E-03     44.9670E-03
            4387            4599     43.8369E-03     44.9670E-03
            4386            4599     43.8369E-03     44.9670E-03
            4404            4599     43.8369E-03     44.9670E-03
            4387            4600     40.1168E-03     41.2430E-03
            4406            4600     40.1168E-03     41.2430E-03
            4405            4600     40.1168E-03     41.2430E-03
            4388            4600     40.1168E-03     41.2430E-03
            4406            4601     36.6773E-03     37.8203E-03
            4388            4601     36.6773E-03     37.8203E-03
            4389            4601     36.6773E-03     37.8203E-03
            4407            4601     36.6773E-03     37.8203E-03
            4408            4602     33.4207E-03     34.5646E-03
            4407            4602     33.4207E-03     34.5646E-03
            4390            4602     33.4207E-03     34.5646E-03
            4389            4602     33.4207E-03     34.5646E-03
            4391            4603     30.2461E-03     31.4034E-03
            4408            4603     30.2461E-03     31.4034E-03
            4390            4603     30.2461E-03     31.4034E-03
            4409            4603     30.2461E-03     31.4034E-03
            4410            4604     27.1345E-03     28.2930E-03
            4409            4604     27.1345E-03     28.2930E-03
            4391            4604     27.1345E-03     28.2930E-03
            4392            4604     27.1345E-03     28.2930E-03
            4393            4605     24.0470E-03     25.2074E-03
            4410            4605     24.0470E-03     25.2074E-03
            4392            4605     24.0470E-03     25.2074E-03
            4411            4605     24.0470E-03     25.2074E-03
            4393            4606     20.9827E-03     22.1332E-03
            4411            4606     20.9827E-03     22.1332E-03
            4394            4606     20.9827E-03     22.1332E-03
            4412            4606     20.9827E-03     22.1332E-03
            4394            4607     17.9294E-03     19.0640E-03
            4413            4607     17.9294E-03     19.0640E-03
            4412            4607     17.9294E-03     19.0640E-03
            4395            4607     17.9294E-03     19.0640E-03
            4395            4608     14.8927E-03     15.9986E-03
            4396            4608     14.8927E-03     15.9986E-03
            4414            4608     14.8927E-03     15.9986E-03
            4413            4608     14.8927E-03     15.9986E-03
            4396            4609     11.8724E-03     12.9513E-03
            4397            4609     11.8724E-03     12.9513E-03
            4414            4609     11.8724E-03     12.9513E-03
            4415            4609     11.8724E-03     12.9513E-03
            4397            4610     8.88242E-03     9.94909E-03
            4398            4610     8.88242E-03     9.94909E-03
            4416            4610     8.88242E-03     9.94909E-03
            4415            4610     8.88242E-03     9.94909E-03
            4398            4611     5.92529E-03     7.16508E-03
            4416            4611     5.92529E-03     7.16508E-03
            4399            4611     5.92529E-03     7.16508E-03
            4417            4611     5.92529E-03     7.16508E-03
            4399            4612     3.51117E-03     4.73539E-03
            4400            4612     3.51117E-03     4.73539E-03
            4418            4612     3.51117E-03     4.73539E-03
            4417            4612     3.51117E-03     4.73539E-03
            4420            4613     57.9879E-03     58.9539E-03
            4419            4613     57.9879E-03     58.9539E-03
            4401            4613     57.9879E-03     58.9539E-03
            4402            4613     57.9879E-03     58.9539E-03
            4421            4614     53.9080E-03     54.8042E-03
            4420            4614     53.9080E-03     54.8042E-03
            4402            4614     53.9080E-03     54.8042E-03
            4403            4614     53.9080E-03     54.8042E-03
            4404            4615     49.3310E-03     50.3753E-03
            4403            4615     49.3310E-03     50.3753E-03
            4421            4615     49.3310E-03     50.3753E-03
            4422            4615     49.3310E-03     50.3753E-03
            4423            4616     44.9750E-03     46.1829E-03
            4405            4616     44.9750E-03     46.1829E-03
            4422            4616     44.9750E-03     46.1829E-03
            4404            4616     44.9750E-03     46.1829E-03
            4423            4617     41.1893E-03     42.3870E-03
            4424            4617     41.1893E-03     42.3870E-03
            4405            4617     41.1893E-03     42.3870E-03
            4406            4617     41.1893E-03     42.3870E-03
            4406            4618     37.6329E-03     38.8057E-03
            4424            4618     37.6329E-03     38.8057E-03
            4407            4618     37.6329E-03     38.8057E-03
            4425            4618     37.6329E-03     38.8057E-03
            4426            4619     34.2479E-03     35.3948E-03
            4407            4619     34.2479E-03     35.3948E-03
            4408            4619     34.2479E-03     35.3948E-03
            4425            4619     34.2479E-03     35.3948E-03
            4426            4620     30.9622E-03     32.0760E-03
            4427            4620     30.9622E-03     32.0760E-03
            4408            4620     30.9622E-03     32.0760E-03
            4409            4620     30.9622E-03     32.0760E-03
            4427            4621     27.7293E-03     28.8243E-03
            4428            4621     27.7293E-03     28.8243E-03
            4409            4621     27.7293E-03     28.8243E-03
            4410            4621     27.7293E-03     28.8243E-03
            4410            4622     24.5340E-03     25.6089E-03
            4428            4622     24.5340E-03     25.6089E-03
            4429            4622     24.5340E-03     25.6089E-03
            4411            4622     24.5340E-03     25.6089E-03
            4412            4623     21.3548E-03     22.4196E-03
            4429            4623     21.3548E-03     22.4196E-03
            4430            4623     21.3548E-03     22.4196E-03
            4411            4623     21.3548E-03     22.4196E-03
            4430            4624     18.1888E-03     19.2437E-03
            4431            4624     18.1888E-03     19.2437E-03
            4412            4624     18.1888E-03     19.2437E-03
            4413            4624     18.1888E-03     19.2437E-03
            4414            4625     15.0254E-03     16.0852E-03
            4413            4625     15.0254E-03     16.0852E-03
            4431            4625     15.0254E-03     16.0852E-03
            4432            4625     15.0254E-03     16.0852E-03
            4432            4626     11.8666E-03     12.9366E-03
            4433            4626     11.8666E-03     12.9366E-03
            4415            4626     11.8666E-03     12.9366E-03
            4414            4626     11.8666E-03     12.9366E-03
            4415            4627     8.68561E-03     9.84323E-03
            4416            4627     8.68561E-03     9.84323E-03
            4433            4627     8.68561E-03     9.84323E-03
            4434            4627     8.68561E-03     9.84323E-03
            4416            4628     5.52614E-03     6.82810E-03
            4417            4628     5.52614E-03     6.82810E-03
            4434            4628     5.52614E-03     6.82810E-03
            4435            4628     5.52614E-03     6.82810E-03
            4436            4629     2.57284E-03     3.79276E-03
            4435            4629     2.57284E-03     3.79276E-03
            4418            4629     2.57284E-03     3.79276E-03
            4417            4629     2.57284E-03     3.79276E-03
            4438            4630     56.9221E-03     57.5927E-03
            4437            4630     56.9221E-03     57.5927E-03
            4419            4630     56.9221E-03     57.5927E-03
            4420            4630     56.9221E-03     57.5927E-03
            4421            4631     53.3458E-03     54.3908E-03
            4438            4631     53.3458E-03     54.3908E-03
            4439            4631     53.3458E-03     54.3908E-03
            4420            4631     53.3458E-03     54.3908E-03
            4440            4632     49.5638E-03     50.6963E-03
            4422            4632     49.5638E-03     50.6963E-03
            4439            4632     49.5638E-03     50.6963E-03
            4421            4632     49.5638E-03     50.6963E-03
            4441            4633     45.6863E-03     46.8598E-03
            4422            4633     45.6863E-03     46.8598E-03
            4440            4633     45.6863E-03     46.8598E-03
            4423            4633     45.6863E-03     46.8598E-03
            4424            4634     41.9059E-03     43.1185E-03
            4441            4634     41.9059E-03     43.1185E-03
            4442            4634     41.9059E-03     43.1185E-03
            4423            4634     41.9059E-03     43.1185E-03
            4425            4635     38.3571E-03     39.5192E-03
            4424            4635     38.3571E-03     39.5192E-03
            4442            4635     38.3571E-03     39.5192E-03
            4443            4635     38.3571E-03     39.5192E-03
            4444            4636     34.9078E-03     36.0176E-03
            4426            4636     34.9078E-03     36.0176E-03
            4443            4636     34.9078E-03     36.0176E-03
            4425            4636     34.9078E-03     36.0176E-03
            4445            4637     31.5490E-03     32.6105E-03
            4426            4637     31.5490E-03     32.6105E-03
            4444            4637     31.5490E-03     32.6105E-03
            4427            4637     31.5490E-03     32.6105E-03
            4428            4638     28.2426E-03     29.2615E-03
            4445            4638     28.2426E-03     29.2615E-03
            4427            4638     28.2426E-03     29.2615E-03
            4446            4638     28.2426E-03     29.2615E-03
            4428            4639     24.9693E-03     25.9633E-03
            4446            4639     24.9693E-03     25.9633E-03
            4447            4639     24.9693E-03     25.9633E-03
            4429            4639     24.9693E-03     25.9633E-03
            4447            4640     21.7179E-03     22.6979E-03
            4448            4640     21.7179E-03     22.6979E-03
            4429            4640     21.7179E-03     22.6979E-03
            4430            4640     21.7179E-03     22.6979E-03
            4430            4641     18.4773E-03     19.4640E-03
            4448            4641     18.4773E-03     19.4640E-03
            4449            4641     18.4773E-03     19.4640E-03
            4431            4641     18.4773E-03     19.4640E-03
            4431            4642     15.2447E-03     16.2493E-03
            4450            4642     15.2447E-03     16.2493E-03
            4432            4642     15.2447E-03     16.2493E-03
            4449            4642     15.2447E-03     16.2493E-03
            4451            4643     12.0067E-03     13.0679E-03
            4433            4643     12.0067E-03     13.0679E-03
            4450            4643     12.0067E-03     13.0679E-03
            4432            4643     12.0067E-03     13.0679E-03
            4433            4644     8.77568E-03     9.91387E-03
            4452            4644     8.77568E-03     9.91387E-03
            4451            4644     8.77568E-03     9.91387E-03
            4434            4644     8.77568E-03     9.91387E-03
            4453            4645     5.57402E-03     6.74676E-03
            4435            4645     5.57402E-03     6.74676E-03
            4452            4645     5.57402E-03     6.74676E-03
            4434            4645     5.57402E-03     6.74676E-03
            4453            4646     2.52554E-03     3.65661E-03
            4454            4646     2.52554E-03     3.65661E-03
            4436            4646     2.52554E-03     3.65661E-03
            4435            4646     2.52554E-03     3.65661E-03
            4456            4647     55.5690E-03     56.3144E-03
            4438            4647     55.5690E-03     56.3144E-03
            4437            4647     55.5690E-03     56.3144E-03
            4455            4647     55.5690E-03     56.3144E-03
            4456            4648     52.5599E-03     53.5059E-03
            4439            4648     52.5599E-03     53.5059E-03
            4457            4648     52.5599E-03     53.5059E-03
            4438            4648     52.5599E-03     53.5059E-03
            4439            4649     49.2362E-03     50.3727E-03
            4457            4649     49.2362E-03     50.3727E-03
            4440            4649     49.2362E-03     50.3727E-03
            4458            4649     49.2362E-03     50.3727E-03
            4458            4650     45.7642E-03     46.9479E-03
            4440            4650     45.7642E-03     46.9479E-03
            4441            4650     45.7642E-03     46.9479E-03
            4459            4650     45.7642E-03     46.9479E-03
            4459            4651     42.2423E-03     43.3933E-03
            4441            4651     42.2423E-03     43.3933E-03
            4442            4651     42.2423E-03     43.3933E-03
            4460            4651     42.2423E-03     43.3933E-03
            4460            4652     38.7386E-03     39.8448E-03
            4442            4652     38.7386E-03     39.8448E-03
            4461            4652     38.7386E-03     39.8448E-03
            4443            4652     38.7386E-03     39.8448E-03
            4443            4653     35.3163E-03     36.3508E-03
            4462            4653     35.3163E-03     36.3508E-03
            4444            4653     35.3163E-03     36.3508E-03
            4461            4653     35.3163E-03     36.3508E-03
            4444            4654     31.9377E-03     32.9107E-03
            4445            4654     31.9377E-03     32.9107E-03
            4462            4654     31.9377E-03     32.9107E-03
            4463            4654     31.9377E-03     32.9107E-03
            4445            4655     28.6051E-03     29.5304E-03
            4464            4655     28.6051E-03     29.5304E-03
            4446            4655     28.6051E-03     29.5304E-03
            4463            4655     28.6051E-03     29.5304E-03
            4446            4656     25.3014E-03     26.1962E-03
            4464            4656     25.3014E-03     26.1962E-03
            4447            4656     25.3014E-03     26.1962E-03
            4465            4656     25.3014E-03     26.1962E-03
            4465            4657     22.0203E-03     22.9066E-03
            4466            4657     22.0203E-03     22.9066E-03
            4447            4657     22.0203E-03     22.9066E-03
            4448            4657     22.0203E-03     22.9066E-03
            4467            4658     18.7541E-03     19.6549E-03
            4448            4658     18.7541E-03     19.6549E-03
            4466            4658     18.7541E-03     19.6549E-03
            4449            4658     18.7541E-03     19.6549E-03
            4449            4659     15.5001E-03     16.4440E-03
            4450            4659     15.5001E-03     16.4440E-03
            4468            4659     15.5001E-03     16.4440E-03
            4467            4659     15.5001E-03     16.4440E-03
            4468            4660     12.2635E-03     13.2671E-03
            4469            4660     12.2635E-03     13.2671E-03
            4451            4660     12.2635E-03     13.2671E-03
            4450            4660     12.2635E-03     13.2671E-03
            4470            4661     9.06376E-03     10.1248E-03
            4452            4661     9.06376E-03     10.1248E-03
            4469            4661     9.06376E-03     10.1248E-03
            4451            4661     9.06376E-03     10.1248E-03
            4453            4662     5.95933E-03     7.02516E-03
            4470            4662     5.95933E-03     7.02516E-03
            4452            4662     5.95933E-03     7.02516E-03
            4471            4662     5.95933E-03     7.02516E-03
            4453            4663     3.31264E-03     4.10379E-03
            4454            4663     3.31264E-03     4.10379E-03
            4471            4663     3.31264E-03     4.10379E-03
            4472            4663     3.31264E-03     4.10379E-03
            4456            4664     54.1844E-03     54.8558E-03
            4473            4664     54.1844E-03     54.8558E-03
            4474            4664     54.1844E-03     54.8558E-03
            4455            4664     54.1844E-03     54.8558E-03
            4474            4665     51.4876E-03     52.4374E-03
            4475            4665     51.4876E-03     52.4374E-03
            4456            4665     51.4876E-03     52.4374E-03
            4457            4665     51.4876E-03     52.4374E-03
            4457            4666     48.5698E-03     49.6531E-03
            4476            4666     48.5698E-03     49.6531E-03
            4458            4666     48.5698E-03     49.6531E-03
            4475            4666     48.5698E-03     49.6531E-03
            4459            4667     45.4075E-03     46.5251E-03
            4458            4667     45.4075E-03     46.5251E-03
            4477            4667     45.4075E-03     46.5251E-03
            4476            4667     45.4075E-03     46.5251E-03
            4478            4668     42.1186E-03     43.1807E-03
            4459            4668     42.1186E-03     43.1807E-03
            4460            4668     42.1186E-03     43.1807E-03
            4477            4668     42.1186E-03     43.1807E-03
            4461            4669     38.7678E-03     39.7538E-03
            4478            4669     38.7678E-03     39.7538E-03
            4479            4669     38.7678E-03     39.7538E-03
            4460            4669     38.7678E-03     39.7538E-03
            4480            4670     35.4130E-03     36.3267E-03
            4461            4670     35.4130E-03     36.3267E-03
            4479            4670     35.4130E-03     36.3267E-03
            4462            4670     35.4130E-03     36.3267E-03
            4462            4671     32.0843E-03     32.9309E-03
            4481            4671     32.0843E-03     32.9309E-03
            4480            4671     32.0843E-03     32.9309E-03
            4463            4671     32.0843E-03     32.9309E-03
            4463            4672     28.7756E-03     29.5765E-03
            4481            4672     28.7756E-03     29.5765E-03
            4482            4672     28.7756E-03     29.5765E-03
            4464            4672     28.7756E-03     29.5765E-03
            4483            4673     25.4946E-03     26.2671E-03
            4482            4673     25.4946E-03     26.2671E-03
            4465            4673     25.4946E-03     26.2671E-03
            4464            4673     25.4946E-03     26.2671E-03
            4466            4674     22.2336E-03     23.0025E-03
            4484            4674     22.2336E-03     23.0025E-03
            4483            4674     22.2336E-03     23.0025E-03
            4465            4674     22.2336E-03     23.0025E-03
            4466            4675     18.9942E-03     19.7840E-03
            4485            4675     18.9942E-03     19.7840E-03
            4484            4675     18.9942E-03     19.7840E-03
            4467            4675     18.9942E-03     19.7840E-03
            4467            4676     15.7734E-03     16.6221E-03
            4485            4676     15.7734E-03     16.6221E-03
            4486            4676     15.7734E-03     16.6221E-03
            4468            4676     15.7734E-03     16.6221E-03
            4487            4677     12.5952E-03     13.5187E-03
            4468            4677     12.5952E-03     13.5187E-03
            4486            4677     12.5952E-03     13.5187E-03
            4469            4677     12.5952E-03     13.5187E-03
            4469            4678     9.49504E-03     10.4727E-03
            4487            4678     9.49504E-03     10.4727E-03
            4470            4678     9.49504E-03     10.4727E-03
            4488            4678     9.49504E-03     10.4727E-03
            4489            4679     6.60311E-03     7.56500E-03
            4470            4679     6.60311E-03     7.56500E-03
            4471            4679     6.60311E-03     7.56500E-03
            4488            4679     6.60311E-03     7.56500E-03
            4490            4680     4.39810E-03     4.95271E-03
            4471            4680     4.39810E-03     4.95271E-03
            4489            4680     4.39810E-03     4.95271E-03
            4472            4680     4.39810E-03     4.95271E-03
            4473            4681     52.6474E-03     53.2402E-03
            4491            4681     52.6474E-03     53.2402E-03
            4492            4681     52.6474E-03     53.2402E-03
            4474            4681     52.6474E-03     53.2402E-03
            4492            4682     50.2282E-03     51.1487E-03
            4475            4682     50.2282E-03     51.1487E-03
            4474            4682     50.2282E-03     51.1487E-03
            4493            4682     50.2282E-03     51.1487E-03
            4476            4683     47.5747E-03     48.5878E-03
            4493            4683     47.5747E-03     48.5878E-03
            4475            4683     47.5747E-03     48.5878E-03
            4494            4683     47.5747E-03     48.5878E-03
            4477            4684     44.6888E-03     45.6464E-03
            4476            4684     44.6888E-03     45.6464E-03
            4494            4684     44.6888E-03     45.6464E-03
            4495            4684     44.6888E-03     45.6464E-03
            4478            4685     41.5915E-03     42.4889E-03
            4477            4685     41.5915E-03     42.4889E-03
            4496            4685     41.5915E-03     42.4889E-03
            4495            4685     41.5915E-03     42.4889E-03
            4497            4686     38.4193E-03     39.2291E-03
            4478            4686     38.4193E-03     39.2291E-03
            4496            4686     38.4193E-03     39.2291E-03
            4479            4686     38.4193E-03     39.2291E-03
            4479            4687     35.1975E-03     35.9332E-03
            4498            4687     35.1975E-03     35.9332E-03
            4497            4687     35.1975E-03     35.9332E-03
            4480            4687     35.1975E-03     35.9332E-03
            4480            4688     31.9636E-03     32.6487E-03
            4498            4688     31.9636E-03     32.6487E-03
            4499            4688     31.9636E-03     32.6487E-03
            4481            4688     31.9636E-03     32.6487E-03
            4499            4689     28.7428E-03     29.3879E-03
            4482            4689     28.7428E-03     29.3879E-03
            4500            4689     28.7428E-03     29.3879E-03
            4481            4689     28.7428E-03     29.3879E-03
            4483            4690     25.5354E-03     26.1629E-03
            4500            4690     25.5354E-03     26.1629E-03
            4482            4690     25.5354E-03     26.1629E-03
            4501            4690     25.5354E-03     26.1629E-03
            4484            4691     22.3523E-03     22.9779E-03
            4483            4691     22.3523E-03     22.9779E-03
            4501            4691     22.3523E-03     22.9779E-03
            4502            4691     22.3523E-03     22.9779E-03
            4485            4692     19.1930E-03     19.8458E-03
            4484            4692     19.1930E-03     19.8458E-03
            4503            4692     19.1930E-03     19.8458E-03
            4502            4692     19.1930E-03     19.8458E-03
            4503            4693     16.0693E-03     16.7751E-03
            4504            4693     16.0693E-03     16.7751E-03
            4486            4693     16.0693E-03     16.7751E-03
            4485            4693     16.0693E-03     16.7751E-03
            4504            4694     12.9915E-03     13.8110E-03
            4487            4694     12.9915E-03     13.8110E-03
            4505            4694     12.9915E-03     13.8110E-03
            4486            4694     12.9915E-03     13.8110E-03
            4505            4695     10.0558E-03     10.9729E-03
            4488            4695     10.0558E-03     10.9729E-03
            4506            4695     10.0558E-03     10.9729E-03
            4487            4695     10.0558E-03     10.9729E-03
            4506            4696     7.42878E-03     8.27966E-03
            4489            4696     7.42878E-03     8.27966E-03
            4488            4696     7.42878E-03     8.27966E-03
            4507            4696     7.42878E-03     8.27966E-03
            4489            4697     5.56242E-03     6.10602E-03
            4490            4697     5.56242E-03     6.10602E-03
            4507            4697     5.56242E-03     6.10602E-03
            4508            4697     5.56242E-03     6.10602E-03
            4509            4698     50.8623E-03     51.5177E-03
            4491            4698     50.8623E-03     51.5177E-03
            4510            4698     50.8623E-03     51.5177E-03
            4492            4698     50.8623E-03     51.5177E-03
            4510            4699     48.7248E-03     49.5099E-03
            4493            4699     48.7248E-03     49.5099E-03
            4492            4699     48.7248E-03     49.5099E-03
            4511            4699     48.7248E-03     49.5099E-03
            4493            4700     46.2991E-03     47.0615E-03
            4511            4700     46.2991E-03     47.0615E-03
            4494            4700     46.2991E-03     47.0615E-03
            4512            4700     46.2991E-03     47.0615E-03
            4494            4701     43.5624E-03     44.2843E-03
            4513            4701     43.5624E-03     44.2843E-03
            4512            4701     43.5624E-03     44.2843E-03
            4495            4701     43.5624E-03     44.2843E-03
            4514            4702     40.7092E-03     41.3331E-03
            4495            4702     40.7092E-03     41.3331E-03
            4496            4702     40.7092E-03     41.3331E-03
            4513            4702     40.7092E-03     41.3331E-03
            4515            4703     37.7229E-03     38.2816E-03
            4497            4703     37.7229E-03     38.2816E-03
            4514            4703     37.7229E-03     38.2816E-03
            4496            4703     37.7229E-03     38.2816E-03
            4516            4704     34.6743E-03     35.1923E-03
            4498            4704     34.6743E-03     35.1923E-03
            4497            4704     34.6743E-03     35.1923E-03
            4515            4704     34.6743E-03     35.1923E-03
            4499            4705     31.5993E-03     32.0852E-03
            4517            4705     31.5993E-03     32.0852E-03
            4516            4705     31.5993E-03     32.0852E-03
            4498            4705     31.5993E-03     32.0852E-03
            4517            4706     28.5139E-03     28.9883E-03
            4499            4706     28.5139E-03     28.9883E-03
            4500            4706     28.5139E-03     28.9883E-03
            4518            4706     28.5139E-03     28.9883E-03
            4500            4707     25.4430E-03     25.9092E-03
            4519            4707     25.4430E-03     25.9092E-03
            4501            4707     25.4430E-03     25.9092E-03
            4518            4707     25.4430E-03     25.9092E-03
            4501            4708     22.3912E-03     22.8634E-03
            4502            4708     22.3912E-03     22.8634E-03
            4520            4708     22.3912E-03     22.8634E-03
            4519            4708     22.3912E-03     22.8634E-03
            4521            4709     19.3733E-03     19.8637E-03
            4503            4709     19.3733E-03     19.8637E-03
            4520            4709     19.3733E-03     19.8637E-03
            4502            4709     19.3733E-03     19.8637E-03
            4521            4710     16.4020E-03     16.9424E-03
            4504            4710     16.4020E-03     16.9424E-03
            4503            4710     16.4020E-03     16.9424E-03
            4522            4710     16.4020E-03     16.9424E-03
            4523            4711     13.5037E-03     14.1403E-03
            4504            4711     13.5037E-03     14.1403E-03
            4522            4711     13.5037E-03     14.1403E-03
            4505            4711     13.5037E-03     14.1403E-03
            4506            4712     10.7381E-03     11.5825E-03
            4523            4712     10.7381E-03     11.5825E-03
            4524            4712     10.7381E-03     11.5825E-03
            4505            4712     10.7381E-03     11.5825E-03
            4525            4713     8.39777E-03     9.29469E-03
            4524            4713     8.39777E-03     9.29469E-03
            4506            4713     8.39777E-03     9.29469E-03
            4507            4713     8.39777E-03     9.29469E-03
            4507            4714     6.85324E-03     7.34014E-03
            4508            4714     6.85324E-03     7.34014E-03
            4525            4714     6.85324E-03     7.34014E-03
            4526            4714     6.85324E-03     7.34014E-03
            4527            4715     48.9123E-03     49.0898E-03
            4509            4715     48.9123E-03     49.0898E-03
            4510            4715     48.9123E-03     49.0898E-03
            4528            4715     48.9123E-03     49.0898E-03
            4528            4716     46.9211E-03     47.2900E-03
            4510            4716     46.9211E-03     47.2900E-03
            4511            4716     46.9211E-03     47.2900E-03
            4529            4716     46.9211E-03     47.2900E-03
            4530            4717     44.5752E-03     44.9404E-03
            4529            4717     44.5752E-03     44.9404E-03
            4512            4717     44.5752E-03     44.9404E-03
            4511            4717     44.5752E-03     44.9404E-03
            4512            4718     42.1153E-03     42.4007E-03
            4513            4718     42.1153E-03     42.4007E-03
            4531            4718     42.1153E-03     42.4007E-03
            4530            4718     42.1153E-03     42.4007E-03
            4532            4719     39.4805E-03     39.7313E-03
            4513            4719     39.4805E-03     39.7313E-03
            4531            4719     39.4805E-03     39.7313E-03
            4514            4719     39.4805E-03     39.7313E-03
            4514            4720     36.7268E-03     36.9789E-03
            4533            4720     36.7268E-03     36.9789E-03
            4532            4720     36.7268E-03     36.9789E-03
            4515            4720     36.7268E-03     36.9789E-03
            4533            4721     33.9024E-03     34.1627E-03
            4516            4721     33.9024E-03     34.1627E-03
            4515            4721     33.9024E-03     34.1627E-03
            4534            4721     33.9024E-03     34.1627E-03
            4534            4722     31.0297E-03     31.3129E-03
            4535            4722     31.0297E-03     31.3129E-03
            4516            4722     31.0297E-03     31.3129E-03
            4517            4722     31.0297E-03     31.3129E-03
            4535            4723     28.1452E-03     28.4430E-03
            4518            4723     28.1452E-03     28.4430E-03
            4536            4723     28.1452E-03     28.4430E-03
            4517            4723     28.1452E-03     28.4430E-03
            4536            4724     25.2594E-03     25.5745E-03
            4537            4724     25.2594E-03     25.5745E-03
            4518            4724     25.2594E-03     25.5745E-03
            4519            4724     25.2594E-03     25.5745E-03
            4537            4725     22.3981E-03     22.7226E-03
            4520            4725     22.3981E-03     22.7226E-03
            4519            4725     22.3981E-03     22.7226E-03
            4538            4725     22.3981E-03     22.7226E-03
            4521            4726     19.5755E-03     19.9105E-03
            4520            4726     19.5755E-03     19.9105E-03
            4539            4726     19.5755E-03     19.9105E-03
            4538            4726     19.5755E-03     19.9105E-03
            4521            4727     16.8181E-03     17.1743E-03
            4540            4727     16.8181E-03     17.1743E-03
            4539            4727     16.8181E-03     17.1743E-03
            4522            4727     16.8181E-03     17.1743E-03
            4541            4728     14.1629E-03     14.5760E-03
            4522            4728     14.1629E-03     14.5760E-03
            4540            4728     14.1629E-03     14.5760E-03
            4523            4728     14.1629E-03     14.5760E-03
            4524            4729     11.6539E-03     12.2486E-03
            4542            4729     11.6539E-03     12.2486E-03
            4523            4729     11.6539E-03     12.2486E-03
            4541            4729     11.6539E-03     12.2486E-03
            4542            4730     9.46128E-03     10.4538E-03
            4543            4730     9.46128E-03     10.4538E-03
            4525            4730     9.46128E-03     10.4538E-03
            4524            4730     9.46128E-03     10.4538E-03
            4526            4731     8.21575E-03     9.06930E-03
            4543            4731     8.21575E-03     9.06930E-03
            4525            4731     8.21575E-03     9.06930E-03
            4544            4731     8.21575E-03     9.06930E-03
            4528            4732     46.4648E-03     45.8809E-03
            4527            4732     46.4648E-03     45.8809E-03
            4545            4732     46.4648E-03     45.8809E-03
            4546            4732     46.4648E-03     45.8809E-03
            4528            4733     44.6118E-03     44.2166E-03
            4547            4733     44.6118E-03     44.2166E-03
            4529            4733     44.6118E-03     44.2166E-03
            4546            4733     44.6118E-03     44.2166E-03
            4547            4734     42.5574E-03     42.1644E-03
            4529            4734     42.5574E-03     42.1644E-03
            4530            4734     42.5574E-03     42.1644E-03
            4548            4734     42.5574E-03     42.1644E-03
            4549            4735     40.3636E-03     40.0585E-03
            4548            4735     40.3636E-03     40.0585E-03
            4531            4735     40.3636E-03     40.0585E-03
            4530            4735     40.3636E-03     40.0585E-03
            4532            4736     37.9935E-03     37.8000E-03
            4549            4736     37.9935E-03     37.8000E-03
            4531            4736     37.9935E-03     37.8000E-03
            4550            4736     37.9935E-03     37.8000E-03
            4550            4737     35.5241E-03     35.4411E-03
            4533            4737     35.5241E-03     35.4411E-03
            4551            4737     35.5241E-03     35.4411E-03
            4532            4737     35.5241E-03     35.4411E-03
            4533            4738     32.9659E-03     32.9817E-03
            4552            4738     32.9659E-03     32.9817E-03
            4534            4738     32.9659E-03     32.9817E-03
            4551            4738     32.9659E-03     32.9817E-03
            4552            4739     30.3590E-03     30.4512E-03
            4535            4739     30.3590E-03     30.4512E-03
            4553            4739     30.3590E-03     30.4512E-03
            4534            4739     30.3590E-03     30.4512E-03
            4536            4740     27.7175E-03     27.8718E-03
            4553            4740     27.7175E-03     27.8718E-03
            4554            4740     27.7175E-03     27.8718E-03
            4535            4740     27.7175E-03     27.8718E-03
            4555            4741     25.0742E-03     25.2656E-03
            4536            4741     25.0742E-03     25.2656E-03
            4554            4741     25.0742E-03     25.2656E-03
            4537            4741     25.0742E-03     25.2656E-03
            4555            4742     22.4445E-03     22.6590E-03
            4537            4742     22.4445E-03     22.6590E-03
            4556            4742     22.4445E-03     22.6590E-03
            4538            4742     22.4445E-03     22.6590E-03
            4539            4743     19.8670E-03     20.0801E-03
            4557            4743     19.8670E-03     20.0801E-03
            4556            4743     19.8670E-03     20.0801E-03
            4538            4743     19.8670E-03     20.0801E-03
            4558            4744     17.3681E-03     17.5683E-03
            4539            4744     17.3681E-03     17.5683E-03
            4557            4744     17.3681E-03     17.5683E-03
            4540            4744     17.3681E-03     17.5683E-03
            4540            4745     15.0112E-03     15.1920E-03
            4559            4745     15.0112E-03     15.1920E-03
            4558            4745     15.0112E-03     15.1920E-03
            4541            4745     15.0112E-03     15.1920E-03
            4560            4746     12.8441E-03     13.0565E-03
            4542            4746     12.8441E-03     13.0565E-03
            4541            4746     12.8441E-03     13.0565E-03
            4559            4746     12.8441E-03     13.0565E-03
            4561            4747     10.9301E-03     11.4585E-03
            4560            4747     10.9301E-03     11.4585E-03
            4542            4747     10.9301E-03     11.4585E-03
            4543            4747     10.9301E-03     11.4585E-03
            4561            4748     9.48992E-03     10.7605E-03
            4544            4748     9.48992E-03     10.7605E-03
            4562            4748     9.48992E-03     10.7605E-03
            4543            4748     9.48992E-03     10.7605E-03
            4564            4749     44.7539E-03     45.7216E-03
            4546            4749     44.7539E-03     45.7216E-03
            4545            4749     44.7539E-03     45.7216E-03
            4563            4749     44.7539E-03     45.7216E-03
            4547            4750     40.5425E-03     40.6440E-03
            4565            4750     40.5425E-03     40.6440E-03
            4546            4750     40.5425E-03     40.6440E-03
            4564            4750     40.5425E-03     40.6440E-03
            4547            4751     37.6458E-03     37.6690E-03
            4548            4751     37.6458E-03     37.6690E-03
            4565            4751     37.6458E-03     37.6690E-03
            4566            4751     37.6458E-03     37.6690E-03
            4567            4752     34.9326E-03     35.0754E-03
            4549            4752     34.9326E-03     35.0754E-03
            4566            4752     34.9326E-03     35.0754E-03
            4548            4752     34.9326E-03     35.0754E-03
            4567            4753     32.4523E-03     32.6945E-03
            4549            4753     32.4523E-03     32.6945E-03
            4568            4753     32.4523E-03     32.6945E-03
            4550            4753     32.4523E-03     32.6945E-03
            4550            4754     30.0131E-03     30.4014E-03
            4569            4754     30.0131E-03     30.4014E-03
            4568            4754     30.0131E-03     30.4014E-03
            4551            4754     30.0131E-03     30.4014E-03
            4552            4755     27.6440E-03     28.1258E-03
            4569            4755     27.6440E-03     28.1258E-03
            4570            4755     27.6440E-03     28.1258E-03
            4551            4755     27.6440E-03     28.1258E-03
            4552            4756     25.2810E-03     25.8597E-03
            4570            4756     25.2810E-03     25.8597E-03
            4571            4756     25.2810E-03     25.8597E-03
            4553            4756     25.2810E-03     25.8597E-03
            4553            4757     22.9457E-03     23.5806E-03
            4572            4757     22.9457E-03     23.5806E-03
            4554            4757     22.9457E-03     23.5806E-03
            4571            4757     22.9457E-03     23.5806E-03
            4572            4758     20.6170E-03     21.2970E-03
            4573            4758     20.6170E-03     21.2970E-03
            4554            4758     20.6170E-03     21.2970E-03
            4555            4758     20.6170E-03     21.2970E-03
            4573            4759     18.3170E-03     19.0111E-03
            4556            4759     18.3170E-03     19.0111E-03
            4555            4759     18.3170E-03     19.0111E-03
            4574            4759     18.3170E-03     19.0111E-03
            4557            4760     16.0480E-03     16.7355E-03
            4575            4760     16.0480E-03     16.7355E-03
            4574            4760     16.0480E-03     16.7355E-03
            4556            4760     16.0480E-03     16.7355E-03
            4575            4761     13.8412E-03     14.4895E-03
            4576            4761     13.8412E-03     14.4895E-03
            4558            4761     13.8412E-03     14.4895E-03
            4557            4761     13.8412E-03     14.4895E-03
            4558            4762     11.7241E-03     12.3059E-03
            4576            4762     11.7241E-03     12.3059E-03
            4577            4762     11.7241E-03     12.3059E-03
            4559            4762     11.7241E-03     12.3059E-03
            4560            4763     9.74971E-03     10.2274E-03
            4559            4763     9.74971E-03     10.2274E-03
            4577            4763     9.74971E-03     10.2274E-03
            4578            4763     9.74971E-03     10.2274E-03
            4579            4764     7.98363E-03     8.41326E-03
            4561            4764     7.98363E-03     8.41326E-03
            4578            4764     7.98363E-03     8.41326E-03
            4560            4764     7.98363E-03     8.41326E-03
            4579            4765     6.30484E-03     7.23169E-03
            4562            4765     6.30484E-03     7.23169E-03
            4580            4765     6.30484E-03     7.23169E-03
            4561            4765     6.30484E-03     7.23169E-03
            4582            4766     45.6574E-03     46.4631E-03
            4564            4766     45.6574E-03     46.4631E-03
            4563            4766     45.6574E-03     46.4631E-03
            4581            4766     45.6574E-03     46.4631E-03
            4582            4767     38.8640E-03     39.9315E-03
            4565            4767     38.8640E-03     39.9315E-03
            4564            4767     38.8640E-03     39.9315E-03
            4583            4767     38.8640E-03     39.9315E-03
            4565            4768     34.3523E-03     35.3204E-03
            4566            4768     34.3523E-03     35.3204E-03
            4584            4768     34.3523E-03     35.3204E-03
            4583            4768     34.3523E-03     35.3204E-03
            4566            4769     31.0059E-03     31.9421E-03
            4585            4769     31.0059E-03     31.9421E-03
            4567            4769     31.0059E-03     31.9421E-03
            4584            4769     31.0059E-03     31.9421E-03
            4585            4770     28.0914E-03     29.0606E-03
            4568            4770     28.0914E-03     29.0606E-03
            4567            4770     28.0914E-03     29.0606E-03
            4586            4770     28.0914E-03     29.0606E-03
            4587            4771     25.5258E-03     26.5359E-03
            4568            4771     25.5258E-03     26.5359E-03
            4586            4771     25.5258E-03     26.5359E-03
            4569            4771     25.5258E-03     26.5359E-03
            4570            4772     23.1193E-03     24.1794E-03
            4569            4772     23.1193E-03     24.1794E-03
            4587            4772     23.1193E-03     24.1794E-03
            4588            4772     23.1193E-03     24.1794E-03
            4571            4773     20.8407E-03     21.9417E-03
            4588            4773     20.8407E-03     21.9417E-03
            4570            4773     20.8407E-03     21.9417E-03
            4589            4773     20.8407E-03     21.9417E-03
            4590            4774     18.6225E-03     19.7551E-03
            4589            4774     18.6225E-03     19.7551E-03
            4571            4774     18.6225E-03     19.7551E-03
            4572            4774     18.6225E-03     19.7551E-03
            4573            4775     16.4523E-03     17.6028E-03
            4590            4775     16.4523E-03     17.6028E-03
            4572            4775     16.4523E-03     17.6028E-03
            4591            4775     16.4523E-03     17.6028E-03
            4592            4776     14.3055E-03     15.4581E-03
            4591            4776     14.3055E-03     15.4581E-03
            4574            4776     14.3055E-03     15.4581E-03
            4573            4776     14.3055E-03     15.4581E-03
            4575            4777     12.1794E-03     13.3168E-03
            4574            4777     12.1794E-03     13.3168E-03
            4592            4777     12.1794E-03     13.3168E-03
            4593            4777     12.1794E-03     13.3168E-03
            4575            4778     10.0691E-03     11.1691E-03
            4594            4778     10.0691E-03     11.1691E-03
            4593            4778     10.0691E-03     11.1691E-03
            4576            4778     10.0691E-03     11.1691E-03
            4594            4779     7.98027E-03     9.01604E-03
            4595            4779     7.98027E-03     9.01604E-03
            4576            4779     7.98027E-03     9.01604E-03
            4577            4779     7.98027E-03     9.01604E-03
            4577            4780     5.92308E-03     6.86381E-03
            4595            4780     5.92308E-03     6.86381E-03
            4578            4780     5.92308E-03     6.86381E-03
            4596            4780     5.92308E-03     6.86381E-03
            4579            4781     3.93834E-03     4.73948E-03
            4578            4781     3.93834E-03     4.73948E-03
            4597            4781     3.93834E-03     4.73948E-03
            4596            4781     3.93834E-03     4.73948E-03
            4598            4782     2.11367E-03     2.92739E-03
            4580            4782     2.11367E-03     2.92739E-03
            4579            4782     2.11367E-03     2.92739E-03
            4597            4782     2.11367E-03     2.92739E-03
            4600            4783     45.6362E-03     45.7773E-03
            4581            4783     45.6362E-03     45.7773E-03
            4599            4783     45.6362E-03     45.7773E-03
            4582            4783     45.6362E-03     45.7773E-03
            4583            4784     40.4327E-03     41.0528E-03
            4600            4784     40.4327E-03     41.0528E-03
            4601            4784     40.4327E-03     41.0528E-03
            4582            4784     40.4327E-03     41.0528E-03
            4584            4785     35.5514E-03     36.4911E-03
            4602            4785     35.5514E-03     36.4911E-03
            4601            4785     35.5514E-03     36.4911E-03
            4583            4785     35.5514E-03     36.4911E-03
            4602            4786     31.9681E-03     32.9560E-03
            4603            4786     31.9681E-03     32.9560E-03
            4584            4786     31.9681E-03     32.9560E-03
            4585            4786     31.9681E-03     32.9560E-03
            4585            4787     28.9510E-03     29.9430E-03
            4586            4787     28.9510E-03     29.9430E-03
            4603            4787     28.9510E-03     29.9430E-03
            4604            4787     28.9510E-03     29.9430E-03
            4604            4788     26.2571E-03     27.2712E-03
            4587            4788     26.2571E-03     27.2712E-03
            4586            4788     26.2571E-03     27.2712E-03
            4605            4788     26.2571E-03     27.2712E-03
            4588            4789     23.7829E-03     24.8012E-03
            4605            4789     23.7829E-03     24.8012E-03
            4606            4789     23.7829E-03     24.8012E-03
            4587            4789     23.7829E-03     24.8012E-03
            4589            4790     21.4190E-03     22.4501E-03
            4607            4790     21.4190E-03     22.4501E-03
            4588            4790     21.4190E-03     22.4501E-03
            4606            4790     21.4190E-03     22.4501E-03
            4589            4791     19.1361E-03     20.1702E-03
            4590            4791     19.1361E-03     20.1702E-03
            4607            4791     19.1361E-03     20.1702E-03
            4608            4791     19.1361E-03     20.1702E-03
            4608            4792     16.8909E-03     17.9259E-03
            4609            4792     16.8909E-03     17.9259E-03
            4591            4792     16.8909E-03     17.9259E-03
            4590            4792     16.8909E-03     17.9259E-03
            4610            4793     14.6742E-03     15.7013E-03
            4592            4793     14.6742E-03     15.7013E-03
            4591            4793     14.6742E-03     15.7013E-03
            4609            4793     14.6742E-03     15.7013E-03
            4611            4794     12.4708E-03     13.4806E-03
            4610            4794     12.4708E-03     13.4806E-03
            4592            4794     12.4708E-03     13.4806E-03
            4593            4794     12.4708E-03     13.4806E-03
            4611            4795     10.2781E-03     11.2592E-03
            4612            4795     10.2781E-03     11.2592E-03
            4594            4795     10.2781E-03     11.2592E-03
            4593            4795     10.2781E-03     11.2592E-03
            4594            4796     8.09301E-03     9.03336E-03
            4612            4796     8.09301E-03     9.03336E-03
            4613            4796     8.09301E-03     9.03336E-03
            4595            4796     8.09301E-03     9.03336E-03
            4614            4797     5.91650E-03     6.80078E-03
            4613            4797     5.91650E-03     6.80078E-03
            4596            4797     5.91650E-03     6.80078E-03
            4595            4797     5.91650E-03     6.80078E-03
            4615            4798     3.72693E-03     4.61694E-03
            4597            4798     3.72693E-03     4.61694E-03
            4614            4798     3.72693E-03     4.61694E-03
            4596            4798     3.72693E-03     4.61694E-03
            4615            4799     1.66737E-03     2.55666E-03
            4597            4799     1.66737E-03     2.55666E-03
            4598            4799     1.66737E-03     2.55666E-03
            4616            4799     1.66737E-03     2.55666E-03
            4617            4800     44.0217E-03     44.7770E-03
            4599            4800     44.0217E-03     44.7770E-03
            4600            4800     44.0217E-03     44.7770E-03
            4618            4800     44.0217E-03     44.7770E-03
            4619            4801     40.3349E-03     40.9748E-03
            4618            4801     40.3349E-03     40.9748E-03
            4600            4801     40.3349E-03     40.9748E-03
            4601            4801     40.3349E-03     40.9748E-03
            4601            4802     36.3600E-03     37.1444E-03
            4620            4802     36.3600E-03     37.1444E-03
            4602            4802     36.3600E-03     37.1444E-03
            4619            4802     36.3600E-03     37.1444E-03
            4602            4803     32.7302E-03     33.6818E-03
            4620            4803     32.7302E-03     33.6818E-03
            4621            4803     32.7302E-03     33.6818E-03
            4603            4803     32.7302E-03     33.6818E-03
            4622            4804     29.7083E-03     30.6861E-03
            4604            4804     29.7083E-03     30.6861E-03
            4621            4804     29.7083E-03     30.6861E-03
            4603            4804     29.7083E-03     30.6861E-03
            4604            4805     26.9681E-03     27.9476E-03
            4623            4805     26.9681E-03     27.9476E-03
            4622            4805     26.9681E-03     27.9476E-03
            4605            4805     26.9681E-03     27.9476E-03
            4605            4806     24.4293E-03     25.4041E-03
            4624            4806     24.4293E-03     25.4041E-03
            4606            4806     24.4293E-03     25.4041E-03
            4623            4806     24.4293E-03     25.4041E-03
            4606            4807     22.0122E-03     22.9709E-03
            4607            4807     22.0122E-03     22.9709E-03
            4625            4807     22.0122E-03     22.9709E-03
            4624            4807     22.0122E-03     22.9709E-03
            4607            4808     19.6648E-03     20.6122E-03
            4608            4808     19.6648E-03     20.6122E-03
            4625            4808     19.6648E-03     20.6122E-03
            4626            4808     19.6648E-03     20.6122E-03
            4608            4809     17.3640E-03     18.2964E-03
            4627            4809     17.3640E-03     18.2964E-03
            4626            4809     17.3640E-03     18.2964E-03
            4609            4809     17.3640E-03     18.2964E-03
            4628            4810     15.0874E-03     16.0061E-03
            4610            4810     15.0874E-03     16.0061E-03
            4609            4810     15.0874E-03     16.0061E-03
            4627            4810     15.0874E-03     16.0061E-03
            4629            4811     12.8289E-03     13.7303E-03
            4628            4811     12.8289E-03     13.7303E-03
            4610            4811     12.8289E-03     13.7303E-03
            4611            4811     12.8289E-03     13.7303E-03
            4630            4812     10.5809E-03     11.4616E-03
            4629            4812     10.5809E-03     11.4616E-03
            4612            4812     10.5809E-03     11.4616E-03
            4611            4812     10.5809E-03     11.4616E-03
            4630            4813     8.34435E-03     9.19762E-03
            4612            4813     8.34435E-03     9.19762E-03
            4631            4813     8.34435E-03     9.19762E-03
            4613            4813     8.34435E-03     9.19762E-03
            4614            4814     6.11555E-03     6.94934E-03
            4631            4814     6.11555E-03     6.94934E-03
            4632            4814     6.11555E-03     6.94934E-03
            4613            4814     6.11555E-03     6.94934E-03
            4633            4815     3.91196E-03     4.74569E-03
            4615            4815     3.91196E-03     4.74569E-03
            4614            4815     3.91196E-03     4.74569E-03
            4632            4815     3.91196E-03     4.74569E-03
            4634            4816     1.99150E-03     2.56155E-03
            4633            4816     1.99150E-03     2.56155E-03
            4615            4816     1.99150E-03     2.56155E-03
            4616            4816     1.99150E-03     2.56155E-03
            4635            4817     42.5872E-03     43.0652E-03
            4618            4817     42.5872E-03     43.0652E-03
            4617            4817     42.5872E-03     43.0652E-03
            4636            4817     42.5872E-03     43.0652E-03
            4618            4818     39.4324E-03     40.1839E-03
            4637            4818     39.4324E-03     40.1839E-03
            4636            4818     39.4324E-03     40.1839E-03
            4619            4818     39.4324E-03     40.1839E-03
            4619            4819     36.2782E-03     37.0804E-03
            4637            4819     36.2782E-03     37.0804E-03
            4620            4819     36.2782E-03     37.0804E-03
            4638            4819     36.2782E-03     37.0804E-03
            4621            4820     33.1515E-03     34.0193E-03
            4639            4820     33.1515E-03     34.0193E-03
            4620            4820     33.1515E-03     34.0193E-03
            4638            4820     33.1515E-03     34.0193E-03
            4639            4821     30.2085E-03     31.1436E-03
            4621            4821     30.2085E-03     31.1436E-03
            4622            4821     30.2085E-03     31.1436E-03
            4640            4821     30.2085E-03     31.1436E-03
            4640            4822     27.5324E-03     28.4574E-03
            4623            4822     27.5324E-03     28.4574E-03
            4622            4822     27.5324E-03     28.4574E-03
            4641            4822     27.5324E-03     28.4574E-03
            4642            4823     24.9826E-03     25.8896E-03
            4623            4823     24.9826E-03     25.8896E-03
            4624            4823     24.9826E-03     25.8896E-03
            4641            4823     24.9826E-03     25.8896E-03
            4625            4824     22.5399E-03     23.4206E-03
            4624            4824     22.5399E-03     23.4206E-03
            4643            4824     22.5399E-03     23.4206E-03
            4642            4824     22.5399E-03     23.4206E-03
            4644            4825     20.1566E-03     21.0110E-03
            4625            4825     20.1566E-03     21.0110E-03
            4643            4825     20.1566E-03     21.0110E-03
            4626            4825     20.1566E-03     21.0110E-03
            4644            4826     17.8145E-03     18.6488E-03
            4627            4826     17.8145E-03     18.6488E-03
            4626            4826     17.8145E-03     18.6488E-03
            4645            4826     17.8145E-03     18.6488E-03
            4645            4827     15.5002E-03     16.3172E-03
            4627            4827     15.5002E-03     16.3172E-03
            4646            4827     15.5002E-03     16.3172E-03
            4628            4827     15.5002E-03     16.3172E-03
            4646            4828     13.2051E-03     14.0096E-03
            4629            4828     13.2051E-03     14.0096E-03
            4647            4828     13.2051E-03     14.0096E-03
            4628            4828     13.2051E-03     14.0096E-03
            4647            4829     10.9302E-03     11.7225E-03
            4629            4829     10.9302E-03     11.7225E-03
            4630            4829     10.9302E-03     11.7225E-03
            4648            4829     10.9302E-03     11.7225E-03
            4649            4830     8.67747E-03     9.45448E-03
            4630            4830     8.67747E-03     9.45448E-03
            4648            4830     8.67747E-03     9.45448E-03
            4631            4830     8.67747E-03     9.45448E-03
            4632            4831     6.46406E-03     7.22553E-03
            4649            4831     6.46406E-03     7.22553E-03
            4631            4831     6.46406E-03     7.22553E-03
            4650            4831     6.46406E-03     7.22553E-03
            4650            4832     4.37817E-03     5.03723E-03
            4632            4832     4.37817E-03     5.03723E-03
            4651            4832     4.37817E-03     5.03723E-03
            4633            4832     4.37817E-03     5.03723E-03
            4651            4833     2.72978E-03     3.05127E-03
            4633            4833     2.72978E-03     3.05127E-03
            4652            4833     2.72978E-03     3.05127E-03
            4634            4833     2.72978E-03     3.05127E-03
            4654            4834     40.9383E-03     41.4817E-03
            4635            4834     40.9383E-03     41.4817E-03
            4636            4834     40.9383E-03     41.4817E-03
            4653            4834     40.9383E-03     41.4817E-03
            4654            4835     38.4050E-03     39.0325E-03
            4637            4835     38.4050E-03     39.0325E-03
            4636            4835     38.4050E-03     39.0325E-03
            4655            4835     38.4050E-03     39.0325E-03
            4656            4836     35.7323E-03     36.5267E-03
            4655            4836     35.7323E-03     36.5267E-03
            4637            4836     35.7323E-03     36.5267E-03
            4638            4836     35.7323E-03     36.5267E-03
            4638            4837     33.0694E-03     33.9178E-03
            4639            4837     33.0694E-03     33.9178E-03
            4657            4837     33.0694E-03     33.9178E-03
            4656            4837     33.0694E-03     33.9178E-03
            4658            4838     30.4361E-03     31.2920E-03
            4639            4838     30.4361E-03     31.2920E-03
            4640            4838     30.4361E-03     31.2920E-03
            4657            4838     30.4361E-03     31.2920E-03
            4659            4839     27.8573E-03     28.7133E-03
            4641            4839     27.8573E-03     28.7133E-03
            4640            4839     27.8573E-03     28.7133E-03
            4658            4839     27.8573E-03     28.7133E-03
            4660            4840     25.3783E-03     26.1950E-03
            4641            4840     25.3783E-03     26.1950E-03
            4642            4840     25.3783E-03     26.1950E-03
            4659            4840     25.3783E-03     26.1950E-03
            4642            4841     22.9421E-03     23.7258E-03
            4660            4841     22.9421E-03     23.7258E-03
            4661            4841     22.9421E-03     23.7258E-03
            4643            4841     22.9421E-03     23.7258E-03
            4661            4842     20.5565E-03     21.3073E-03
            4662            4842     20.5565E-03     21.3073E-03
            4643            4842     20.5565E-03     21.3073E-03
            4644            4842     20.5565E-03     21.3073E-03
            4644            4843     18.1993E-03     18.9263E-03
            4645            4843     18.1993E-03     18.9263E-03
            4663            4843     18.1993E-03     18.9263E-03
            4662            4843     18.1993E-03     18.9263E-03
            4663            4844     15.8693E-03     16.5832E-03
            4664            4844     15.8693E-03     16.5832E-03
            4645            4844     15.8693E-03     16.5832E-03
            4646            4844     15.8693E-03     16.5832E-03
            4665            4845     13.5642E-03     14.2724E-03
            4647            4845     13.5642E-03     14.2724E-03
            4646            4845     13.5642E-03     14.2724E-03
            4664            4845     13.5642E-03     14.2724E-03
            4648            4846     11.2869E-03     11.9934E-03
            4666            4846     11.2869E-03     11.9934E-03
            4647            4846     11.2869E-03     11.9934E-03
            4665            4846     11.2869E-03     11.9934E-03
            4648            4847     9.05275E-03     9.75836E-03
            4667            4847     9.05275E-03     9.75836E-03
            4649            4847     9.05275E-03     9.75836E-03
            4666            4847     9.05275E-03     9.75836E-03
            4667            4848     6.90625E-03     7.56607E-03
            4650            4848     6.90625E-03     7.56607E-03
            4649            4848     6.90625E-03     7.56607E-03
            4668            4848     6.90625E-03     7.56607E-03
            4668            4849     4.94241E-03     5.49243E-03
            4669            4849     4.94241E-03     5.49243E-03
            4650            4849     4.94241E-03     5.49243E-03
            4651            4849     4.94241E-03     5.49243E-03
            4669            4850     3.53058E-03     3.72917E-03
            4651            4850     3.53058E-03     3.72917E-03
            4652            4850     3.53058E-03     3.72917E-03
            4670            4850     3.53058E-03     3.72917E-03
            4654            4851     39.3487E-03     39.7750E-03
            4653            4851     39.3487E-03     39.7750E-03
            4672            4851     39.3487E-03     39.7750E-03
            4671            4851     39.3487E-03     39.7750E-03
            4673            4852     37.1451E-03     37.7920E-03
            4672            4852     37.1451E-03     37.7920E-03
            4655            4852     37.1451E-03     37.7920E-03
            4654            4852     37.1451E-03     37.7920E-03
            4656            4853     34.9660E-03     35.6969E-03
            4673            4853     34.9660E-03     35.6969E-03
            4655            4853     34.9660E-03     35.6969E-03
            4674            4853     34.9660E-03     35.6969E-03
            4675            4854     32.6766E-03     33.4722E-03
            4656            4854     32.6766E-03     33.4722E-03
            4674            4854     32.6766E-03     33.4722E-03
            4657            4854     32.6766E-03     33.4722E-03
            4658            4855     30.3292E-03     31.1204E-03
            4676            4855     30.3292E-03     31.1204E-03
            4675            4855     30.3292E-03     31.1204E-03
            4657            4855     30.3292E-03     31.1204E-03
            4659            4856     27.9534E-03     28.6991E-03
            4658            4856     27.9534E-03     28.6991E-03
            4677            4856     27.9534E-03     28.6991E-03
            4676            4856     27.9534E-03     28.6991E-03
            4659            4857     25.5571E-03     26.2659E-03
            4677            4857     25.5571E-03     26.2659E-03
            4678            4857     25.5571E-03     26.2659E-03
            4660            4857     25.5571E-03     26.2659E-03
            4678            4858     23.1857E-03     23.8460E-03
            4661            4858     23.1857E-03     23.8460E-03
            4679            4858     23.1857E-03     23.8460E-03
            4660            4858     23.1857E-03     23.8460E-03
            4679            4859     20.8222E-03     21.4504E-03
            4661            4859     20.8222E-03     21.4504E-03
            4662            4859     20.8222E-03     21.4504E-03
            4680            4859     20.8222E-03     21.4504E-03
            4662            4860     18.4848E-03     19.0900E-03
            4681            4860     18.4848E-03     19.0900E-03
            4680            4860     18.4848E-03     19.0900E-03
            4663            4860     18.4848E-03     19.0900E-03
            4682            4861     16.1677E-03     16.7645E-03
            4681            4861     16.1677E-03     16.7645E-03
            4663            4861     16.1677E-03     16.7645E-03
            4664            4861     16.1677E-03     16.7645E-03
            4665            4862     13.8786E-03     14.4821E-03
            4683            4862     13.8786E-03     14.4821E-03
            4682            4862     13.8786E-03     14.4821E-03
            4664            4862     13.8786E-03     14.4821E-03
            4665            4863     11.6291E-03     12.2484E-03
            4683            4863     11.6291E-03     12.2484E-03
            4666            4863     11.6291E-03     12.2484E-03
            4684            4863     11.6291E-03     12.2484E-03
            4684            4864     9.44507E-03     10.0661E-03
            4685            4864     9.44507E-03     10.0661E-03
            4666            4864     9.44507E-03     10.0661E-03
            4667            4864     9.44507E-03     10.0661E-03
            4686            4865     7.37943E-03     7.97730E-03
            4668            4865     7.37943E-03     7.97730E-03
            4667            4865     7.37943E-03     7.97730E-03
            4685            4865     7.37943E-03     7.97730E-03
            4686            4866     5.57831E-03     6.02995E-03
            4669            4866     5.57831E-03     6.02995E-03
            4668            4866     5.57831E-03     6.02995E-03
            4687            4866     5.57831E-03     6.02995E-03
            4669            4867     4.34785E-03     4.47373E-03
            4687            4867     4.34785E-03     4.47373E-03
            4670            4867     4.34785E-03     4.47373E-03
            4688            4867     4.34785E-03     4.47373E-03
            4689            4868     37.5933E-03     38.0157E-03
            4690            4868     37.5933E-03     38.0157E-03
            4671            4868     37.5933E-03     38.0157E-03
            4672            4868     37.5933E-03     38.0157E-03
            4672            4869     35.8178E-03     36.3932E-03
            4690            4869     35.8178E-03     36.3932E-03
            4673            4869     35.8178E-03     36.3932E-03
            4691            4869     35.8178E-03     36.3932E-03
            4674            4870     33.9831E-03     34.6945E-03
            4673            4870     33.9831E-03     34.6945E-03
            4692            4870     33.9831E-03     34.6945E-03
            4691            4870     33.9831E-03     34.6945E-03
            4675            4871     32.0561E-03     32.7699E-03
            4693            4871     32.0561E-03     32.7699E-03
            4692            4871     32.0561E-03     32.7699E-03
            4674            4871     32.0561E-03     32.7699E-03
            4676            4872     29.9791E-03     30.6515E-03
            4693            4872     29.9791E-03     30.6515E-03
            4675            4872     29.9791E-03     30.6515E-03
            4694            4872     29.9791E-03     30.6515E-03
            4694            4873     27.7841E-03     28.4038E-03
            4677            4873     27.7841E-03     28.4038E-03
            4676            4873     27.7841E-03     28.4038E-03
            4695            4873     27.7841E-03     28.4038E-03
            4696            4874     25.5286E-03     26.0860E-03
            4678            4874     25.5286E-03     26.0860E-03
            4677            4874     25.5286E-03     26.0860E-03
            4695            4874     25.5286E-03     26.0860E-03
            4678            4875     23.2328E-03     23.7490E-03
            4696            4875     23.2328E-03     23.7490E-03
            4679            4875     23.2328E-03     23.7490E-03
            4697            4875     23.2328E-03     23.7490E-03
            4697            4876     20.9389E-03     21.4196E-03
            4679            4876     20.9389E-03     21.4196E-03
            4698            4876     20.9389E-03     21.4196E-03
            4680            4876     20.9389E-03     21.4196E-03
            4680            4877     18.6482E-03     19.1124E-03
            4681            4877     18.6482E-03     19.1124E-03
            4699            4877     18.6482E-03     19.1124E-03
            4698            4877     18.6482E-03     19.1124E-03
            4700            4878     16.3805E-03     16.8431E-03
            4681            4878     16.3805E-03     16.8431E-03
            4699            4878     16.3805E-03     16.8431E-03
            4682            4878     16.3805E-03     16.8431E-03
            4682            4879     14.1409E-03     14.6202E-03
            4683            4879     14.1409E-03     14.6202E-03
            4701            4879     14.1409E-03     14.6202E-03
            4700            4879     14.1409E-03     14.6202E-03
            4702            4880     11.9472E-03     12.4633E-03
            4684            4880     11.9472E-03     12.4633E-03
            4701            4880     11.9472E-03     12.4633E-03
            4683            4880     11.9472E-03     12.4633E-03
            4684            4881     9.83829E-03     10.3899E-03
            4703            4881     9.83829E-03     10.3899E-03
            4702            4881     9.83829E-03     10.3899E-03
            4685            4881     9.83829E-03     10.3899E-03
            4704            4882     7.88608E-03     8.41693E-03
            4686            4882     7.88608E-03     8.41693E-03
            4685            4882     7.88608E-03     8.41693E-03
            4703            4882     7.88608E-03     8.41693E-03
            4687            4883     6.23593E-03     6.65745E-03
            4704            4883     6.23593E-03     6.65745E-03
            4686            4883     6.23593E-03     6.65745E-03
            4705            4883     6.23593E-03     6.65745E-03
            4706            4884     5.17576E-03     5.27339E-03
            4705            4884     5.17576E-03     5.27339E-03
            4688            4884     5.17576E-03     5.27339E-03
            4687            4884     5.17576E-03     5.27339E-03
            4708            4885     35.7847E-03     36.1168E-03
            4690            4885     35.7847E-03     36.1168E-03
            4707            4885     35.7847E-03     36.1168E-03
            4689            4885     35.7847E-03     36.1168E-03
            4690            4886     34.3164E-03     34.8978E-03
            4709            4886     34.3164E-03     34.8978E-03
            4691            4886     34.3164E-03     34.8978E-03
            4708            4886     34.3164E-03     34.8978E-03
            4710            4887     32.8695E-03     33.4905E-03
            4692            4887     32.8695E-03     33.4905E-03
            4691            4887     32.8695E-03     33.4905E-03
            4709            4887     32.8695E-03     33.4905E-03
            4711            4888     31.2411E-03     31.8211E-03
            4692            4888     31.2411E-03     31.8211E-03
            4693            4888     31.2411E-03     31.8211E-03
            4710            4888     31.2411E-03     31.8211E-03
            4712            4889     29.3997E-03     29.9053E-03
            4693            4889     29.3997E-03     29.9053E-03
            4694            4889     29.3997E-03     29.9053E-03
            4711            4889     29.3997E-03     29.9053E-03
            4713            4890     27.3900E-03     27.8225E-03
            4712            4890     27.3900E-03     27.8225E-03
            4695            4890     27.3900E-03     27.8225E-03
            4694            4890     27.3900E-03     27.8225E-03
            4696            4891     25.2685E-03     25.6490E-03
            4714            4891     25.2685E-03     25.6490E-03
            4713            4891     25.2685E-03     25.6490E-03
            4695            4891     25.2685E-03     25.6490E-03
            4696            4892     23.0938E-03     23.4320E-03
            4715            4892     23.0938E-03     23.4320E-03
            4714            4892     23.0938E-03     23.4320E-03
            4697            4892     23.0938E-03     23.4320E-03
            4698            4893     20.8905E-03     21.2066E-03
            4697            4893     20.8905E-03     21.2066E-03
            4715            4893     20.8905E-03     21.2066E-03
            4716            4893     20.8905E-03     21.2066E-03
            4698            4894     18.6920E-03     18.9959E-03
            4716            4894     18.6920E-03     18.9959E-03
            4717            4894     18.6920E-03     18.9959E-03
            4699            4894     18.6920E-03     18.9959E-03
            4700            4895     16.5066E-03     16.8168E-03
            4699            4895     16.5066E-03     16.8168E-03
            4717            4895     16.5066E-03     16.8168E-03
            4718            4895     16.5066E-03     16.8168E-03
            4718            4896     14.3564E-03     14.6914E-03
            4701            4896     14.3564E-03     14.6914E-03
            4700            4896     14.3564E-03     14.6914E-03
            4719            4896     14.3564E-03     14.6914E-03
            4720            4897     12.2557E-03     12.6411E-03
            4701            4897     12.2557E-03     12.6411E-03
            4702            4897     12.2557E-03     12.6411E-03
            4719            4897     12.2557E-03     12.6411E-03
            4702            4898     10.2427E-03     10.7138E-03
            4721            4898     10.2427E-03     10.7138E-03
            4720            4898     10.2427E-03     10.7138E-03
            4703            4898     10.2427E-03     10.7138E-03
            4703            4899     8.42061E-03     8.93222E-03
            4722            4899     8.42061E-03     8.93222E-03
            4721            4899     8.42061E-03     8.93222E-03
            4704            4899     8.42061E-03     8.93222E-03
            4723            4900     6.93233E-03     7.33298E-03
            4704            4900     6.93233E-03     7.33298E-03
            4705            4900     6.93233E-03     7.33298E-03
            4722            4900     6.93233E-03     7.33298E-03
            4723            4901     6.00808E-03     6.16892E-03
            4724            4901     6.00808E-03     6.16892E-03
            4705            4901     6.00808E-03     6.16892E-03
            4706            4901     6.00808E-03     6.16892E-03
            4726            4902     33.7878E-03     34.1337E-03
            4708            4902     33.7878E-03     34.1337E-03
            4707            4902     33.7878E-03     34.1337E-03
            4725            4902     33.7878E-03     34.1337E-03
            4708            4903     32.7038E-03     33.1770E-03
            4709            4903     32.7038E-03     33.1770E-03
            4726            4903     32.7038E-03     33.1770E-03
            4727            4903     32.7038E-03     33.1770E-03
            4728            4904     31.6186E-03     32.0541E-03
            4709            4904     31.6186E-03     32.0541E-03
            4727            4904     31.6186E-03     32.0541E-03
            4710            4904     31.6186E-03     32.0541E-03
            4728            4905     30.2508E-03     30.5892E-03
            4710            4905     30.2508E-03     30.5892E-03
            4711            4905     30.2508E-03     30.5892E-03
            4729            4905     30.2508E-03     30.5892E-03
            4711            4906     28.6055E-03     28.8608E-03
            4729            4906     28.6055E-03     28.8608E-03
            4730            4906     28.6055E-03     28.8608E-03
            4712            4906     28.6055E-03     28.8608E-03
            4731            4907     26.7672E-03     26.9642E-03
            4730            4907     26.7672E-03     26.9642E-03
            4713            4907     26.7672E-03     26.9642E-03
            4712            4907     26.7672E-03     26.9642E-03
            4713            4908     24.8030E-03     24.9653E-03
            4732            4908     24.8030E-03     24.9653E-03
            4714            4908     24.8030E-03     24.9653E-03
            4731            4908     24.8030E-03     24.9653E-03
            4714            4909     22.7669E-03     22.9114E-03
            4733            4909     22.7669E-03     22.9114E-03
            4715            4909     22.7669E-03     22.9114E-03
            4732            4909     22.7669E-03     22.9114E-03
            4716            4910     20.6999E-03     20.8351E-03
            4715            4910     20.6999E-03     20.8351E-03
            4734            4910     20.6999E-03     20.8351E-03
            4733            4910     20.6999E-03     20.8351E-03
            4734            4911     18.6250E-03     18.7628E-03
            4716            4911     18.6250E-03     18.7628E-03
            4717            4911     18.6250E-03     18.7628E-03
            4735            4911     18.6250E-03     18.7628E-03
            4736            4912     16.5692E-03     16.7162E-03
            4718            4912     16.5692E-03     16.7162E-03
            4735            4912     16.5692E-03     16.7162E-03
            4717            4912     16.5692E-03     16.7162E-03
            4719            4913     14.5450E-03     14.7206E-03
            4718            4913     14.5450E-03     14.7206E-03
            4737            4913     14.5450E-03     14.7206E-03
            4736            4913     14.5450E-03     14.7206E-03
            4719            4914     12.5824E-03     12.8115E-03
            4738            4914     12.5824E-03     12.8115E-03
            4720            4914     12.5824E-03     12.8115E-03
            4737            4914     12.5824E-03     12.8115E-03
            4721            4915     10.7054E-03     11.0389E-03
            4739            4915     10.7054E-03     11.0389E-03
            4738            4915     10.7054E-03     11.0389E-03
            4720            4915     10.7054E-03     11.0389E-03
            4721            4916     8.99235E-03     9.50424E-03
            4722            4916     8.99235E-03     9.50424E-03
            4740            4916     8.99235E-03     9.50424E-03
            4739            4916     8.99235E-03     9.50424E-03
            4740            4917     7.67561E-03     8.18052E-03
            4741            4917     7.67561E-03     8.18052E-03
            4723            4917     7.67561E-03     8.18052E-03
            4722            4917     7.67561E-03     8.18052E-03
            4741            4918     6.89367E-03     7.07659E-03
            4723            4918     6.89367E-03     7.07659E-03
            4742            4918     6.89367E-03     7.07659E-03
            4724            4918     6.89367E-03     7.07659E-03
            4725            4919     31.6123E-03     31.6833E-03
            4726            4919     31.6123E-03     31.6833E-03
            4743            4919     31.6123E-03     31.6833E-03
            4744            4919     31.6123E-03     31.6833E-03
            4745            4920     31.0179E-03     31.1579E-03
            4727            4920     31.0179E-03     31.1579E-03
            4744            4920     31.0179E-03     31.1579E-03
            4726            4920     31.0179E-03     31.1579E-03
            4745            4921     30.2441E-03     30.2784E-03
            4727            4921     30.2441E-03     30.2784E-03
            4746            4921     30.2441E-03     30.2784E-03
            4728            4921     30.2441E-03     30.2784E-03
            4746            4922     29.0611E-03     29.0191E-03
            4728            4922     29.0611E-03     29.0191E-03
            4729            4922     29.0611E-03     29.0191E-03
            4747            4922     29.0611E-03     29.0191E-03
            4747            4923     27.5987E-03     27.5155E-03
            4748            4923     27.5987E-03     27.5155E-03
            4729            4923     27.5987E-03     27.5155E-03
            4730            4923     27.5987E-03     27.5155E-03
            4748            4924     25.9355E-03     25.8518E-03
            4730            4924     25.9355E-03     25.8518E-03
            4749            4924     25.9355E-03     25.8518E-03
            4731            4924     25.9355E-03     25.8518E-03
            4750            4925     24.1536E-03     24.0786E-03
            4749            4925     24.1536E-03     24.0786E-03
            4732            4925     24.1536E-03     24.0786E-03
            4731            4925     24.1536E-03     24.0786E-03
            4732            4926     22.2944E-03     22.2366E-03
            4733            4926     22.2944E-03     22.2366E-03
            4750            4926     22.2944E-03     22.2366E-03
            4751            4926     22.2944E-03     22.2366E-03
            4751            4927     20.3980E-03     20.3590E-03
            4752            4927     20.3980E-03     20.3590E-03
            4734            4927     20.3980E-03     20.3590E-03
            4733            4927     20.3980E-03     20.3590E-03
            4753            4928     18.4930E-03     18.4700E-03
            4752            4928     18.4930E-03     18.4700E-03
            4735            4928     18.4930E-03     18.4700E-03
            4734            4928     18.4930E-03     18.4700E-03
            4753            4929     16.6018E-03     16.5975E-03
            4754            4929     16.6018E-03     16.5975E-03
            4735            4929     16.6018E-03     16.5975E-03
            4736            4929     16.6018E-03     16.5975E-03
            4737            4930     14.7515E-03     14.7670E-03
            4755            4930     14.7515E-03     14.7670E-03
            4754            4930     14.7515E-03     14.7670E-03
            4736            4930     14.7515E-03     14.7670E-03
            4738            4931     12.9622E-03     13.0215E-03
            4755            4931     12.9622E-03     13.0215E-03
            4737            4931     12.9622E-03     13.0215E-03
            4756            4931     12.9622E-03     13.0215E-03
            4739            4932     11.2753E-03     11.4170E-03
            4756            4932     11.2753E-03     11.4170E-03
            4738            4932     11.2753E-03     11.4170E-03
            4757            4932     11.2753E-03     11.4170E-03
            4757            4933     9.71355E-03     10.0676E-03
            4739            4933     9.71355E-03     10.0676E-03
            4740            4933     9.71355E-03     10.0676E-03
            4758            4933     9.71355E-03     10.0676E-03
            4741            4934     8.41592E-03     9.13004E-03
            4740            4934     8.41592E-03     9.13004E-03
            4758            4934     8.41592E-03     9.13004E-03
            4759            4934     8.41592E-03     9.13004E-03
            4741            4935     7.81107E-03     8.37977E-03
            4742            4935     7.81107E-03     8.37977E-03
            4760            4935     7.81107E-03     8.37977E-03
            4759            4935     7.81107E-03     8.37977E-03
            4743            4936     29.3921E-03     28.6720E-03
            4762            4936     29.3921E-03     28.6720E-03
            4744            4936     29.3921E-03     28.6720E-03
            4761            4936     29.3921E-03     28.6720E-03
            4745            4937     29.3349E-03     28.6952E-03
            4763            4937     29.3349E-03     28.6952E-03
            4762            4937     29.3349E-03     28.6952E-03
            4744            4937     29.3349E-03     28.6952E-03
            4745            4938     28.7027E-03     28.0773E-03
            4763            4938     28.7027E-03     28.0773E-03
            4764            4938     28.7027E-03     28.0773E-03
            4746            4938     28.7027E-03     28.0773E-03
            4746            4939     27.6784E-03     27.1212E-03
            4747            4939     27.6784E-03     27.1212E-03
            4765            4939     27.6784E-03     27.1212E-03
            4764            4939     27.6784E-03     27.1212E-03
            4747            4940     26.3952E-03     25.9303E-03
            4765            4940     26.3952E-03     25.9303E-03
            4766            4940     26.3952E-03     25.9303E-03
            4748            4940     26.3952E-03     25.9303E-03
            4748            4941     24.9508E-03     24.5700E-03
            4766            4941     24.9508E-03     24.5700E-03
            4749            4941     24.9508E-03     24.5700E-03
            4767            4941     24.9508E-03     24.5700E-03
            4749            4942     23.3843E-03     23.0814E-03
            4767            4942     23.3843E-03     23.0814E-03
            4768            4942     23.3843E-03     23.0814E-03
            4750            4942     23.3843E-03     23.0814E-03
            4769            4943     21.7457E-03     21.5062E-03
            4750            4943     21.7457E-03     21.5062E-03
            4751            4943     21.7457E-03     21.5062E-03
            4768            4943     21.7457E-03     21.5062E-03
            4770            4944     20.0605E-03     19.8712E-03
            4752            4944     20.0605E-03     19.8712E-03
            4769            4944     20.0605E-03     19.8712E-03
            4751            4944     20.0605E-03     19.8712E-03
            4753            4945     18.3612E-03     18.2094E-03
            4771            4945     18.3612E-03     18.2094E-03
            4770            4945     18.3612E-03     18.2094E-03
            4752            4945     18.3612E-03     18.2094E-03
            4772            4946     16.6720E-03     16.5456E-03
            4771            4946     16.6720E-03     16.5456E-03
            4753            4946     16.6720E-03     16.5456E-03
            4754            4946     16.6720E-03     16.5456E-03
            4755            4947     15.0246E-03     14.9131E-03
            4773            4947     15.0246E-03     14.9131E-03
            4754            4947     15.0246E-03     14.9131E-03
            4772            4947     15.0246E-03     14.9131E-03
            4774            4948     13.4466E-03     13.3492E-03
            4773            4948     13.4466E-03     13.3492E-03
            4756            4948     13.4466E-03     13.3492E-03
            4755            4948     13.4466E-03     13.3492E-03
            4757            4949     11.9817E-03     11.9127E-03
            4774            4949     11.9817E-03     11.9127E-03
            4756            4949     11.9817E-03     11.9127E-03
            4775            4949     11.9817E-03     11.9127E-03
            4757            4950     10.6556E-03     10.6840E-03
            4776            4950     10.6556E-03     10.6840E-03
            4758            4950     10.6556E-03     10.6840E-03
            4775            4950     10.6556E-03     10.6840E-03
            4759            4951     9.47697E-03     9.87810E-03
            4777            4951     9.47697E-03     9.87810E-03
            4758            4951     9.47697E-03     9.87810E-03
            4776            4951     9.47697E-03     9.87810E-03
            4759            4952     8.58875E-03     9.66958E-03
            4777            4952     8.58875E-03     9.66958E-03
            4760            4952     8.58875E-03     9.66958E-03
            4778            4952     8.58875E-03     9.66958E-03
            4762            4953     27.9901E-03     28.6883E-03
            4780            4953     27.9901E-03     28.6883E-03
            4761            4953     27.9901E-03     28.6883E-03
            4779            4953     27.9901E-03     28.6883E-03
            4763            4954     25.1877E-03     25.2974E-03
            4780            4954     25.1877E-03     25.2974E-03
            4762            4954     25.1877E-03     25.2974E-03
            4781            4954     25.1877E-03     25.2974E-03
            4763            4955     23.3984E-03     23.4353E-03
            4764            4955     23.3984E-03     23.4353E-03
            4781            4955     23.3984E-03     23.4353E-03
            4782            4955     23.3984E-03     23.4353E-03
            4782            4956     21.7532E-03     21.8670E-03
            4783            4956     21.7532E-03     21.8670E-03
            4764            4956     21.7532E-03     21.8670E-03
            4765            4956     21.7532E-03     21.8670E-03
            4784            4957     20.2871E-03     20.4632E-03
            4766            4957     20.2871E-03     20.4632E-03
            4783            4957     20.2871E-03     20.4632E-03
            4765            4957     20.2871E-03     20.4632E-03
            4785            4958     18.8520E-03     19.1232E-03
            4784            4958     18.8520E-03     19.1232E-03
            4767            4958     18.8520E-03     19.1232E-03
            4766            4958     18.8520E-03     19.1232E-03
            4785            4959     17.4669E-03     17.8005E-03
            4786            4959     17.4669E-03     17.8005E-03
            4767            4959     17.4669E-03     17.8005E-03
            4768            4959     17.4669E-03     17.8005E-03
            4768            4960     16.0819E-03     16.4781E-03
            4787            4960     16.0819E-03     16.4781E-03
            4786            4960     16.0819E-03     16.4781E-03
            4769            4960     16.0819E-03     16.4781E-03
            4788            4961     14.7126E-03     15.1473E-03
            4770            4961     14.7126E-03     15.1473E-03
            4787            4961     14.7126E-03     15.1473E-03
            4769            4961     14.7126E-03     15.1473E-03
            4788            4962     13.3471E-03     13.8118E-03
            4770            4962     13.3471E-03     13.8118E-03
            4771            4962     13.3471E-03     13.8118E-03
            4789            4962     13.3471E-03     13.8118E-03
            4789            4963     12.0007E-03     12.4768E-03
            4771            4963     12.0007E-03     12.4768E-03
            4772            4963     12.0007E-03     12.4768E-03
            4790            4963     12.0007E-03     12.4768E-03
            4772            4964     10.6823E-03     11.1591E-03
            4791            4964     10.6823E-03     11.1591E-03
            4773            4964     10.6823E-03     11.1591E-03
            4790            4964     10.6823E-03     11.1591E-03
            4792            4965     9.41229E-03     9.86967E-03
            4791            4965     9.41229E-03     9.86967E-03
            4773            4965     9.41229E-03     9.86967E-03
            4774            4965     9.41229E-03     9.86967E-03
            4775            4966     8.21583E-03     8.65130E-03
            4792            4966     8.21583E-03     8.65130E-03
            4793            4966     8.21583E-03     8.65130E-03
            4774            4966     8.21583E-03     8.65130E-03
            4776            4967     7.12607E-03     7.52169E-03
            4775            4967     7.12607E-03     7.52169E-03
            4793            4967     7.12607E-03     7.52169E-03
            4794            4967     7.12607E-03     7.52169E-03
            4794            4968     6.19813E-03     6.63064E-03
            4776            4968     6.19813E-03     6.63064E-03
            4777            4968     6.19813E-03     6.63064E-03
            4795            4968     6.19813E-03     6.63064E-03
            4796            4969     5.33353E-03     6.19174E-03
            4777            4969     5.33353E-03     6.19174E-03
            4778            4969     5.33353E-03     6.19174E-03
            4795            4969     5.33353E-03     6.19174E-03
            4779            4970     28.2491E-03     29.1582E-03
            4798            4970     28.2491E-03     29.1582E-03
            4780            4970     28.2491E-03     29.1582E-03
            4797            4970     28.2491E-03     29.1582E-03
            4798            4971     22.5451E-03     23.6486E-03
            4799            4971     22.5451E-03     23.6486E-03
            4780            4971     22.5451E-03     23.6486E-03
            4781            4971     22.5451E-03     23.6486E-03
            4781            4972     19.1355E-03     20.1528E-03
            4782            4972     19.1355E-03     20.1528E-03
            4799            4972     19.1355E-03     20.1528E-03
            4800            4972     19.1355E-03     20.1528E-03
            4801            4973     16.8467E-03     17.8226E-03
            4782            4973     16.8467E-03     17.8226E-03
            4783            4973     16.8467E-03     17.8226E-03
            4800            4973     16.8467E-03     17.8226E-03
            4783            4974     15.0024E-03     15.9845E-03
            4802            4974     15.0024E-03     15.9845E-03
            4784            4974     15.0024E-03     15.9845E-03
            4801            4974     15.0024E-03     15.9845E-03
            4803            4975     13.4930E-03     14.4886E-03
            4784            4975     13.4930E-03     14.4886E-03
            4802            4975     13.4930E-03     14.4886E-03
            4785            4975     13.4930E-03     14.4886E-03
            4804            4976     12.1422E-03     13.1566E-03
            4785            4976     12.1422E-03     13.1566E-03
            4786            4976     12.1422E-03     13.1566E-03
            4803            4976     12.1422E-03     13.1566E-03
            4805            4977     10.9079E-03     11.9369E-03
            4786            4977     10.9079E-03     11.9369E-03
            4804            4977     10.9079E-03     11.9369E-03
            4787            4977     10.9079E-03     11.9369E-03
            4788            4978     9.72984E-03     10.7668E-03
            4806            4978     9.72984E-03     10.7668E-03
            4805            4978     9.72984E-03     10.7668E-03
            4787            4978     9.72984E-03     10.7668E-03
            4806            4979     8.59312E-03     9.63085E-03
            4788            4979     8.59312E-03     9.63085E-03
            4807            4979     8.59312E-03     9.63085E-03
            4789            4979     8.59312E-03     9.63085E-03
            4790            4980     7.47901E-03     8.50764E-03
            4808            4980     7.47901E-03     8.50764E-03
            4807            4980     7.47901E-03     8.50764E-03
            4789            4980     7.47901E-03     8.50764E-03
            4790            4981     6.38798E-03     7.39565E-03
            4791            4981     6.38798E-03     7.39565E-03
            4808            4981     6.38798E-03     7.39565E-03
            4809            4981     6.38798E-03     7.39565E-03
            4792            4982     5.32027E-03     6.29274E-03
            4810            4982     5.32027E-03     6.29274E-03
            4809            4982     5.32027E-03     6.29274E-03
            4791            4982     5.32027E-03     6.29274E-03
            4810            4983     4.29386E-03     5.20854E-03
            4792            4983     4.29386E-03     5.20854E-03
            4811            4983     4.29386E-03     5.20854E-03
            4793            4983     4.29386E-03     5.20854E-03
            4793            4984     3.33889E-03     4.16336E-03
            4811            4984     3.33889E-03     4.16336E-03
            4812            4984     3.33889E-03     4.16336E-03
            4794            4984     3.33889E-03     4.16336E-03
            4795            4985     2.54010E-03     3.22215E-03
            4794            4985     2.54010E-03     3.22215E-03
            4812            4985     2.54010E-03     3.22215E-03
            4813            4985     2.54010E-03     3.22215E-03
            4813            4986     2.11038E-03     2.47649E-03
            4796            4986     2.11038E-03     2.47649E-03
            4795            4986     2.11038E-03     2.47649E-03
            4814            4986     2.11038E-03     2.47649E-03
            4797            4987     27.5040E-03     27.5495E-03
            4798            4987     27.5040E-03     27.5495E-03
            4816            4987     27.5040E-03     27.5495E-03
            4815            4987     27.5040E-03     27.5495E-03
            4816            4988     23.2857E-03     23.7475E-03
            4799            4988     23.2857E-03     23.7475E-03
            4798            4988     23.2857E-03     23.7475E-03
            4817            4988     23.2857E-03     23.7475E-03
            4817            4989     19.6648E-03     20.4348E-03
            4799            4989     19.6648E-03     20.4348E-03
            4818            4989     19.6648E-03     20.4348E-03
            4800            4989     19.6648E-03     20.4348E-03
            4819            4990     17.2815E-03     18.1219E-03
            4818            4990     17.2815E-03     18.1219E-03
            4801            4990     17.2815E-03     18.1219E-03
            4800            4990     17.2815E-03     18.1219E-03
            4801            4991     15.4464E-03     16.3015E-03
            4802            4991     15.4464E-03     16.3015E-03
            4819            4991     15.4464E-03     16.3015E-03
            4820            4991     15.4464E-03     16.3015E-03
            4820            4992     13.9109E-03     14.7832E-03
            4821            4992     13.9109E-03     14.7832E-03
            4802            4992     13.9109E-03     14.7832E-03
            4803            4992     13.9109E-03     14.7832E-03
            4804            4993     12.5721E-03     13.4422E-03
            4821            4993     12.5721E-03     13.4422E-03
            4822            4993     12.5721E-03     13.4422E-03
            4803            4993     12.5721E-03     13.4422E-03
            4822            4994     11.3284E-03     12.1988E-03
            4804            4994     11.3284E-03     12.1988E-03
            4805            4994     11.3284E-03     12.1988E-03
            4823            4994     11.3284E-03     12.1988E-03
            4806            4995     10.1526E-03     11.0154E-03
            4823            4995     10.1526E-03     11.0154E-03
            4805            4995     10.1526E-03     11.0154E-03
            4824            4995     10.1526E-03     11.0154E-03
            4807            4996     9.01038E-03     9.86266E-03
            4825            4996     9.01038E-03     9.86266E-03
            4824            4996     9.01038E-03     9.86266E-03
            4806            4996     9.01038E-03     9.86266E-03
            4825            4997     7.89870E-03     8.73204E-03
            4808            4997     7.89870E-03     8.73204E-03
            4826            4997     7.89870E-03     8.73204E-03
            4807            4997     7.89870E-03     8.73204E-03
            4827            4998     6.81233E-03     7.61661E-03
            4808            4998     6.81233E-03     7.61661E-03
            4809            4998     6.81233E-03     7.61661E-03
            4826            4998     6.81233E-03     7.61661E-03
            4810            4999     5.76331E-03     6.52048E-03
            4827            4999     5.76331E-03     6.52048E-03
            4809            4999     5.76331E-03     6.52048E-03
            4828            4999     5.76331E-03     6.52048E-03
            4828            5000     4.77068E-03     5.45268E-03
            4829            5000     4.77068E-03     5.45268E-03
            4810            5000     4.77068E-03     5.45268E-03
            4811            5000     4.77068E-03     5.45268E-03
            4811            5001     3.87750E-03     4.44394E-03
            4829            5001     3.87750E-03     4.44394E-03
            4830            5001     3.87750E-03     4.44394E-03
            4812            5001     3.87750E-03     4.44394E-03
            4813            5002     3.18193E-03     3.53465E-03
            4812            5002     3.18193E-03     3.53465E-03
            4830            5002     3.18193E-03     3.53465E-03
            4831            5002     3.18193E-03     3.53465E-03
            4831            5003     2.84769E-03     2.82789E-03
            4813            5003     2.84769E-03     2.82789E-03
            4814            5003     2.84769E-03     2.82789E-03
            4832            5003     2.84769E-03     2.82789E-03
            4833            5004     25.4327E-03     25.8970E-03
            4816            5004     25.4327E-03     25.8970E-03
            4834            5004     25.4327E-03     25.8970E-03
            4815            5004     25.4327E-03     25.8970E-03
            4835            5005     22.6204E-03     22.9905E-03
            4816            5005     22.6204E-03     22.9905E-03
            4834            5005     22.6204E-03     22.9905E-03
            4817            5005     22.6204E-03     22.9905E-03
            4817            5006     19.8773E-03     20.3955E-03
            4835            5006     19.8773E-03     20.3955E-03
            4818            5006     19.8773E-03     20.3955E-03
            4836            5006     19.8773E-03     20.3955E-03
            4818            5007     17.5733E-03     18.2564E-03
            4836            5007     17.5733E-03     18.2564E-03
            4837            5007     17.5733E-03     18.2564E-03
            4819            5007     17.5733E-03     18.2564E-03
            4819            5008     15.8298E-03     16.5542E-03
            4837            5008     15.8298E-03     16.5542E-03
            4838            5008     15.8298E-03     16.5542E-03
            4820            5008     15.8298E-03     16.5542E-03
            4838            5009     14.3384E-03     15.0687E-03
            4839            5009     14.3384E-03     15.0687E-03
            4820            5009     14.3384E-03     15.0687E-03
            4821            5009     14.3384E-03     15.0687E-03
            4840            5010     13.0060E-03     13.7340E-03
            4839            5010     13.0060E-03     13.7340E-03
            4821            5010     13.0060E-03     13.7340E-03
            4822            5010     13.0060E-03     13.7340E-03
            4841            5011     11.7695E-03     12.4808E-03
            4840            5011     11.7695E-03     12.4808E-03
            4823            5011     11.7695E-03     12.4808E-03
            4822            5011     11.7695E-03     12.4808E-03
            4841            5012     10.5840E-03     11.2812E-03
            4842            5012     10.5840E-03     11.2812E-03
            4824            5012     10.5840E-03     11.2812E-03
            4823            5012     10.5840E-03     11.2812E-03
            4843            5013     9.43881E-03     10.1162E-03
            4825            5013     9.43881E-03     10.1162E-03
            4824            5013     9.43881E-03     10.1162E-03
            4842            5013     9.43881E-03     10.1162E-03
            4825            5014     8.32279E-03     8.97718E-03
            4844            5014     8.32279E-03     8.97718E-03
            4826            5014     8.32279E-03     8.97718E-03
            4843            5014     8.32279E-03     8.97718E-03
            4827            5015     7.24259E-03     7.86300E-03
            4845            5015     7.24259E-03     7.86300E-03
            4844            5015     7.24259E-03     7.86300E-03
            4826            5015     7.24259E-03     7.86300E-03
            4827            5016     6.20983E-03     6.77747E-03
            4845            5016     6.20983E-03     6.77747E-03
            4846            5016     6.20983E-03     6.77747E-03
            4828            5016     6.20983E-03     6.77747E-03
            4829            5017     5.25077E-03     5.73329E-03
            4846            5017     5.25077E-03     5.73329E-03
            4828            5017     5.25077E-03     5.73329E-03
            4847            5017     5.25077E-03     5.73329E-03
            4847            5018     4.41637E-03     4.75615E-03
            4848            5018     4.41637E-03     4.75615E-03
            4829            5018     4.41637E-03     4.75615E-03
            4830            5018     4.41637E-03     4.75615E-03
            4831            5019     3.79674E-03     3.89112E-03
            4849            5019     3.79674E-03     3.89112E-03
            4848            5019     3.79674E-03     3.89112E-03
            4830            5019     3.79674E-03     3.89112E-03
            4850            5020     3.46336E-03     3.28154E-03
            4832            5020     3.46336E-03     3.28154E-03
            4831            5020     3.46336E-03     3.28154E-03
            4849            5020     3.46336E-03     3.28154E-03
            4834            5021     23.5807E-03     23.8186E-03
            4852            5021     23.5807E-03     23.8186E-03
            4833            5021     23.5807E-03     23.8186E-03
            4851            5021     23.5807E-03     23.8186E-03
            4834            5022     21.3129E-03     21.7405E-03
            4835            5022     21.3129E-03     21.7405E-03
            4852            5022     21.3129E-03     21.7405E-03
            4853            5022     21.3129E-03     21.7405E-03
            4836            5023     19.3694E-03     19.8498E-03
            4835            5023     19.3694E-03     19.8498E-03
            4854            5023     19.3694E-03     19.8498E-03
            4853            5023     19.3694E-03     19.8498E-03
            4836            5024     17.6095E-03     18.1496E-03
            4855            5024     17.6095E-03     18.1496E-03
            4837            5024     17.6095E-03     18.1496E-03
            4854            5024     17.6095E-03     18.1496E-03
            4837            5025     16.0382E-03     16.6347E-03
            4838            5025     16.0382E-03     16.6347E-03
            4855            5025     16.0382E-03     16.6347E-03
            4856            5025     16.0382E-03     16.6347E-03
            4838            5026     14.6729E-03     15.2638E-03
            4857            5026     14.6729E-03     15.2638E-03
            4839            5026     14.6729E-03     15.2638E-03
            4856            5026     14.6729E-03     15.2638E-03
            4840            5027     13.3898E-03     13.9641E-03
            4857            5027     13.3898E-03     13.9641E-03
            4839            5027     13.3898E-03     13.9641E-03
            4858            5027     13.3898E-03     13.9641E-03
            4840            5028     12.1703E-03     12.7242E-03
            4841            5028     12.1703E-03     12.7242E-03
            4858            5028     12.1703E-03     12.7242E-03
            4859            5028     12.1703E-03     12.7242E-03
            4841            5029     10.9898E-03     11.5207E-03
            4842            5029     10.9898E-03     11.5207E-03
            4860            5029     10.9898E-03     11.5207E-03
            4859            5029     10.9898E-03     11.5207E-03
            4842            5030     9.84162E-03     10.3520E-03
            4861            5030     9.84162E-03     10.3520E-03
            4843            5030     9.84162E-03     10.3520E-03
            4860            5030     9.84162E-03     10.3520E-03
            4862            5031     8.72690E-03     9.21397E-03
            4844            5031     8.72690E-03     9.21397E-03
            4861            5031     8.72690E-03     9.21397E-03
            4843            5031     8.72690E-03     9.21397E-03
            4862            5032     7.65357E-03     8.10962E-03
            4863            5032     7.65357E-03     8.10962E-03
            4844            5032     7.65357E-03     8.10962E-03
            4845            5032     7.65357E-03     8.10962E-03
            4845            5033     6.63774E-03     7.04472E-03
            4846            5033     6.63774E-03     7.04472E-03
            4863            5033     6.63774E-03     7.04472E-03
            4864            5033     6.63774E-03     7.04472E-03
            4865            5034     5.71135E-03     6.03514E-03
            4846            5034     5.71135E-03     6.03514E-03
            4847            5034     5.71135E-03     6.03514E-03
            4864            5034     5.71135E-03     6.03514E-03
            4866            5035     4.92363E-03     5.10003E-03
            4847            5035     4.92363E-03     5.10003E-03
            4865            5035     4.92363E-03     5.10003E-03
            4848            5035     4.92363E-03     5.10003E-03
            4849            5036     4.33062E-03     4.31763E-03
            4866            5036     4.33062E-03     4.31763E-03
            4867            5036     4.33062E-03     4.31763E-03
            4848            5036     4.33062E-03     4.31763E-03
            4867            5037     4.02148E-03     3.78547E-03
            4868            5037     4.02148E-03     3.78547E-03
            4849            5037     4.02148E-03     3.78547E-03
            4850            5037     4.02148E-03     3.78547E-03
            4869            5038     21.6052E-03     21.8699E-03
            4870            5038     21.6052E-03     21.8699E-03
            4851            5038     21.6052E-03     21.8699E-03
            4852            5038     21.6052E-03     21.8699E-03
            4852            5039     19.9438E-03     20.2673E-03
            4870            5039     19.9438E-03     20.2673E-03
            4871            5039     19.9438E-03     20.2673E-03
            4853            5039     19.9438E-03     20.2673E-03
            4853            5040     18.5312E-03     18.9758E-03
            4871            5040     18.5312E-03     18.9758E-03
            4872            5040     18.5312E-03     18.9758E-03
            4854            5040     18.5312E-03     18.9758E-03
            4873            5041     17.2806E-03     17.7538E-03
            4854            5041     17.2806E-03     17.7538E-03
            4872            5041     17.2806E-03     17.7538E-03
            4855            5041     17.2806E-03     17.7538E-03
            4874            5042     16.0671E-03     16.5275E-03
            4856            5042     16.0671E-03     16.5275E-03
            4855            5042     16.0671E-03     16.5275E-03
            4873            5042     16.0671E-03     16.5275E-03
            4875            5043     14.8540E-03     15.3012E-03
            4874            5043     14.8540E-03     15.3012E-03
            4857            5043     14.8540E-03     15.3012E-03
            4856            5043     14.8540E-03     15.3012E-03
            4857            5044     13.6701E-03     14.0838E-03
            4875            5044     13.6701E-03     14.0838E-03
            4876            5044     13.6701E-03     14.0838E-03
            4858            5044     13.6701E-03     14.0838E-03
            4858            5045     12.4878E-03     12.8751E-03
            4876            5045     12.4878E-03     12.8751E-03
            4877            5045     12.4878E-03     12.8751E-03
            4859            5045     12.4878E-03     12.8751E-03
            4877            5046     11.3282E-03     11.6920E-03
            4859            5046     11.3282E-03     11.6920E-03
            4878            5046     11.3282E-03     11.6920E-03
            4860            5046     11.3282E-03     11.6920E-03
            4878            5047     10.1903E-03     10.5348E-03
            4879            5047     10.1903E-03     10.5348E-03
            4860            5047     10.1903E-03     10.5348E-03
            4861            5047     10.1903E-03     10.5348E-03
            4879            5048     9.08624E-03     9.41345E-03
            4862            5048     9.08624E-03     9.41345E-03
            4861            5048     9.08624E-03     9.41345E-03
            4880            5048     9.08624E-03     9.41345E-03
            4880            5049     8.02607E-03     8.33436E-03
            4881            5049     8.02607E-03     8.33436E-03
            4862            5049     8.02607E-03     8.33436E-03
            4863            5049     8.02607E-03     8.33436E-03
            4882            5050     7.03334E-03     7.30767E-03
            4863            5050     7.03334E-03     7.30767E-03
            4881            5050     7.03334E-03     7.30767E-03
            4864            5050     7.03334E-03     7.30767E-03
            4883            5051     6.13720E-03     6.34406E-03
            4882            5051     6.13720E-03     6.34406E-03
            4865            5051     6.13720E-03     6.34406E-03
            4864            5051     6.13720E-03     6.34406E-03
            4865            5052     5.38351E-03     5.48230E-03
            4884            5052     5.38351E-03     5.48230E-03
            4883            5052     5.38351E-03     5.48230E-03
            4866            5052     5.38351E-03     5.48230E-03
            4885            5053     4.83468E-03     4.75914E-03
            4866            5053     4.83468E-03     4.75914E-03
            4867            5053     4.83468E-03     4.75914E-03
            4884            5053     4.83468E-03     4.75914E-03
            4885            5054     4.53964E-03     4.27802E-03
            4886            5054     4.53964E-03     4.27802E-03
            4867            5054     4.53964E-03     4.27802E-03
            4868            5054     4.53964E-03     4.27802E-03
            4888            5055     19.6813E-03     19.8420E-03
            4870            5055     19.6813E-03     19.8420E-03
            4887            5055     19.6813E-03     19.8420E-03
            4869            5055     19.6813E-03     19.8420E-03
            4889            5056     18.4196E-03     18.7459E-03
            4888            5056     18.4196E-03     18.7459E-03
            4871            5056     18.4196E-03     18.7459E-03
            4870            5056     18.4196E-03     18.7459E-03
            4872            5057     17.5770E-03     17.9456E-03
            4890            5057     17.5770E-03     17.9456E-03
            4889            5057     17.5770E-03     17.9456E-03
            4871            5057     17.5770E-03     17.9456E-03
            4873            5058     16.7713E-03     17.1470E-03
            4890            5058     16.7713E-03     17.1470E-03
            4872            5058     16.7713E-03     17.1470E-03
            4891            5058     16.7713E-03     17.1470E-03
            4892            5059     15.8881E-03     16.2203E-03
            4874            5059     15.8881E-03     16.2203E-03
            4891            5059     15.8881E-03     16.2203E-03
            4873            5059     15.8881E-03     16.2203E-03
            4874            5060     14.8915E-03     15.1672E-03
            4892            5060     14.8915E-03     15.1672E-03
            4893            5060     14.8915E-03     15.1672E-03
            4875            5060     14.8915E-03     15.1672E-03
            4894            5061     13.8041E-03     14.0462E-03
            4875            5061     13.8041E-03     14.0462E-03
            4876            5061     13.8041E-03     14.0462E-03
            4893            5061     13.8041E-03     14.0462E-03
            4876            5062     12.6932E-03     12.9028E-03
            4895            5062     12.6932E-03     12.9028E-03
            4894            5062     12.6932E-03     12.9028E-03
            4877            5062     12.6932E-03     12.9028E-03
            4877            5063     11.5690E-03     11.7593E-03
            4896            5063     11.5690E-03     11.7593E-03
            4878            5063     11.5690E-03     11.7593E-03
            4895            5063     11.5690E-03     11.7593E-03
            4897            5064     10.4630E-03     10.6398E-03
            4896            5064     10.4630E-03     10.6398E-03
            4879            5064     10.4630E-03     10.6398E-03
            4878            5064     10.4630E-03     10.6398E-03
            4879            5065     9.38480E-03     9.55520E-03
            4880            5065     9.38480E-03     9.55520E-03
            4897            5065     9.38480E-03     9.55520E-03
            4898            5065     9.38480E-03     9.55520E-03
            4898            5066     8.35357E-03     8.52083E-03
            4899            5066     8.35357E-03     8.52083E-03
            4880            5066     8.35357E-03     8.52083E-03
            4881            5066     8.35357E-03     8.52083E-03
            4881            5067     7.38824E-03     7.55270E-03
            4882            5067     7.38824E-03     7.55270E-03
            4899            5067     7.38824E-03     7.55270E-03
            4900            5067     7.38824E-03     7.55270E-03
            4882            5068     6.52807E-03     6.66413E-03
            4901            5068     6.52807E-03     6.66413E-03
            4900            5068     6.52807E-03     6.66413E-03
            4883            5068     6.52807E-03     6.66413E-03
            4902            5069     5.81361E-03     5.87006E-03
            4883            5069     5.81361E-03     5.87006E-03
            4901            5069     5.81361E-03     5.87006E-03
            4884            5069     5.81361E-03     5.87006E-03
            4902            5070     5.30117E-03     5.22951E-03
            4903            5070     5.30117E-03     5.22951E-03
            4885            5070     5.30117E-03     5.22951E-03
            4884            5070     5.30117E-03     5.22951E-03
            4904            5071     5.03744E-03     4.77796E-03
            4903            5071     5.03744E-03     4.77796E-03
            4886            5071     5.03744E-03     4.77796E-03
            4885            5071     5.03744E-03     4.77796E-03
            4887            5072     17.6411E-03     17.7643E-03
            4888            5072     17.6411E-03     17.7643E-03
            4905            5072     17.6411E-03     17.7643E-03
            4906            5072     17.6411E-03     17.7643E-03
            4889            5073     16.8719E-03     17.1220E-03
            4907            5073     16.8719E-03     17.1220E-03
            4906            5073     16.8719E-03     17.1220E-03
            4888            5073     16.8719E-03     17.1220E-03
            4908            5074     16.5238E-03     16.8281E-03
            4907            5074     16.5238E-03     16.8281E-03
            4890            5074     16.5238E-03     16.8281E-03
            4889            5074     16.5238E-03     16.8281E-03
            4891            5075     16.1815E-03     16.4079E-03
            4908            5075     16.1815E-03     16.4079E-03
            4890            5075     16.1815E-03     16.4079E-03
            4909            5075     16.1815E-03     16.4079E-03
            4909            5076     15.5829E-03     15.7262E-03
            4892            5076     15.5829E-03     15.7262E-03
            4891            5076     15.5829E-03     15.7262E-03
            4910            5076     15.5829E-03     15.7262E-03
            4910            5077     14.7536E-03     14.8407E-03
            4911            5077     14.7536E-03     14.8407E-03
            4892            5077     14.7536E-03     14.8407E-03
            4893            5077     14.7536E-03     14.8407E-03
            4894            5078     13.7952E-03     13.8388E-03
            4911            5078     13.7952E-03     13.8388E-03
            4893            5078     13.7952E-03     13.8388E-03
            4912            5078     13.7952E-03     13.8388E-03
            4912            5079     12.7577E-03     12.7807E-03
            4895            5079     12.7577E-03     12.7807E-03
            4894            5079     12.7577E-03     12.7807E-03
            4913            5079     12.7577E-03     12.7807E-03
            4913            5080     11.7021E-03     11.7111E-03
            4914            5080     11.7021E-03     11.7111E-03
            4896            5080     11.7021E-03     11.7111E-03
            4895            5080     11.7021E-03     11.7111E-03
            4897            5081     10.6476E-03     10.6539E-03
            4914            5081     10.6476E-03     10.6539E-03
            4915            5081     10.6476E-03     10.6539E-03
            4896            5081     10.6476E-03     10.6539E-03
            4897            5082     9.62093E-03     9.63284E-03
            4915            5082     9.62093E-03     9.63284E-03
            4916            5082     9.62093E-03     9.63284E-03
            4898            5082     9.62093E-03     9.63284E-03
            4917            5083     8.63730E-03     8.66540E-03
            4898            5083     8.63730E-03     8.66540E-03
            4899            5083     8.63730E-03     8.66540E-03
            4916            5083     8.63730E-03     8.66540E-03
            4900            5084     7.71664E-03     7.77283E-03
            4899            5084     7.71664E-03     7.77283E-03
            4918            5084     7.71664E-03     7.77283E-03
            4917            5084     7.71664E-03     7.77283E-03
            4901            5085     6.88964E-03     6.98376E-03
            4919            5085     6.88964E-03     6.98376E-03
            4918            5085     6.88964E-03     6.98376E-03
            4900            5085     6.88964E-03     6.98376E-03
            4919            5086     6.22247E-03     6.29287E-03
            4920            5086     6.22247E-03     6.29287E-03
            4901            5086     6.22247E-03     6.29287E-03
            4902            5086     6.22247E-03     6.29287E-03
            4920            5087     5.74760E-03     5.70642E-03
            4903            5087     5.74760E-03     5.70642E-03
            4921            5087     5.74760E-03     5.70642E-03
            4902            5087     5.74760E-03     5.70642E-03
            4922            5088     5.50367E-03     5.32847E-03
            4921            5088     5.50367E-03     5.32847E-03
            4904            5088     5.50367E-03     5.32847E-03
            4903            5088     5.50367E-03     5.32847E-03
            4905            5089     15.5162E-03     15.5399E-03
            4923            5089     15.5162E-03     15.5399E-03
            4906            5089     15.5162E-03     15.5399E-03
            4924            5089     15.5162E-03     15.5399E-03
            4906            5090     15.2281E-03     15.4314E-03
            4924            5090     15.2281E-03     15.4314E-03
            4907            5090     15.2281E-03     15.4314E-03
            4925            5090     15.2281E-03     15.4314E-03
            4925            5091     15.5314E-03     15.6421E-03
            4907            5091     15.5314E-03     15.6421E-03
            4908            5091     15.5314E-03     15.6421E-03
            4926            5091     15.5314E-03     15.6421E-03
            4908            5092     15.5468E-03     15.5298E-03
            4909            5092     15.5468E-03     15.5298E-03
            4926            5092     15.5468E-03     15.5298E-03
            4927            5092     15.5468E-03     15.5298E-03
            4928            5093     15.1391E-03     15.0393E-03
            4927            5093     15.1391E-03     15.0393E-03
            4910            5093     15.1391E-03     15.0393E-03
            4909            5093     15.1391E-03     15.0393E-03
            4910            5094     14.4645E-03     14.3170E-03
            4929            5094     14.4645E-03     14.3170E-03
            4928            5094     14.4645E-03     14.3170E-03
            4911            5094     14.4645E-03     14.3170E-03
            4912            5095     13.6190E-03     13.4519E-03
            4930            5095     13.6190E-03     13.4519E-03
            4929            5095     13.6190E-03     13.4519E-03
            4911            5095     13.6190E-03     13.4519E-03
            4930            5096     12.6908E-03     12.5142E-03
            4912            5096     12.6908E-03     12.5142E-03
            4913            5096     12.6908E-03     12.5142E-03
            4931            5096     12.6908E-03     12.5142E-03
            4932            5097     11.7223E-03     11.5490E-03
            4914            5097     11.7223E-03     11.5490E-03
            4913            5097     11.7223E-03     11.5490E-03
            4931            5097     11.7223E-03     11.5490E-03
            4914            5098     10.7538E-03     10.5892E-03
            4933            5098     10.7538E-03     10.5892E-03
            4915            5098     10.7538E-03     10.5892E-03
            4932            5098     10.7538E-03     10.5892E-03
            4915            5099     9.80435E-03     9.65755E-03
            4934            5099     9.80435E-03     9.65755E-03
            4916            5099     9.80435E-03     9.65755E-03
            4933            5099     9.80435E-03     9.65755E-03
            4917            5100     8.89321E-03     8.77929E-03
            4934            5100     8.89321E-03     8.77929E-03
            4935            5100     8.89321E-03     8.77929E-03
            4916            5100     8.89321E-03     8.77929E-03
            4918            5101     8.04044E-03     7.97848E-03
            4935            5101     8.04044E-03     7.97848E-03
            4917            5101     8.04044E-03     7.97848E-03
            4936            5101     8.04044E-03     7.97848E-03
            4937            5102     7.26070E-03     7.28788E-03
            4936            5102     7.26070E-03     7.28788E-03
            4918            5102     7.26070E-03     7.28788E-03
            4919            5102     7.26070E-03     7.28788E-03
            4919            5103     6.60299E-03     6.74807E-03
            4937            5103     6.60299E-03     6.74807E-03
            4938            5103     6.60299E-03     6.74807E-03
            4920            5103     6.60299E-03     6.74807E-03
            4921            5104     6.18785E-03     6.28042E-03
            4938            5104     6.18785E-03     6.28042E-03
            4939            5104     6.18785E-03     6.28042E-03
            4920            5104     6.18785E-03     6.28042E-03
            4922            5105     5.98016E-03     5.85708E-03
            4940            5105     5.98016E-03     5.85708E-03
            4921            5105     5.98016E-03     5.85708E-03
            4939            5105     5.98016E-03     5.85708E-03
            4924            5106     13.2060E-03     13.1511E-03
            4941            5106     13.2060E-03     13.1511E-03
            4923            5106     13.2060E-03     13.1511E-03
            4942            5106     13.2060E-03     13.1511E-03
            4925            5107     13.7740E-03     13.6794E-03
            4942            5107     13.7740E-03     13.6794E-03
            4943            5107     13.7740E-03     13.6794E-03
            4924            5107     13.7740E-03     13.6794E-03
            4925            5108     14.6472E-03     14.3653E-03
            4944            5108     14.6472E-03     14.3653E-03
            4943            5108     14.6472E-03     14.3653E-03
            4926            5108     14.6472E-03     14.3653E-03
            4927            5109     14.8122E-03     14.4381E-03
            4926            5109     14.8122E-03     14.4381E-03
            4944            5109     14.8122E-03     14.4381E-03
            4945            5109     14.8122E-03     14.4381E-03
            4946            5110     14.5448E-03     14.1434E-03
            4928            5110     14.5448E-03     14.1434E-03
            4945            5110     14.5448E-03     14.1434E-03
            4927            5110     14.5448E-03     14.1434E-03
            4929            5111     14.0056E-03     13.6016E-03
            4928            5111     14.0056E-03     13.6016E-03
            4947            5111     14.0056E-03     13.6016E-03
            4946            5111     14.0056E-03     13.6016E-03
            4947            5112     13.3005E-03     12.9088E-03
            4930            5112     13.3005E-03     12.9088E-03
            4929            5112     13.3005E-03     12.9088E-03
            4948            5112     13.3005E-03     12.9088E-03
            4949            5113     12.5023E-03     12.1304E-03
            4948            5113     12.5023E-03     12.1304E-03
            4931            5113     12.5023E-03     12.1304E-03
            4930            5113     12.5023E-03     12.1304E-03
            4949            5114     11.6602E-03     11.3090E-03
            4950            5114     11.6602E-03     11.3090E-03
            4931            5114     11.6602E-03     11.3090E-03
            4932            5114     11.6602E-03     11.3090E-03
            4933            5115     10.8047E-03     10.4789E-03
            4932            5115     10.8047E-03     10.4789E-03
            4951            5115     10.8047E-03     10.4789E-03
            4950            5115     10.8047E-03     10.4789E-03
            4951            5116     9.96240E-03     9.66615E-03
            4934            5116     9.96240E-03     9.66615E-03
            4933            5116     9.96240E-03     9.66615E-03
            4952            5116     9.96240E-03     9.66615E-03
            4953            5117     9.15077E-03     8.89439E-03
            4934            5117     9.15077E-03     8.89439E-03
            4935            5117     9.15077E-03     8.89439E-03
            4952            5117     9.15077E-03     8.89439E-03
            4953            5118     8.38495E-03     8.19474E-03
            4954            5118     8.38495E-03     8.19474E-03
            4935            5118     8.38495E-03     8.19474E-03
            4936            5118     8.38495E-03     8.19474E-03
            4937            5119     7.68511E-03     7.59581E-03
            4955            5119     7.68511E-03     7.59581E-03
            4954            5119     7.68511E-03     7.59581E-03
            4936            5119     7.68511E-03     7.59581E-03
            4955            5120     7.04717E-03     7.16083E-03
            4937            5120     7.04717E-03     7.16083E-03
            4938            5120     7.04717E-03     7.16083E-03
            4956            5120     7.04717E-03     7.16083E-03
            4956            5121     6.55228E-03     6.92781E-03
            4957            5121     6.55228E-03     6.92781E-03
            4939            5121     6.55228E-03     6.92781E-03
            4938            5121     6.55228E-03     6.92781E-03
            4957            5122     6.43505E-03     6.66438E-03
            4958            5122     6.43505E-03     6.66438E-03
            4940            5122     6.43505E-03     6.66438E-03
            4939            5122     6.43505E-03     6.66438E-03
            4941            5123     11.2502E-03     10.5380E-03
            4960            5123     11.2502E-03     10.5380E-03
            4959            5123     11.2502E-03     10.5380E-03
            4942            5123     11.2502E-03     10.5380E-03
            4961            5124     12.7822E-03     11.9208E-03
            4943            5124     12.7822E-03     11.9208E-03
            4942            5124     12.7822E-03     11.9208E-03
            4960            5124     12.7822E-03     11.9208E-03
            4944            5125     13.6925E-03     12.8282E-03
            4943            5125     13.6925E-03     12.8282E-03
            4962            5125     13.6925E-03     12.8282E-03
            4961            5125     13.6925E-03     12.8282E-03
            4963            5126     13.9108E-03     13.1187E-03
            4944            5126     13.9108E-03     13.1187E-03
            4962            5126     13.9108E-03     13.1187E-03
            4945            5126     13.9108E-03     13.1187E-03
            4963            5127     13.7857E-03     13.0603E-03
            4964            5127     13.7857E-03     13.0603E-03
            4946            5127     13.7857E-03     13.0603E-03
            4945            5127     13.7857E-03     13.0603E-03
            4964            5128     13.4080E-03     12.7499E-03
            4947            5128     13.4080E-03     12.7499E-03
            4946            5128     13.4080E-03     12.7499E-03
            4965            5128     13.4080E-03     12.7499E-03
            4947            5129     12.8817E-03     12.2809E-03
            4965            5129     12.8817E-03     12.2809E-03
            4948            5129     12.8817E-03     12.2809E-03
            4966            5129     12.8817E-03     12.2809E-03
            4966            5130     12.2531E-03     11.7012E-03
            4948            5130     12.2531E-03     11.7012E-03
            4967            5130     12.2531E-03     11.7012E-03
            4949            5130     12.2531E-03     11.7012E-03
            4967            5131     11.5666E-03     11.0608E-03
            4968            5131     11.5666E-03     11.0608E-03
            4950            5131     11.5666E-03     11.0608E-03
            4949            5131     11.5666E-03     11.0608E-03
            4968            5132     10.8539E-03     10.3879E-03
            4950            5132     10.8539E-03     10.3879E-03
            4969            5132     10.8539E-03     10.3879E-03
            4951            5132     10.8539E-03     10.3879E-03
            4970            5133     10.1374E-03     9.71452E-03
            4952            5133     10.1374E-03     9.71452E-03
            4969            5133     10.1374E-03     9.71452E-03
            4951            5133     10.1374E-03     9.71452E-03
            4971            5134     9.44304E-03     9.06380E-03
            4970            5134     9.44304E-03     9.06380E-03
            4953            5134     9.44304E-03     9.06380E-03
            4952            5134     9.44304E-03     9.06380E-03
            4971            5135     8.78351E-03     8.46340E-03
            4953            5135     8.78351E-03     8.46340E-03
            4972            5135     8.78351E-03     8.46340E-03
            4954            5135     8.78351E-03     8.46340E-03
            4954            5136     8.18125E-03     7.94541E-03
            4973            5136     8.18125E-03     7.94541E-03
            4955            5136     8.18125E-03     7.94541E-03
            4972            5136     8.18125E-03     7.94541E-03
            4956            5137     7.63297E-03     7.54360E-03
            4974            5137     7.63297E-03     7.54360E-03
            4955            5137     7.63297E-03     7.54360E-03
            4973            5137     7.63297E-03     7.54360E-03
            4957            5138     7.11129E-03     7.37876E-03
            4974            5138     7.11129E-03     7.37876E-03
            4956            5138     7.11129E-03     7.37876E-03
            4975            5138     7.11129E-03     7.37876E-03
            4958            5139     6.70409E-03     7.48174E-03
            4975            5139     6.70409E-03     7.48174E-03
            4957            5139     6.70409E-03     7.48174E-03
            4976            5139     6.70409E-03     7.48174E-03
            4978            5140     9.93110E-03     10.4142E-03
            4977            5140     9.93110E-03     10.4142E-03
            4960            5140     9.93110E-03     10.4142E-03
            4959            5140     9.93110E-03     10.4142E-03
            4960            5141     9.20984E-03     9.33856E-03
            4978            5141     9.20984E-03     9.33856E-03
            4979            5141     9.20984E-03     9.33856E-03
            4961            5141     9.20984E-03     9.33856E-03
            4962            5142     9.28788E-03     9.38970E-03
            4961            5142     9.28788E-03     9.38970E-03
            4979            5142     9.28788E-03     9.38970E-03
            4980            5142     9.28788E-03     9.38970E-03
            4963            5143     9.34421E-03     9.47707E-03
            4980            5143     9.34421E-03     9.47707E-03
            4981            5143     9.34421E-03     9.47707E-03
            4962            5143     9.34421E-03     9.47707E-03
            4963            5144     9.24082E-03     9.40312E-03
            4964            5144     9.24082E-03     9.40312E-03
            4982            5144     9.24082E-03     9.40312E-03
            4981            5144     9.24082E-03     9.40312E-03
            4983            5145     9.02086E-03     9.20802E-03
            4964            5145     9.02086E-03     9.20802E-03
            4982            5145     9.02086E-03     9.20802E-03
            4965            5145     9.02086E-03     9.20802E-03
            4984            5146     8.71350E-03     8.91162E-03
            4966            5146     8.71350E-03     8.91162E-03
            4965            5146     8.71350E-03     8.91162E-03
            4983            5146     8.71350E-03     8.91162E-03
            4984            5147     8.36500E-03     8.56329E-03
            4967            5147     8.36500E-03     8.56329E-03
            4985            5147     8.36500E-03     8.56329E-03
            4966            5147     8.36500E-03     8.56329E-03
            4986            5148     7.98984E-03     8.17637E-03
            4968            5148     7.98984E-03     8.17637E-03
            4967            5148     7.98984E-03     8.17637E-03
            4985            5148     7.98984E-03     8.17637E-03
            4969            5149     7.61147E-03     7.77895E-03
            4986            5149     7.61147E-03     7.77895E-03
            4987            5149     7.61147E-03     7.77895E-03
            4968            5149     7.61147E-03     7.77895E-03
            4988            5150     7.23951E-03     7.38032E-03
            4987            5150     7.23951E-03     7.38032E-03
            4969            5150     7.23951E-03     7.38032E-03
            4970            5150     7.23951E-03     7.38032E-03
            4971            5151     6.88959E-03     7.00037E-03
            4988            5151     6.88959E-03     7.00037E-03
            4989            5151     6.88959E-03     7.00037E-03
            4970            5151     6.88959E-03     7.00037E-03
            4989            5152     6.56782E-03     6.64449E-03
            4971            5152     6.56782E-03     6.64449E-03
            4990            5152     6.56782E-03     6.64449E-03
            4972            5152     6.56782E-03     6.64449E-03
            4991            5153     6.29481E-03     6.34181E-03
            4973            5153     6.29481E-03     6.34181E-03
            4972            5153     6.29481E-03     6.34181E-03
            4990            5153     6.29481E-03     6.34181E-03
            4974            5154     6.05201E-03     6.06470E-03
            4991            5154     6.05201E-03     6.06470E-03
            4973            5154     6.05201E-03     6.06470E-03
            4992            5154     6.05201E-03     6.06470E-03
            4975            5155     5.84071E-03     5.95435E-03
            4992            5155     5.84071E-03     5.95435E-03
            4974            5155     5.84071E-03     5.95435E-03
            4993            5155     5.84071E-03     5.95435E-03
            4975            5156     5.42790E-03     6.06335E-03
            4976            5156     5.42790E-03     6.06335E-03
            4994            5156     5.42790E-03     6.06335E-03
            4993            5156     5.42790E-03     6.06335E-03
            4996            5157     9.10620E-03     10.0747E-03
            4977            5157     9.10620E-03     10.0747E-03
            4995            5157     9.10620E-03     10.0747E-03
            4978            5157     9.10620E-03     10.0747E-03
            4997            5158     6.39533E-03     7.49907E-03
            4978            5158     6.39533E-03     7.49907E-03
            4996            5158     6.39533E-03     7.49907E-03
            4979            5158     6.39533E-03     7.49907E-03
            4997            5159     5.70528E-03     6.77064E-03
            4998            5159     5.70528E-03     6.77064E-03
            4979            5159     5.70528E-03     6.77064E-03
            4980            5159     5.70528E-03     6.77064E-03
            4998            5160     5.58072E-03     6.53461E-03
            4999            5160     5.58072E-03     6.53461E-03
            4980            5160     5.58072E-03     6.53461E-03
            4981            5160     5.58072E-03     6.53461E-03
            5000            5161     5.36174E-03     6.27219E-03
            4981            5161     5.36174E-03     6.27219E-03
            4982            5161     5.36174E-03     6.27219E-03
            4999            5161     5.36174E-03     6.27219E-03
            4983            5162     5.16590E-03     6.03712E-03
            5001            5162     5.16590E-03     6.03712E-03
            5000            5162     5.16590E-03     6.03712E-03
            4982            5162     5.16590E-03     6.03712E-03
            5002            5163     4.96921E-03     5.79447E-03
            4983            5163     4.96921E-03     5.79447E-03
            5001            5163     4.96921E-03     5.79447E-03
            4984            5163     4.96921E-03     5.79447E-03
            4984            5164     4.79063E-03     5.56787E-03
            5003            5164     4.79063E-03     5.56787E-03
            5002            5164     4.79063E-03     5.56787E-03
            4985            5164     4.79063E-03     5.56787E-03
            5004            5165     4.63698E-03     5.35083E-03
            4985            5165     4.63698E-03     5.35083E-03
            5003            5165     4.63698E-03     5.35083E-03
            4986            5165     4.63698E-03     5.35083E-03
            4986            5166     4.50496E-03     5.15401E-03
            4987            5166     4.50496E-03     5.15401E-03
            5005            5166     4.50496E-03     5.15401E-03
            5004            5166     4.50496E-03     5.15401E-03
            4988            5167     4.39969E-03     4.97082E-03
            4987            5167     4.39969E-03     4.97082E-03
            5006            5167     4.39969E-03     4.97082E-03
            5005            5167     4.39969E-03     4.97082E-03
            4988            5168     4.31969E-03     4.81066E-03
            5006            5168     4.31969E-03     4.81066E-03
            4989            5168     4.31969E-03     4.81066E-03
            5007            5168     4.31969E-03     4.81066E-03
            4989            5169     4.26601E-03     4.66627E-03
            5008            5169     4.26601E-03     4.66627E-03
            4990            5169     4.26601E-03     4.66627E-03
            5007            5169     4.26601E-03     4.66627E-03
            4991            5170     4.24684E-03     4.55297E-03
            5008            5170     4.24684E-03     4.55297E-03
            5009            5170     4.24684E-03     4.55297E-03
            4990            5170     4.24684E-03     4.55297E-03
            5010            5171     4.25652E-03     4.44512E-03
            5009            5171     4.25652E-03     4.44512E-03
            4991            5171     4.25652E-03     4.44512E-03
            4992            5171     4.25652E-03     4.44512E-03
            4992            5172     4.26486E-03     4.39263E-03
            5011            5172     4.26486E-03     4.39263E-03
            4993            5172     4.26486E-03     4.39263E-03
            5010            5172     4.26486E-03     4.39263E-03
            4994            5173     4.28587E-03     4.44005E-03
            4993            5173     4.28587E-03     4.44005E-03
            5012            5173     4.28587E-03     4.44005E-03
            5011            5173     4.28587E-03     4.44005E-03
            4995            5174     7.31699E-03     7.23243E-03
            5013            5174     7.31699E-03     7.23243E-03
            4996            5174     7.31699E-03     7.23243E-03
            5014            5174     7.31699E-03     7.23243E-03
            5015            5175     6.51177E-03     6.88160E-03
            4996            5175     6.51177E-03     6.88160E-03
            4997            5175     6.51177E-03     6.88160E-03
            5014            5175     6.51177E-03     6.88160E-03
            4997            5176     6.37125E-03     6.72942E-03
            5015            5176     6.37125E-03     6.72942E-03
            5016            5176     6.37125E-03     6.72942E-03
            4998            5176     6.37125E-03     6.72942E-03
            4999            5177     6.11692E-03     6.45594E-03
            4998            5177     6.11692E-03     6.45594E-03
            5016            5177     6.11692E-03     6.45594E-03
            5017            5177     6.11692E-03     6.45594E-03
            5017            5178     5.83394E-03     6.15828E-03
            4999            5178     5.83394E-03     6.15828E-03
            5018            5178     5.83394E-03     6.15828E-03
            5000            5178     5.83394E-03     6.15828E-03
            5000            5179     5.57338E-03     5.88501E-03
            5018            5179     5.57338E-03     5.88501E-03
            5001            5179     5.57338E-03     5.88501E-03
            5019            5179     5.57338E-03     5.88501E-03
            5020            5180     5.35418E-03     5.65007E-03
            5001            5180     5.35418E-03     5.65007E-03
            5019            5180     5.35418E-03     5.65007E-03
            5002            5180     5.35418E-03     5.65007E-03
            5003            5181     5.16239E-03     5.43731E-03
            5021            5181     5.16239E-03     5.43731E-03
            5002            5181     5.16239E-03     5.43731E-03
            5020            5181     5.16239E-03     5.43731E-03
            5004            5182     4.99451E-03     5.24920E-03
            5003            5182     4.99451E-03     5.24920E-03
            5022            5182     4.99451E-03     5.24920E-03
            5021            5182     4.99451E-03     5.24920E-03
            5022            5183     4.84787E-03     5.07633E-03
            5005            5183     4.84787E-03     5.07633E-03
            5004            5183     4.84787E-03     5.07633E-03
            5023            5183     4.84787E-03     5.07633E-03
            5005            5184     4.72180E-03     4.92426E-03
            5023            5184     4.72180E-03     4.92426E-03
            5006            5184     4.72180E-03     4.92426E-03
            5024            5184     4.72180E-03     4.92426E-03
            5006            5185     4.61676E-03     4.78827E-03
            5025            5185     4.61676E-03     4.78827E-03
            5007            5185     4.61676E-03     4.78827E-03
            5024            5185     4.61676E-03     4.78827E-03
            5007            5186     4.53797E-03     4.67687E-03
            5025            5186     4.53797E-03     4.67687E-03
            5008            5186     4.53797E-03     4.67687E-03
            5026            5186     4.53797E-03     4.67687E-03
            5027            5187     4.47944E-03     4.58811E-03
            5008            5187     4.47944E-03     4.58811E-03
            5026            5187     4.47944E-03     4.58811E-03
            5009            5187     4.47944E-03     4.58811E-03
            5010            5188     4.45300E-03     4.54862E-03
            5009            5188     4.45300E-03     4.54862E-03
            5028            5188     4.45300E-03     4.54862E-03
            5027            5188     4.45300E-03     4.54862E-03
            5011            5189     4.53206E-03     4.47529E-03
            5028            5189     4.53206E-03     4.47529E-03
            5010            5189     4.53206E-03     4.47529E-03
            5029            5189     4.53206E-03     4.47529E-03
            5030            5190     4.70492E-03     4.26110E-03
            5029            5190     4.70492E-03     4.26110E-03
            5011            5190     4.70492E-03     4.26110E-03
            5012            5190     4.70492E-03     4.26110E-03
            5013            5191     4.84697E-03     4.83314E-03
            5032            5191     4.84697E-03     4.83314E-03
            5031            5191     4.84697E-03     4.83314E-03
            5014            5191     4.84697E-03     4.83314E-03
            5014            5192     5.90235E-03     5.75412E-03
            5032            5192     5.90235E-03     5.75412E-03
            5033            5192     5.90235E-03     5.75412E-03
            5015            5192     5.90235E-03     5.75412E-03
            5015            5193     6.71326E-03     6.39561E-03
            5016            5193     6.71326E-03     6.39561E-03
            5034            5193     6.71326E-03     6.39561E-03
            5033            5193     6.71326E-03     6.39561E-03
            5016            5194     6.46529E-03     6.19356E-03
            5035            5194     6.46529E-03     6.19356E-03
            5034            5194     6.46529E-03     6.19356E-03
            5017            5194     6.46529E-03     6.19356E-03
            5017            5195     6.20507E-03     5.95769E-03
            5035            5195     6.20507E-03     5.95769E-03
            5018            5195     6.20507E-03     5.95769E-03
            5036            5195     6.20507E-03     5.95769E-03
            5036            5196     5.94639E-03     5.71085E-03
            5019            5196     5.94639E-03     5.71085E-03
            5037            5196     5.94639E-03     5.71085E-03
            5018            5196     5.94639E-03     5.71085E-03
            5037            5197     5.72727E-03     5.50637E-03
            5038            5197     5.72727E-03     5.50637E-03
            5020            5197     5.72727E-03     5.50637E-03
            5019            5197     5.72727E-03     5.50637E-03
            5039            5198     5.53593E-03     5.33206E-03
            5038            5198     5.53593E-03     5.33206E-03
            5020            5198     5.53593E-03     5.33206E-03
            5021            5198     5.53593E-03     5.33206E-03
            5021            5199     5.36242E-03     5.17619E-03
            5040            5199     5.36242E-03     5.17619E-03
            5039            5199     5.36242E-03     5.17619E-03
            5022            5199     5.36242E-03     5.17619E-03
            5022            5200     5.20611E-03     5.03878E-03
            5041            5200     5.20611E-03     5.03878E-03
            5040            5200     5.20611E-03     5.03878E-03
            5023            5200     5.20611E-03     5.03878E-03
            5023            5201     5.06429E-03     4.91731E-03
            5041            5201     5.06429E-03     4.91731E-03
            5042            5201     5.06429E-03     4.91731E-03
            5024            5201     5.06429E-03     4.91731E-03
            5025            5202     4.93974E-03     4.81316E-03
            5042            5202     4.93974E-03     4.81316E-03
            5024            5202     4.93974E-03     4.81316E-03
            5043            5202     4.93974E-03     4.81316E-03
            5025            5203     4.83311E-03     4.72974E-03
            5044            5203     4.83311E-03     4.72974E-03
            5026            5203     4.83311E-03     4.72974E-03
            5043            5203     4.83311E-03     4.72974E-03
            5045            5204     4.74492E-03     4.66847E-03
            5027            5204     4.74492E-03     4.66847E-03
            5026            5204     4.74492E-03     4.66847E-03
            5044            5204     4.74492E-03     4.66847E-03
            5027            5205     4.67499E-03     4.65050E-03
            5028            5205     4.67499E-03     4.65050E-03
            5046            5205     4.67499E-03     4.65050E-03
            5045            5205     4.67499E-03     4.65050E-03
            5028            5206     4.69946E-03     4.61331E-03
            5046            5206     4.69946E-03     4.61331E-03
            5047            5206     4.69946E-03     4.61331E-03
            5029            5206     4.69946E-03     4.61331E-03
            5048            5207     4.86548E-03     4.43177E-03
            5047            5207     4.86548E-03     4.43177E-03
            5029            5207     4.86548E-03     4.43177E-03
            5030            5207     4.86548E-03     4.43177E-03
            5049            5208     3.67372E-03     3.69637E-03
            5031            5208     3.67372E-03     3.69637E-03
            5050            5208     3.67372E-03     3.69637E-03
            5032            5208     3.67372E-03     3.69637E-03
            5050            5209     5.29211E-03     4.33928E-03
            5051            5209     5.29211E-03     4.33928E-03
            5032            5209     5.29211E-03     4.33928E-03
            5033            5209     5.29211E-03     4.33928E-03
            5034            5210     6.34996E-03     5.41767E-03
            5051            5210     6.34996E-03     5.41767E-03
            5052            5210     6.34996E-03     5.41767E-03
            5033            5210     6.34996E-03     5.41767E-03
            5052            5211     6.56755E-03     5.68196E-03
            5034            5211     6.56755E-03     5.68196E-03
            5053            5211     6.56755E-03     5.68196E-03
            5035            5211     6.56755E-03     5.68196E-03
            5053            5212     6.44863E-03     5.63291E-03
            5035            5212     6.44863E-03     5.63291E-03
            5036            5212     6.44863E-03     5.63291E-03
            5054            5212     6.44863E-03     5.63291E-03
            5037            5213     6.28232E-03     5.51451E-03
            5054            5213     6.28232E-03     5.51451E-03
            5055            5213     6.28232E-03     5.51451E-03
            5036            5213     6.28232E-03     5.51451E-03
            5055            5214     6.09653E-03     5.38605E-03
            5037            5214     6.09653E-03     5.38605E-03
            5056            5214     6.09653E-03     5.38605E-03
            5038            5214     6.09653E-03     5.38605E-03
            5039            5215     5.91662E-03     5.26179E-03
            5038            5215     5.91662E-03     5.26179E-03
            5057            5215     5.91662E-03     5.26179E-03
            5056            5215     5.91662E-03     5.26179E-03
            5057            5216     5.74511E-03     5.14767E-03
            5058            5216     5.74511E-03     5.14767E-03
            5040            5216     5.74511E-03     5.14767E-03
            5039            5216     5.74511E-03     5.14767E-03
            5040            5217     5.58105E-03     5.04692E-03
            5059            5217     5.58105E-03     5.04692E-03
            5041            5217     5.58105E-03     5.04692E-03
            5058            5217     5.58105E-03     5.04692E-03
            5059            5218     5.42817E-03     4.95857E-03
            5060            5218     5.42817E-03     4.95857E-03
            5041            5218     5.42817E-03     4.95857E-03
            5042            5218     5.42817E-03     4.95857E-03
            5060            5219     5.28638E-03     4.88806E-03
            5042            5219     5.28638E-03     4.88806E-03
            5061            5219     5.28638E-03     4.88806E-03
            5043            5219     5.28638E-03     4.88806E-03
            5043            5220     5.15563E-03     4.82987E-03
            5061            5220     5.15563E-03     4.82987E-03
            5062            5220     5.15563E-03     4.82987E-03
            5044            5220     5.15563E-03     4.82987E-03
            5044            5221     5.04233E-03     4.79602E-03
            5045            5221     5.04233E-03     4.79602E-03
            5063            5221     5.04233E-03     4.79602E-03
            5062            5221     5.04233E-03     4.79602E-03
            5045            5222     4.93743E-03     4.76143E-03
            5063            5222     4.93743E-03     4.76143E-03
            5064            5222     4.93743E-03     4.76143E-03
            5046            5222     4.93743E-03     4.76143E-03
            5047            5223     4.80549E-03     4.78816E-03
            5065            5223     4.80549E-03     4.78816E-03
            5064            5223     4.80549E-03     4.78816E-03
            5046            5223     4.80549E-03     4.78816E-03
            5066            5224     4.69136E-03     4.92705E-03
            5065            5224     4.69136E-03     4.92705E-03
            5047            5224     4.69136E-03     4.92705E-03
            5048            5224     4.69136E-03     4.92705E-03
            5175            5310     173.139E-03     177.421E-03
            5194            5310     173.139E-03     177.421E-03
            5176            5310     173.139E-03     177.421E-03
            5193            5310     173.139E-03     177.421E-03
            5194            5311     174.308E-03     176.772E-03
            5176            5311     174.308E-03     176.772E-03
            5177            5311     174.308E-03     176.772E-03
            5195            5311     174.308E-03     176.772E-03
            5177            5312     176.367E-03     177.951E-03
            5196            5312     176.367E-03     177.951E-03
            5178            5312     176.367E-03     177.951E-03
            5195            5312     176.367E-03     177.951E-03
            5197            5313     177.489E-03     179.034E-03
            5179            5313     177.489E-03     179.034E-03
            5196            5313     177.489E-03     179.034E-03
            5178            5313     177.489E-03     179.034E-03
            5198            5314     178.420E-03     179.620E-03
            5180            5314     178.420E-03     179.620E-03
            5197            5314     178.420E-03     179.620E-03
            5179            5314     178.420E-03     179.620E-03
            5181            5315     179.023E-03     179.966E-03
            5199            5315     179.023E-03     179.966E-03
            5180            5315     179.023E-03     179.966E-03
            5198            5315     179.023E-03     179.966E-03
            5182            5316     179.457E-03     180.112E-03
            5199            5316     179.457E-03     180.112E-03
            5181            5316     179.457E-03     180.112E-03
            5200            5316     179.457E-03     180.112E-03
            5182            5317     179.783E-03     180.155E-03
            5183            5317     179.783E-03     180.155E-03
            5200            5317     179.783E-03     180.155E-03
            5201            5317     179.783E-03     180.155E-03
            5201            5318     180.003E-03     180.125E-03
            5183            5318     180.003E-03     180.125E-03
            5184            5318     180.003E-03     180.125E-03
            5202            5318     180.003E-03     180.125E-03
            5203            5319     180.244E-03     180.114E-03
            5202            5319     180.244E-03     180.114E-03
            5184            5319     180.244E-03     180.114E-03
            5185            5319     180.244E-03     180.114E-03
            5185            5320     180.385E-03     180.068E-03
            5204            5320     180.385E-03     180.068E-03
            5203            5320     180.385E-03     180.068E-03
            5186            5320     180.385E-03     180.068E-03
            5204            5321     180.568E-03     180.032E-03
            5187            5321     180.568E-03     180.032E-03
            5205            5321     180.568E-03     180.032E-03
            5186            5321     180.568E-03     180.032E-03
            5187            5322     180.348E-03     179.689E-03
            5188            5322     180.348E-03     179.689E-03
            5205            5322     180.348E-03     179.689E-03
            5206            5322     180.348E-03     179.689E-03
            5189            5323     179.783E-03     178.812E-03
            5188            5323     179.783E-03     178.812E-03
            5206            5323     179.783E-03     178.812E-03
            5207            5323     179.783E-03     178.812E-03
            5189            5324     177.161E-03     175.810E-03
            5208            5324     177.161E-03     175.810E-03
            5190            5324     177.161E-03     175.810E-03
            5207            5324     177.161E-03     175.810E-03
            5191            5325     175.025E-03     174.075E-03
            5208            5325     175.025E-03     174.075E-03
            5190            5325     175.025E-03     174.075E-03
            5209            5325     175.025E-03     174.075E-03
            5192            5326     167.386E-03     166.252E-03
            5210            5326     167.386E-03     166.252E-03
            5209            5326     167.386E-03     166.252E-03
            5191            5326     167.386E-03     166.252E-03
            5194            5327     180.110E-03     182.634E-03
            5193            5327     180.110E-03     182.634E-03
            5211            5327     180.110E-03     182.634E-03
            5212            5327     180.110E-03     182.634E-03
            5194            5328     177.610E-03     181.449E-03
            5195            5328     177.610E-03     181.449E-03
            5213            5328     177.610E-03     181.449E-03
            5212            5328     177.610E-03     181.449E-03
            5196            5329     177.586E-03     180.875E-03
            5213            5329     177.586E-03     180.875E-03
            5214            5329     177.586E-03     180.875E-03
            5195            5329     177.586E-03     180.875E-03
            5196            5330     177.948E-03     180.869E-03
            5197            5330     177.948E-03     180.869E-03
            5214            5330     177.948E-03     180.869E-03
            5215            5330     177.948E-03     180.869E-03
            5198            5331     178.095E-03     180.886E-03
            5216            5331     178.095E-03     180.886E-03
            5215            5331     178.095E-03     180.886E-03
            5197            5331     178.095E-03     180.886E-03
            5199            5332     178.218E-03     180.873E-03
            5216            5332     178.218E-03     180.873E-03
            5217            5332     178.218E-03     180.873E-03
            5198            5332     178.218E-03     180.873E-03
            5217            5333     178.259E-03     180.783E-03
            5218            5333     178.259E-03     180.783E-03
            5200            5333     178.259E-03     180.783E-03
            5199            5333     178.259E-03     180.783E-03
            5200            5334     178.245E-03     180.629E-03
            5219            5334     178.245E-03     180.629E-03
            5218            5334     178.245E-03     180.629E-03
            5201            5334     178.245E-03     180.629E-03
            5201            5335     178.253E-03     180.512E-03
            5202            5335     178.253E-03     180.512E-03
            5219            5335     178.253E-03     180.512E-03
            5220            5335     178.253E-03     180.512E-03
            5203            5336     178.261E-03     180.390E-03
            5220            5336     178.261E-03     180.390E-03
            5221            5336     178.261E-03     180.390E-03
            5202            5336     178.261E-03     180.390E-03
            5221            5337     178.444E-03     180.482E-03
            5203            5337     178.444E-03     180.482E-03
            5204            5337     178.444E-03     180.482E-03
            5222            5337     178.444E-03     180.482E-03
            5204            5338     178.711E-03     180.617E-03
            5205            5338     178.711E-03     180.617E-03
            5222            5338     178.711E-03     180.617E-03
            5223            5338     178.711E-03     180.617E-03
            5205            5339     179.251E-03     181.138E-03
            5206            5339     179.251E-03     181.138E-03
            5223            5339     179.251E-03     181.138E-03
            5224            5339     179.251E-03     181.138E-03
            5224            5340     179.351E-03     181.156E-03
            5225            5340     179.351E-03     181.156E-03
            5206            5340     179.351E-03     181.156E-03
            5207            5340     179.351E-03     181.156E-03
            5207            5341     178.022E-03     179.641E-03
            5226            5341     178.022E-03     179.641E-03
            5208            5341     178.022E-03     179.641E-03
            5225            5341     178.022E-03     179.641E-03
            5209            5342     170.937E-03     172.412E-03
            5227            5342     170.937E-03     172.412E-03
            5226            5342     170.937E-03     172.412E-03
            5208            5342     170.937E-03     172.412E-03
            5227            5343     145.595E-03     145.676E-03
            5209            5343     145.595E-03     145.676E-03
            5210            5343     145.595E-03     145.676E-03
            5228            5343     145.595E-03     145.676E-03
            5211            5344     184.722E-03     186.630E-03
            5212            5344     184.722E-03     186.630E-03
            5229            5344     184.722E-03     186.630E-03
            5230            5344     184.722E-03     186.630E-03
            5230            5345     181.714E-03     185.614E-03
            5213            5345     181.714E-03     185.614E-03
            5212            5345     181.714E-03     185.614E-03
            5231            5345     181.714E-03     185.614E-03
            5231            5346     179.768E-03     183.813E-03
            5214            5346     179.768E-03     183.813E-03
            5213            5346     179.768E-03     183.813E-03
            5232            5346     179.768E-03     183.813E-03
            5215            5347     178.934E-03     182.577E-03
            5233            5347     178.934E-03     182.577E-03
            5232            5347     178.934E-03     182.577E-03
            5214            5347     178.934E-03     182.577E-03
            5234            5348     178.340E-03     181.989E-03
            5215            5348     178.340E-03     181.989E-03
            5216            5348     178.340E-03     181.989E-03
            5233            5348     178.340E-03     181.989E-03
            5234            5349     177.874E-03     181.497E-03
            5235            5349     177.874E-03     181.497E-03
            5217            5349     177.874E-03     181.497E-03
            5216            5349     177.874E-03     181.497E-03
            5235            5350     177.453E-03     181.071E-03
            5236            5350     177.453E-03     181.071E-03
            5218            5350     177.453E-03     181.071E-03
            5217            5350     177.453E-03     181.071E-03
            5218            5351     177.086E-03     180.712E-03
            5237            5351     177.086E-03     180.712E-03
            5236            5351     177.086E-03     180.712E-03
            5219            5351     177.086E-03     180.712E-03
            5220            5352     176.746E-03     180.360E-03
            5219            5352     176.746E-03     180.360E-03
            5237            5352     176.746E-03     180.360E-03
            5238            5352     176.746E-03     180.360E-03
            5238            5353     176.540E-03     180.173E-03
            5239            5353     176.540E-03     180.173E-03
            5220            5353     176.540E-03     180.173E-03
            5221            5353     176.540E-03     180.173E-03
            5239            5354     176.459E-03     180.055E-03
            5240            5354     176.459E-03     180.055E-03
            5221            5354     176.459E-03     180.055E-03
            5222            5354     176.459E-03     180.055E-03
            5240            5355     176.712E-03     180.363E-03
            5241            5355     176.712E-03     180.363E-03
            5223            5355     176.712E-03     180.363E-03
            5222            5355     176.712E-03     180.363E-03
            5241            5356     177.133E-03     180.742E-03
            5224            5356     177.133E-03     180.742E-03
            5223            5356     177.133E-03     180.742E-03
            5242            5356     177.133E-03     180.742E-03
            5225            5357     177.388E-03     181.150E-03
            5224            5357     177.388E-03     181.150E-03
            5242            5357     177.388E-03     181.150E-03
            5243            5357     177.388E-03     181.150E-03
            5244            5358     175.566E-03     179.468E-03
            5225            5358     175.566E-03     179.468E-03
            5243            5358     175.566E-03     179.468E-03
            5226            5358     175.566E-03     179.468E-03
            5226            5359     163.417E-03     164.066E-03
            5245            5359     163.417E-03     164.066E-03
            5227            5359     163.417E-03     164.066E-03
            5244            5359     163.417E-03     164.066E-03
            5246            5360     132.989E-03     127.791E-03
            5245            5360     132.989E-03     127.791E-03
            5227            5360     132.989E-03     127.791E-03
            5228            5360     132.989E-03     127.791E-03
            5248            5361     188.577E-03     190.594E-03
            5230            5361     188.577E-03     190.594E-03
            5247            5361     188.577E-03     190.594E-03
            5229            5361     188.577E-03     190.594E-03
            5248            5362     184.626E-03     187.982E-03
            5249            5362     184.626E-03     187.982E-03
            5230            5362     184.626E-03     187.982E-03
            5231            5362     184.626E-03     187.982E-03
            5232            5363     182.145E-03     185.422E-03
            5250            5363     182.145E-03     185.422E-03
            5231            5363     182.145E-03     185.422E-03
            5249            5363     182.145E-03     185.422E-03
            5250            5364     180.151E-03     183.795E-03
            5232            5364     180.151E-03     183.795E-03
            5251            5364     180.151E-03     183.795E-03
            5233            5364     180.151E-03     183.795E-03
            5251            5365     178.911E-03     182.570E-03
            5233            5365     178.911E-03     182.570E-03
            5252            5365     178.911E-03     182.570E-03
            5234            5365     178.911E-03     182.570E-03
            5252            5366     177.867E-03     181.662E-03
            5253            5366     177.867E-03     181.662E-03
            5235            5366     177.867E-03     181.662E-03
            5234            5366     177.867E-03     181.662E-03
            5254            5367     177.016E-03     180.947E-03
            5235            5367     177.016E-03     180.947E-03
            5253            5367     177.016E-03     180.947E-03
            5236            5367     177.016E-03     180.947E-03
            5255            5368     176.255E-03     180.315E-03
            5236            5368     176.255E-03     180.315E-03
            5254            5368     176.255E-03     180.315E-03
            5237            5368     176.255E-03     180.315E-03
            5256            5369     175.602E-03     179.805E-03
            5255            5369     175.602E-03     179.805E-03
            5238            5369     175.602E-03     179.805E-03
            5237            5369     175.602E-03     179.805E-03
            5239            5370     175.002E-03     179.320E-03
            5257            5370     175.002E-03     179.320E-03
            5238            5370     175.002E-03     179.320E-03
            5256            5370     175.002E-03     179.320E-03
            5239            5371     174.539E-03     178.995E-03
            5257            5371     174.539E-03     178.995E-03
            5240            5371     174.539E-03     178.995E-03
            5258            5371     174.539E-03     178.995E-03
            5240            5372     174.133E-03     178.666E-03
            5258            5372     174.133E-03     178.666E-03
            5241            5372     174.133E-03     178.666E-03
            5259            5372     174.133E-03     178.666E-03
            5242            5373     173.729E-03     178.422E-03
            5260            5373     173.729E-03     178.422E-03
            5241            5373     173.729E-03     178.422E-03
            5259            5373     173.729E-03     178.422E-03
            5261            5374     172.649E-03     177.410E-03
            5242            5374     172.649E-03     177.410E-03
            5243            5374     172.649E-03     177.410E-03
            5260            5374     172.649E-03     177.410E-03
            5244            5375     168.834E-03     173.499E-03
            5261            5375     168.834E-03     173.499E-03
            5243            5375     168.834E-03     173.499E-03
            5262            5375     168.834E-03     173.499E-03
            5262            5376     157.304E-03     160.546E-03
            5245            5376     157.304E-03     160.546E-03
            5244            5376     157.304E-03     160.546E-03
            5263            5376     157.304E-03     160.546E-03
            5263            5377     127.920E-03     127.038E-03
            5245            5377     127.920E-03     127.038E-03
            5264            5377     127.920E-03     127.038E-03
            5246            5377     127.920E-03     127.038E-03
            5266            5378     189.814E-03     191.212E-03
            5248            5378     189.814E-03     191.212E-03
            5265            5378     189.814E-03     191.212E-03
            5247            5378     189.814E-03     191.212E-03
            5266            5379     186.720E-03     188.186E-03
            5248            5379     186.720E-03     188.186E-03
            5267            5379     186.720E-03     188.186E-03
            5249            5379     186.720E-03     188.186E-03
            5267            5380     183.579E-03     185.626E-03
            5250            5380     183.579E-03     185.626E-03
            5268            5380     183.579E-03     185.626E-03
            5249            5380     183.579E-03     185.626E-03
            5268            5381     181.267E-03     183.796E-03
            5250            5381     181.267E-03     183.796E-03
            5251            5381     181.267E-03     183.796E-03
            5269            5381     181.267E-03     183.796E-03
            5252            5382     179.393E-03     182.222E-03
            5269            5382     179.393E-03     182.222E-03
            5251            5382     179.393E-03     182.222E-03
            5270            5382     179.393E-03     182.222E-03
            5270            5383     177.940E-03     181.075E-03
            5253            5383     177.940E-03     181.075E-03
            5252            5383     177.940E-03     181.075E-03
            5271            5383     177.940E-03     181.075E-03
            5253            5384     176.714E-03     180.137E-03
            5271            5384     176.714E-03     180.137E-03
            5254            5384     176.714E-03     180.137E-03
            5272            5384     176.714E-03     180.137E-03
            5272            5385     175.661E-03     179.373E-03
            5254            5385     175.661E-03     179.373E-03
            5273            5385     175.661E-03     179.373E-03
            5255            5385     175.661E-03     179.373E-03
            5273            5386     174.690E-03     178.671E-03
            5274            5386     174.690E-03     178.671E-03
            5256            5386     174.690E-03     178.671E-03
            5255            5386     174.690E-03     178.671E-03
            5275            5387     173.774E-03     178.002E-03
            5257            5387     173.774E-03     178.002E-03
            5274            5387     173.774E-03     178.002E-03
            5256            5387     173.774E-03     178.002E-03
            5276            5388     172.754E-03     177.239E-03
            5257            5388     172.754E-03     177.239E-03
            5275            5388     172.754E-03     177.239E-03
            5258            5388     172.754E-03     177.239E-03
            5277            5389     171.546E-03     176.221E-03
            5276            5389     171.546E-03     176.221E-03
            5259            5389     171.546E-03     176.221E-03
            5258            5389     171.546E-03     176.221E-03
            5260            5390     169.667E-03     174.563E-03
            5259            5390     169.667E-03     174.563E-03
            5277            5390     169.667E-03     174.563E-03
            5278            5390     169.667E-03     174.563E-03
            5260            5391     166.419E-03     171.327E-03
            5261            5391     166.419E-03     171.327E-03
            5278            5391     166.419E-03     171.327E-03
            5279            5391     166.419E-03     171.327E-03
            5262            5392     159.909E-03     164.473E-03
            5261            5392     159.909E-03     164.473E-03
            5280            5392     159.909E-03     164.473E-03
            5279            5392     159.909E-03     164.473E-03
            5280            5393     149.781E-03     154.647E-03
            5263            5393     149.781E-03     154.647E-03
            5262            5393     149.781E-03     154.647E-03
            5281            5393     149.781E-03     154.647E-03
            5281            5394     130.244E-03     132.115E-03
            5282            5394     130.244E-03     132.115E-03
            5263            5394     130.244E-03     132.115E-03
            5264            5394     130.244E-03     132.115E-03
            5757            5777     732.785E-06     786.443E-06
            5739            5777     732.785E-06     786.443E-06
            5758            5777     732.785E-06     786.443E-06
            5740            5777     732.785E-06     786.443E-06
            5740            5778     553.762E-06     615.667E-06
            5758            5778     553.762E-06     615.667E-06
            5759            5778     553.762E-06     615.667E-06
            5741            5778     553.762E-06     615.667E-06
            5759            5779     493.118E-06     553.844E-06
            5741            5779     493.118E-06     553.844E-06
            5760            5779     493.118E-06     553.844E-06
            5742            5779     493.118E-06     553.844E-06
            5761            5780     477.633E-06     535.462E-06
            5760            5780     477.633E-06     535.462E-06
            5743            5780     477.633E-06     535.462E-06
            5742            5780     477.633E-06     535.462E-06
            5761            5781     465.902E-06     520.540E-06
            5762            5781     465.902E-06     520.540E-06
            5743            5781     465.902E-06     520.540E-06
            5744            5781     465.902E-06     520.540E-06
            5745            5782     454.892E-06     507.606E-06
            5744            5782     454.892E-06     507.606E-06
            5763            5782     454.892E-06     507.606E-06
            5762            5782     454.892E-06     507.606E-06
            5763            5783     442.669E-06     493.513E-06
            5746            5783     442.669E-06     493.513E-06
            5764            5783     442.669E-06     493.513E-06
            5745            5783     442.669E-06     493.513E-06
            5746            5784     431.341E-06     480.134E-06
            5764            5784     431.341E-06     480.134E-06
            5747            5784     431.341E-06     480.134E-06
            5765            5784     431.341E-06     480.134E-06
            5748            5785     420.495E-06     466.834E-06
            5747            5785     420.495E-06     466.834E-06
            5765            5785     420.495E-06     466.834E-06
            5766            5785     420.495E-06     466.834E-06
            5749            5786     411.244E-06     454.623E-06
            5766            5786     411.244E-06     454.623E-06
            5767            5786     411.244E-06     454.623E-06
            5748            5786     411.244E-06     454.623E-06
            5768            5787     403.207E-06     443.226E-06
            5749            5787     403.207E-06     443.226E-06
            5750            5787     403.207E-06     443.226E-06
            5767            5787     403.207E-06     443.226E-06
            5751            5788     396.990E-06     432.831E-06
            5768            5788     396.990E-06     432.831E-06
            5769            5788     396.990E-06     432.831E-06
            5750            5788     396.990E-06     432.831E-06
            5770            5789     392.106E-06     423.583E-06
            5751            5789     392.106E-06     423.583E-06
            5752            5789     392.106E-06     423.583E-06
            5769            5789     392.106E-06     423.583E-06
            5753            5790     389.235E-06     414.953E-06
            5771            5790     389.235E-06     414.953E-06
            5770            5790     389.235E-06     414.953E-06
            5752            5790     389.235E-06     414.953E-06
            5771            5791     386.835E-06     407.068E-06
            5753            5791     386.835E-06     407.068E-06
            5772            5791     386.835E-06     407.068E-06
            5754            5791     386.835E-06     407.068E-06
            5772            5792     382.117E-06     406.036E-06
            5755            5792     382.117E-06     406.036E-06
            5754            5792     382.117E-06     406.036E-06
            5773            5792     382.117E-06     406.036E-06
            5755            5793     380.773E-06     406.420E-06
            5773            5793     380.773E-06     406.420E-06
            5774            5793     380.773E-06     406.420E-06
            5756            5793     380.773E-06     406.420E-06
            5775            5794     602.476E-06     608.714E-06
            5758            5794     602.476E-06     608.714E-06
            5776            5794     602.476E-06     608.714E-06
            5757            5794     602.476E-06     608.714E-06
            5776            5795     547.951E-06     573.507E-06
            5759            5795     547.951E-06     573.507E-06
            5777            5795     547.951E-06     573.507E-06
            5758            5795     547.951E-06     573.507E-06
            5778            5796     521.868E-06     556.249E-06
            5759            5796     521.868E-06     556.249E-06
            5760            5796     521.868E-06     556.249E-06
            5777            5796     521.868E-06     556.249E-06
            5779            5797     510.620E-06     544.498E-06
            5761            5797     510.620E-06     544.498E-06
            5778            5797     510.620E-06     544.498E-06
            5760            5797     510.620E-06     544.498E-06
            5762            5798     497.258E-06     527.988E-06
            5779            5798     497.258E-06     527.988E-06
            5780            5798     497.258E-06     527.988E-06
            5761            5798     497.258E-06     527.988E-06
            5763            5799     480.072E-06     510.812E-06
            5780            5799     480.072E-06     510.812E-06
            5781            5799     480.072E-06     510.812E-06
            5762            5799     480.072E-06     510.812E-06
            5782            5800     465.800E-06     495.071E-06
            5781            5800     465.800E-06     495.071E-06
            5764            5800     465.800E-06     495.071E-06
            5763            5800     465.800E-06     495.071E-06
            5782            5801     452.087E-06     480.504E-06
            5783            5801     452.087E-06     480.504E-06
            5764            5801     452.087E-06     480.504E-06
            5765            5801     452.087E-06     480.504E-06
            5766            5802     440.713E-06     467.754E-06
            5784            5802     440.713E-06     467.754E-06
            5783            5802     440.713E-06     467.754E-06
            5765            5802     440.713E-06     467.754E-06
            5767            5803     430.583E-06     456.083E-06
            5784            5803     430.583E-06     456.083E-06
            5785            5803     430.583E-06     456.083E-06
            5766            5803     430.583E-06     456.083E-06
            5768            5804     422.167E-06     445.925E-06
            5767            5804     422.167E-06     445.925E-06
            5786            5804     422.167E-06     445.925E-06
            5785            5804     422.167E-06     445.925E-06
            5787            5805     415.219E-06     436.746E-06
            5769            5805     415.219E-06     436.746E-06
            5768            5805     415.219E-06     436.746E-06
            5786            5805     415.219E-06     436.746E-06
            5788            5806     409.557E-06     429.186E-06
            5769            5806     409.557E-06     429.186E-06
            5770            5806     409.557E-06     429.186E-06
            5787            5806     409.557E-06     429.186E-06
            5788            5807     405.979E-06     422.518E-06
            5771            5807     405.979E-06     422.518E-06
            5789            5807     405.979E-06     422.518E-06
            5770            5807     405.979E-06     422.518E-06
            5772            5808     404.368E-06     416.815E-06
            5771            5808     404.368E-06     416.815E-06
            5789            5808     404.368E-06     416.815E-06
            5790            5808     404.368E-06     416.815E-06
            5773            5809     406.296E-06     410.057E-06
            5772            5809     406.296E-06     410.057E-06
            5791            5809     406.296E-06     410.057E-06
            5790            5809     406.296E-06     410.057E-06
            5791            5810     419.333E-06     396.855E-06
            5773            5810     419.333E-06     396.855E-06
            5792            5810     419.333E-06     396.855E-06
            5774            5810     419.333E-06     396.855E-06
            5794            5811     417.907E-06     432.588E-06
            5775            5811     417.907E-06     432.588E-06
            5793            5811     417.907E-06     432.588E-06
            5776            5811     417.907E-06     432.588E-06
            5776            5812     467.916E-06     492.372E-06
            5794            5812     467.916E-06     492.372E-06
            5795            5812     467.916E-06     492.372E-06
            5777            5812     467.916E-06     492.372E-06
            5777            5813     529.949E-06     542.752E-06
            5795            5813     529.949E-06     542.752E-06
            5796            5813     529.949E-06     542.752E-06
            5778            5813     529.949E-06     542.752E-06
            5779            5814     534.192E-06     540.864E-06
            5778            5814     534.192E-06     540.864E-06
            5797            5814     534.192E-06     540.864E-06
            5796            5814     534.192E-06     540.864E-06
            5780            5815     518.503E-06     526.904E-06
            5797            5815     518.503E-06     526.904E-06
            5798            5815     518.503E-06     526.904E-06
            5779            5815     518.503E-06     526.904E-06
            5780            5816     502.334E-06     509.361E-06
            5781            5816     502.334E-06     509.361E-06
            5799            5816     502.334E-06     509.361E-06
            5798            5816     502.334E-06     509.361E-06
            5781            5817     485.642E-06     493.326E-06
            5799            5817     485.642E-06     493.326E-06
            5800            5817     485.642E-06     493.326E-06
            5782            5817     485.642E-06     493.326E-06
            5800            5818     472.281E-06     479.588E-06
            5801            5818     472.281E-06     479.588E-06
            5783            5818     472.281E-06     479.588E-06
            5782            5818     472.281E-06     479.588E-06
            5802            5819     460.349E-06     467.658E-06
            5801            5819     460.349E-06     467.658E-06
            5783            5819     460.349E-06     467.658E-06
            5784            5819     460.349E-06     467.658E-06
            5784            5820     450.414E-06     457.606E-06
            5785            5820     450.414E-06     457.606E-06
            5802            5820     450.414E-06     457.606E-06
            5803            5820     450.414E-06     457.606E-06
            5804            5821     441.777E-06     448.661E-06
            5785            5821     441.777E-06     448.661E-06
            5803            5821     441.777E-06     448.661E-06
            5786            5821     441.777E-06     448.661E-06
            5787            5822     434.306E-06     441.408E-06
            5804            5822     434.306E-06     441.408E-06
            5805            5822     434.306E-06     441.408E-06
            5786            5822     434.306E-06     441.408E-06
            5806            5823     428.457E-06     435.010E-06
            5787            5823     428.457E-06     435.010E-06
            5788            5823     428.457E-06     435.010E-06
            5805            5823     428.457E-06     435.010E-06
            5788            5824     423.275E-06     430.809E-06
            5806            5824     423.275E-06     430.809E-06
            5807            5824     423.275E-06     430.809E-06
            5789            5824     423.275E-06     430.809E-06
            5807            5825     421.835E-06     427.475E-06
            5789            5825     421.835E-06     427.475E-06
            5808            5825     421.835E-06     427.475E-06
            5790            5825     421.835E-06     427.475E-06
            5809            5826     431.378E-06     414.556E-06
            5808            5826     431.378E-06     414.556E-06
            5790            5826     431.378E-06     414.556E-06
            5791            5826     431.378E-06     414.556E-06
            5810            5827     439.862E-06     395.764E-06
            5791            5827     439.862E-06     395.764E-06
            5792            5827     439.862E-06     395.764E-06
            5809            5827     439.862E-06     395.764E-06
            5794            5828     278.635E-06     274.808E-06
            5811            5828     278.635E-06     274.808E-06
            5812            5828     278.635E-06     274.808E-06
            5793            5828     278.635E-06     274.808E-06
            5795            5829     409.248E-06     410.428E-06
            5812            5829     409.248E-06     410.428E-06
            5794            5829     409.248E-06     410.428E-06
            5813            5829     409.248E-06     410.428E-06
            5813            5830     511.618E-06     495.393E-06
            5796            5830     511.618E-06     495.393E-06
            5814            5830     511.618E-06     495.393E-06
            5795            5830     511.618E-06     495.393E-06
            5796            5831     532.332E-06     513.944E-06
            5797            5831     532.332E-06     513.944E-06
            5814            5831     532.332E-06     513.944E-06
            5815            5831     532.332E-06     513.944E-06
            5797            5832     527.202E-06     509.346E-06
            5816            5832     527.202E-06     509.346E-06
            5815            5832     527.202E-06     509.346E-06
            5798            5832     527.202E-06     509.346E-06
            5799            5833     514.905E-06     498.533E-06
            5816            5833     514.905E-06     498.533E-06
            5817            5833     514.905E-06     498.533E-06
            5798            5833     514.905E-06     498.533E-06
            5800            5834     502.386E-06     487.040E-06
            5817            5834     502.386E-06     487.040E-06
            5799            5834     502.386E-06     487.040E-06
            5818            5834     502.386E-06     487.040E-06
            5819            5835     490.543E-06     476.428E-06
            5800            5835     490.543E-06     476.428E-06
            5818            5835     490.543E-06     476.428E-06
            5801            5835     490.543E-06     476.428E-06
            5801            5836     480.163E-06     467.309E-06
            5820            5836     480.163E-06     467.309E-06
            5819            5836     480.163E-06     467.309E-06
            5802            5836     480.163E-06     467.309E-06
            5802            5837     470.726E-06     459.215E-06
            5803            5837     470.726E-06     459.215E-06
            5820            5837     470.726E-06     459.215E-06
            5821            5837     470.726E-06     459.215E-06
            5803            5838     462.326E-06     452.412E-06
            5821            5838     462.326E-06     452.412E-06
            5804            5838     462.326E-06     452.412E-06
            5822            5838     462.326E-06     452.412E-06
            5822            5839     454.905E-06     446.445E-06
            5804            5839     454.905E-06     446.445E-06
            5805            5839     454.905E-06     446.445E-06
            5823            5839     454.905E-06     446.445E-06
            5823            5840     448.164E-06     442.065E-06
            5805            5840     448.164E-06     442.065E-06
            5806            5840     448.164E-06     442.065E-06
            5824            5840     448.164E-06     442.065E-06
            5807            5841     442.819E-06     438.590E-06
            5824            5841     442.819E-06     438.590E-06
            5806            5841     442.819E-06     438.590E-06
            5825            5841     442.819E-06     438.590E-06
            5807            5842     438.266E-06     436.810E-06
            5826            5842     438.266E-06     436.810E-06
            5825            5842     438.266E-06     436.810E-06
            5808            5842     438.266E-06     436.810E-06
            5827            5843     436.333E-06     436.524E-06
            5808            5843     436.333E-06     436.524E-06
            5826            5843     436.333E-06     436.524E-06
            5809            5843     436.333E-06     436.524E-06
            5828            5844     447.573E-06     427.544E-06
            5827            5844     447.573E-06     427.544E-06
            5809            5844     447.573E-06     427.544E-06
            5810            5844     447.573E-06     427.544E-06
            5812            5845     228.289E-06     244.394E-06
            5811            5845     228.289E-06     244.394E-06
            5829            5845     228.289E-06     244.394E-06
            5830            5845     228.289E-06     244.394E-06
            5813            5846     377.142E-06     324.731E-06
            5812            5846     377.142E-06     324.731E-06
            5831            5846     377.142E-06     324.731E-06
            5830            5846     377.142E-06     324.731E-06
            5814            5847     470.192E-06     420.545E-06
            5813            5847     470.192E-06     420.545E-06
            5831            5847     470.192E-06     420.545E-06
            5832            5847     470.192E-06     420.545E-06
            5815            5848     510.617E-06     465.296E-06
            5814            5848     510.617E-06     465.296E-06
            5833            5848     510.617E-06     465.296E-06
            5832            5848     510.617E-06     465.296E-06
            5833            5849     523.578E-06     479.506E-06
            5834            5849     523.578E-06     479.506E-06
            5815            5849     523.578E-06     479.506E-06
            5816            5849     523.578E-06     479.506E-06
            5835            5850     522.246E-06     481.703E-06
            5816            5850     522.246E-06     481.703E-06
            5834            5850     522.246E-06     481.703E-06
            5817            5850     522.246E-06     481.703E-06
            5835            5851     516.661E-06     478.196E-06
            5817            5851     516.661E-06     478.196E-06
            5818            5851     516.661E-06     478.196E-06
            5836            5851     516.661E-06     478.196E-06
            5819            5852     508.747E-06     473.062E-06
            5836            5852     508.747E-06     473.062E-06
            5818            5852     508.747E-06     473.062E-06
            5837            5852     508.747E-06     473.062E-06
            5820            5853     500.398E-06     467.360E-06
            5819            5853     500.398E-06     467.360E-06
            5838            5853     500.398E-06     467.360E-06
            5837            5853     500.398E-06     467.360E-06
            5820            5854     492.096E-06     461.922E-06
            5838            5854     492.096E-06     461.922E-06
            5839            5854     492.096E-06     461.922E-06
            5821            5854     492.096E-06     461.922E-06
            5839            5855     484.042E-06     457.078E-06
            5821            5855     484.042E-06     457.078E-06
            5822            5855     484.042E-06     457.078E-06
            5840            5855     484.042E-06     457.078E-06
            5823            5856     476.596E-06     452.875E-06
            5841            5856     476.596E-06     452.875E-06
            5822            5856     476.596E-06     452.875E-06
            5840            5856     476.596E-06     452.875E-06
            5824            5857     469.454E-06     449.731E-06
            5841            5857     469.454E-06     449.731E-06
            5823            5857     469.454E-06     449.731E-06
            5842            5857     469.454E-06     449.731E-06
            5843            5858     463.271E-06     447.282E-06
            5825            5858     463.271E-06     447.282E-06
            5824            5858     463.271E-06     447.282E-06
            5842            5858     463.271E-06     447.282E-06
            5844            5859     456.154E-06     446.259E-06
            5825            5859     456.154E-06     446.259E-06
            5843            5859     456.154E-06     446.259E-06
            5826            5859     456.154E-06     446.259E-06
            5844            5860     445.597E-06     453.118E-06
            5827            5860     445.597E-06     453.118E-06
            5826            5860     445.597E-06     453.118E-06
            5845            5860     445.597E-06     453.118E-06
            5846            5861     437.348E-06     464.318E-06
            5827            5861     437.348E-06     464.318E-06
            5845            5861     437.348E-06     464.318E-06
            5828            5861     437.348E-06     464.318E-06


  Minimum                            89.9879E-06     206.395E-06
      At Element                             856            5811
            Node                             308             197

  Maximum                            191.332E-03     192.562E-03
      At Element                            5247            5265
            Node                             626             625

           Total                         270.029         274.946


