********************************************************************************
Field Output Report, written Tue Feb 20 13:43:20 2018

Source 1
---------

   ODB: C:/Users/JMJFVA~1/AppData/Local/Temp/A320.odb
   Step: RotationDown
   Frame: Increment      1: Step Time =    1.000

Loc 1 : Element nodal  values at shell < ALUMINIUM > < 5 section points > from source 1 : SNEG, (fraction = -1.0) ( Average criteria = 75%, Not averaged across region boundaries )
Loc 2 : Element nodal  values at shell < ALUMINIUM > < 5 section points > from source 1 : SPOS, (fraction = 1.0) ( Average criteria = 75%, Not averaged across region boundaries )

Output sorted by column "Node Label".

Field Output reported at element nodes for region: A320-1.Region_1
   Computation algorithm: EXTRAPOLATE_COMPUTE_AVERAGE
   Averaged at nodes
   Averaging regions: ODB_REGIONS

   Element Label      Node Label         S.Mises         S.Mises
                                          @Loc 1          @Loc 2
-----------------------------------------------------------------
            2271               3     1.23725E-03     1.97210E-03
             874               3     1.23725E-03     1.97210E-03
            2325               4     31.0997E-15     31.9902E-15
            3976               6     64.9426E-03     67.1672E-03
            1756               6     64.9426E-03     67.1672E-03
            4066               8     73.1378E-03     77.7027E-03
            3410               8     73.1378E-03     77.7027E-03
            5864              10     60.3206E-03     60.8338E-03
            3500              10     60.3206E-03     60.8338E-03
            5084              15     1.04712E-03     1.97859E-03
            6566              15     1.04712E-03     1.97859E-03
            2288              16     1.63225E-03     1.97444E-03
             857              16     1.63225E-03     1.97444E-03
            2342              19     33.6083E-15     58.7397E-15
            1739              20     2.87765E-03     3.89377E-03
            3959              20     2.87765E-03     3.89377E-03
            4049              23     2.14728E-03     3.33133E-03
            3393              23     2.14728E-03     3.33133E-03
            5847              24     4.99412E-03     6.26705E-03
            3483              24     4.99412E-03     6.26705E-03
            5067              26     1.81403E-03     2.10098E-03
            6549              26     1.81403E-03     2.10098E-03
            5174              27     13.7584E-15     13.5053E-15
            5157              28     13.5464E-15     19.7331E-15
            2289              38     28.3845E-15     28.6951E-15
            2271              38     28.3845E-15     28.6951E-15
            2289              39     29.4005E-15     29.0311E-15
            2307              39     29.4005E-15     29.0311E-15
            2307              40     32.9752E-15     32.8030E-15
            2325              40     32.9752E-15     32.8030E-15
            1738             102     67.9646E-03     68.2789E-03
            1756             102     67.9646E-03     68.2789E-03
            1738             103     66.6551E-03     66.6269E-03
            1720             103     66.6551E-03     66.6269E-03
            1720             104     64.7360E-03     65.9255E-03
            1702             104     64.7360E-03     65.9255E-03
            1702             105     63.4039E-03     63.7666E-03
            1684             105     63.4039E-03     63.7666E-03
            1684             106     61.4673E-03     62.3329E-03
            1666             106     61.4673E-03     62.3329E-03
            1666             107     59.8878E-03     60.2109E-03
            1648             107     59.8878E-03     60.2109E-03
            1648             108     57.7099E-03     58.4517E-03
            1630             108     57.7099E-03     58.4517E-03
            1630             109     55.4122E-03     55.4368E-03
            1612             109     55.4122E-03     55.4368E-03
            1612             110     52.6112E-03     51.8541E-03
            1594             110     52.6112E-03     51.8541E-03
            1576             111     52.6614E-03     54.1699E-03
            1594             111     52.6614E-03     54.1699E-03
            1558             112     54.8031E-03     55.1618E-03
            1576             112     54.8031E-03     55.1618E-03
            1558             113     53.3603E-03     53.3474E-03
            1540             113     53.3603E-03     53.3474E-03
            1540             114     51.4506E-03     52.3843E-03
            1522             114     51.4506E-03     52.3843E-03
            1504             115     50.0069E-03     50.3515E-03
            1522             115     50.0069E-03     50.3515E-03
            1504             116     48.2563E-03     48.8436E-03
            1486             116     48.2563E-03     48.8436E-03
            1486             117     46.6463E-03     47.0442E-03
            1468             117     46.6463E-03     47.0442E-03
            1468             118     44.8089E-03     45.1472E-03
            1450             118     44.8089E-03     45.1472E-03
            1450             119     42.8681E-03     43.2506E-03
            1432             119     42.8681E-03     43.2506E-03
            1414             120     40.5641E-03     40.6124E-03
            1432             120     40.5641E-03     40.6124E-03
            1396             121     37.9799E-03     37.2417E-03
            1414             121     37.9799E-03     37.2417E-03
            1396             122     38.2654E-03     39.3784E-03
            1378             122     38.2654E-03     39.3784E-03
            1378             123     40.1074E-03     40.5287E-03
            1360             123     40.1074E-03     40.5287E-03
            1360             124     38.5134E-03     38.4788E-03
            1342             124     38.5134E-03     38.4788E-03
            1324             125     36.5519E-03     37.2637E-03
            1342             125     36.5519E-03     37.2637E-03
            1324             126     35.0397E-03     35.2659E-03
            1306             126     35.0397E-03     35.2659E-03
            1306             127     33.2841E-03     33.7051E-03
            1288             127     33.2841E-03     33.7051E-03
            1270             128     31.6822E-03     31.9139E-03
            1288             128     31.6822E-03     31.9139E-03
            1252             129     29.8675E-03     30.0855E-03
            1270             129     29.8675E-03     30.0855E-03
            1252             130     28.0116E-03     28.1702E-03
            1234             130     28.0116E-03     28.1702E-03
            1216             131     25.7799E-03     25.7984E-03
            1234             131     25.7799E-03     25.7984E-03
            1198             132     23.3516E-03     22.6862E-03
            1216             132     23.3516E-03     22.6862E-03
            1180             133     23.8837E-03     24.6203E-03
            1198             133     23.8837E-03     24.6203E-03
            1180             134     25.4663E-03     25.9495E-03
            1162             134     25.4663E-03     25.9495E-03
            1144             135     23.7485E-03     23.6818E-03
            1162             135     23.7485E-03     23.6818E-03
            1126             136     21.7555E-03     22.2359E-03
            1144             136     21.7555E-03     22.2359E-03
            1108             137     20.1972E-03     20.2969E-03
            1126             137     20.1972E-03     20.2969E-03
            1090             138     18.4622E-03     18.7076E-03
            1108             138     18.4622E-03     18.7076E-03
            1090             139     16.8972E-03     16.9543E-03
            1072             139     16.8972E-03     16.9543E-03
            1054             140     15.1447E-03     15.2286E-03
            1072             140     15.1447E-03     15.2286E-03
            1036             141     13.4176E-03     13.3386E-03
            1054             141     13.4176E-03     13.3386E-03
            1018             142     11.3425E-03     11.2842E-03
            1036             142     11.3425E-03     11.2842E-03
            1000             143     9.09650E-03     8.59403E-03
            1018             143     9.09650E-03     8.59403E-03
            1000             144     9.44381E-03     9.88163E-03
             982             144     9.44381E-03     9.88163E-03
             982             145     10.2927E-03     10.8117E-03
             964             145     10.2927E-03     10.8117E-03
             964             146     8.42186E-03     8.24265E-03
             946             146     8.42186E-03     8.24265E-03
             928             147     6.35840E-03     6.53168E-03
             946             147     6.35840E-03     6.53168E-03
             910             148     4.80784E-03     4.58918E-03
             928             148     4.80784E-03     4.58918E-03
             892             149     3.39985E-03     3.15208E-03
             910             149     3.39985E-03     3.15208E-03
             892             150     2.64065E-03     3.26142E-03
             874             150     2.64065E-03     3.26142E-03
            4048             162     73.3447E-03     73.8632E-03
            4066             162     73.3447E-03     73.8632E-03
            4030             163     71.5843E-03     71.9764E-03
            4048             163     71.5843E-03     71.9764E-03
            4030             164     68.9407E-03     69.8171E-03
            4012             164     68.9407E-03     69.8171E-03
            3994             165     66.4208E-03     65.7021E-03
            4012             165     66.4208E-03     65.7021E-03
            3994             166     63.2594E-03     64.2782E-03
            3976             166     63.2594E-03     64.2782E-03
            3500             178     63.2110E-03     62.7095E-03
            3482             178     63.2110E-03     62.7095E-03
            3464             179     66.7883E-03     66.7079E-03
            3482             179     66.7883E-03     66.7079E-03
            3464             180     69.2367E-03     71.0259E-03
            3446             180     69.2367E-03     71.0259E-03
            3446             181     72.2445E-03     72.0495E-03
            3428             181     72.2445E-03     72.0495E-03
            3410             182     74.0004E-03     74.7971E-03
            3428             182     74.0004E-03     74.7971E-03
            6566             250     2.31723E-03     3.16031E-03
            6548             250     2.31723E-03     3.16031E-03
            6530             251     3.60769E-03     3.53402E-03
            6548             251     3.60769E-03     3.53402E-03
            6512             252     6.25054E-03     5.84580E-03
            6530             252     6.25054E-03     5.84580E-03
            6512             253     8.68605E-03     9.38760E-03
            6494             253     8.68605E-03     9.38760E-03
            6476             254     8.23738E-03     8.86738E-03
            6494             254     8.23738E-03     8.86738E-03
            6458             255     8.14191E-03     7.68590E-03
            6476             255     8.14191E-03     7.68590E-03
            6458             256     10.7751E-03     10.6508E-03
            6440             256     10.7751E-03     10.6508E-03
            6440             257     13.2014E-03     13.0430E-03
            6422             257     13.2014E-03     13.0430E-03
            6422             258     15.2514E-03     15.3142E-03
            6404             258     15.2514E-03     15.3142E-03
            6386             259     17.3506E-03     17.3768E-03
            6404             259     17.3506E-03     17.3768E-03
            6386             260     19.2369E-03     19.4923E-03
            6368             260     19.2369E-03     19.4923E-03
            6368             261     21.3423E-03     21.4316E-03
            6350             261     21.3423E-03     21.4316E-03
            6332             262     23.2459E-03     23.7805E-03
            6350             262     23.2459E-03     23.7805E-03
            6314             263     25.6920E-03     25.5858E-03
            6332             263     25.6920E-03     25.5858E-03
            6314             264     27.8048E-03     28.4301E-03
            6296             264     27.8048E-03     28.4301E-03
            6278             265     25.8922E-03     26.7251E-03
            6296             265     25.8922E-03     26.7251E-03
            6260             266     25.1470E-03     24.3313E-03
            6278             266     25.1470E-03     24.3313E-03
            6242             267     28.0649E-03     28.0189E-03
            6260             267     28.0649E-03     28.0189E-03
            6242             268     30.7213E-03     30.8884E-03
            6224             268     30.7213E-03     30.8884E-03
            6206             269     33.0241E-03     33.1582E-03
            6224             269     33.0241E-03     33.1582E-03
            6206             270     35.1188E-03     35.4510E-03
            6188             270     35.1188E-03     35.4510E-03
            6170             271     37.2542E-03     37.5066E-03
            6188             271     37.2542E-03     37.5066E-03
            6152             272     39.1160E-03     39.6483E-03
            6170             272     39.1160E-03     39.6483E-03
            6152             273     41.2464E-03     41.5049E-03
            6134             273     41.2464E-03     41.5049E-03
            6116             274     43.0623E-03     43.9303E-03
            6134             274     43.0623E-03     43.9303E-03
            6116             275     45.4588E-03     45.3858E-03
            6098             275     45.4588E-03     45.3858E-03
            6098             276     47.3903E-03     47.9467E-03
            6080             276     47.3903E-03     47.9467E-03
            6080             277     45.0052E-03     46.3634E-03
            6062             277     45.0052E-03     46.3634E-03
            6044             278     44.4947E-03     43.5749E-03
            6062             278     44.4947E-03     43.5749E-03
            6044             279     47.6235E-03     47.6609E-03
            6026             279     47.6235E-03     47.6609E-03
            6026             280     50.4364E-03     50.8768E-03
            6008             280     50.4364E-03     50.8768E-03
            5990             281     52.8084E-03     53.2058E-03
            6008             281     52.8084E-03     53.2058E-03
            5972             282     55.0481E-03     55.5158E-03
            5990             282     55.0481E-03     55.5158E-03
            5954             283     57.0143E-03     57.7134E-03
            5972             283     57.0143E-03     57.7134E-03
            5954             284     59.1602E-03     59.5669E-03
            5936             284     59.1602E-03     59.5669E-03
            5936             285     60.9267E-03     62.0478E-03
            5918             285     60.9267E-03     62.0478E-03
            5918             286     63.2835E-03     63.2352E-03
            5900             286     63.2835E-03     63.2352E-03
            5882             287     65.0663E-03     65.5288E-03
            5900             287     65.0663E-03     65.5288E-03
            5882             288     62.0826E-03     64.4996E-03
            5864             288     62.0826E-03     64.4996E-03
            2324             326     24.7908E-15     43.5010E-15
            2342             326     24.7908E-15     43.5010E-15
            2324             327     14.7107E-15     16.7684E-15
            2306             327     14.7107E-15     16.7684E-15
            2306             328     10.7653E-15     13.0306E-15
            2288             328     10.7653E-15     13.0306E-15
             857             329     1.73490E-03     1.93351E-03
            2287             329     1.73490E-03     1.93351E-03
            2288             329     1.73490E-03     1.93351E-03
             858             329     1.73490E-03     1.93351E-03
             859             330     1.86309E-03     1.85578E-03
            2287             330     1.86309E-03     1.85578E-03
            2286             330     1.86309E-03     1.85578E-03
             858             330     1.86309E-03     1.85578E-03
            2285             331     1.91714E-03     1.83746E-03
            2286             331     1.91714E-03     1.83746E-03
             860             331     1.91714E-03     1.83746E-03
             859             331     1.91714E-03     1.83746E-03
            2285             332     1.96734E-03     1.85615E-03
            2284             332     1.96734E-03     1.85615E-03
             861             332     1.96734E-03     1.85615E-03
             860             332     1.96734E-03     1.85615E-03
            2283             333     2.01701E-03     1.87440E-03
            2284             333     2.01701E-03     1.87440E-03
             862             333     2.01701E-03     1.87440E-03
             861             333     2.01701E-03     1.87440E-03
             863             334     2.07169E-03     1.90430E-03
             862             334     2.07169E-03     1.90430E-03
            2283             334     2.07169E-03     1.90430E-03
            2282             334     2.07169E-03     1.90430E-03
             864             335     2.12815E-03     1.93762E-03
             863             335     2.12815E-03     1.93762E-03
            2282             335     2.12815E-03     1.93762E-03
            2281             335     2.12815E-03     1.93762E-03
            2280             336     2.18687E-03     1.97330E-03
             864             336     2.18687E-03     1.97330E-03
            2281             336     2.18687E-03     1.97330E-03
             865             336     2.18687E-03     1.97330E-03
             866             337     2.24437E-03     2.01087E-03
            2279             337     2.24437E-03     2.01087E-03
            2280             337     2.24437E-03     2.01087E-03
             865             337     2.24437E-03     2.01087E-03
            2279             338     2.29636E-03     2.04086E-03
             866             338     2.29636E-03     2.04086E-03
            2278             338     2.29636E-03     2.04086E-03
             867             338     2.29636E-03     2.04086E-03
             868             339     2.33461E-03     2.05949E-03
            2277             339     2.33461E-03     2.05949E-03
             867             339     2.33461E-03     2.05949E-03
            2278             339     2.33461E-03     2.05949E-03
            2277             340     2.34750E-03     2.04972E-03
             869             340     2.34750E-03     2.04972E-03
            2276             340     2.34750E-03     2.04972E-03
             868             340     2.34750E-03     2.04972E-03
            2275             341     2.30269E-03     1.98103E-03
            2276             341     2.30269E-03     1.98103E-03
             869             341     2.30269E-03     1.98103E-03
             870             341     2.30269E-03     1.98103E-03
            2275             342     2.18791E-03     1.83066E-03
            2274             342     2.18791E-03     1.83066E-03
             871             342     2.18791E-03     1.83066E-03
             870             342     2.18791E-03     1.83066E-03
             872             343     1.88827E-03     1.48435E-03
            2274             343     1.88827E-03     1.48435E-03
             871             343     1.88827E-03     1.48435E-03
            2273             343     1.88827E-03     1.48435E-03
            2273             344     1.41400E-03     937.063E-06
             873             344     1.41400E-03     937.063E-06
             872             344     1.41400E-03     937.063E-06
            2272             344     1.41400E-03     937.063E-06
             874             345     1.20237E-03     1.30238E-03
            2272             345     1.20237E-03     1.30238E-03
             873             345     1.20237E-03     1.30238E-03
            2271             345     1.20237E-03     1.30238E-03
            3976             346     61.3835E-03     63.0908E-03
            1755             346     61.3835E-03     63.0908E-03
            1756             346     61.3835E-03     63.0908E-03
            3975             346     61.3835E-03     63.0908E-03
            3974             347     55.7812E-03     56.7560E-03
            3975             347     55.7812E-03     56.7560E-03
            1755             347     55.7812E-03     56.7560E-03
            1754             347     55.7812E-03     56.7560E-03
            1753             348     51.6511E-03     52.5201E-03
            3974             348     51.6511E-03     52.5201E-03
            1754             348     51.6511E-03     52.5201E-03
            3973             348     51.6511E-03     52.5201E-03
            3973             349     47.7936E-03     48.7306E-03
            3972             349     47.7936E-03     48.7306E-03
            1752             349     47.7936E-03     48.7306E-03
            1753             349     47.7936E-03     48.7306E-03
            3971             350     44.2047E-03     45.1964E-03
            3972             350     44.2047E-03     45.1964E-03
            1752             350     44.2047E-03     45.1964E-03
            1751             350     44.2047E-03     45.1964E-03
            1751             351     40.6883E-03     41.7749E-03
            3971             351     40.6883E-03     41.7749E-03
            3970             351     40.6883E-03     41.7749E-03
            1750             351     40.6883E-03     41.7749E-03
            1749             352     37.2582E-03     38.3996E-03
            3970             352     37.2582E-03     38.3996E-03
            1750             352     37.2582E-03     38.3996E-03
            3969             352     37.2582E-03     38.3996E-03
            3969             353     33.8435E-03     35.0436E-03
            3968             353     33.8435E-03     35.0436E-03
            1749             353     33.8435E-03     35.0436E-03
            1748             353     33.8435E-03     35.0436E-03
            1748             354     30.4564E-03     31.6865E-03
            3968             354     30.4564E-03     31.6865E-03
            1747             354     30.4564E-03     31.6865E-03
            3967             354     30.4564E-03     31.6865E-03
            1746             355     27.0698E-03     28.3242E-03
            1747             355     27.0698E-03     28.3242E-03
            3967             355     27.0698E-03     28.3242E-03
            3966             355     27.0698E-03     28.3242E-03
            3966             356     23.6940E-03     24.9525E-03
            1745             356     23.6940E-03     24.9525E-03
            1746             356     23.6940E-03     24.9525E-03
            3965             356     23.6940E-03     24.9525E-03
            3964             357     20.3241E-03     21.5735E-03
            3965             357     20.3241E-03     21.5735E-03
            1744             357     20.3241E-03     21.5735E-03
            1745             357     20.3241E-03     21.5735E-03
            1743             358     16.9720E-03     18.1893E-03
            3964             358     16.9720E-03     18.1893E-03
            1744             358     16.9720E-03     18.1893E-03
            3963             358     16.9720E-03     18.1893E-03
            1743             359     13.6533E-03     14.8090E-03
            1742             359     13.6533E-03     14.8090E-03
            3963             359     13.6533E-03     14.8090E-03
            3962             359     13.6533E-03     14.8090E-03
            3962             360     10.3975E-03     11.4465E-03
            1742             360     10.3975E-03     11.4465E-03
            1741             360     10.3975E-03     11.4465E-03
            3961             360     10.3975E-03     11.4465E-03
            1740             361     7.26851E-03     8.17221E-03
            3961             361     7.26851E-03     8.17221E-03
            1741             361     7.26851E-03     8.17221E-03
            3960             361     7.26851E-03     8.17221E-03
            3959             362     4.31510E-03     5.23285E-03
            3960             362     4.31510E-03     5.23285E-03
            1740             362     4.31510E-03     5.23285E-03
            1739             362     4.31510E-03     5.23285E-03
            1721             363     3.56043E-03     5.08823E-03
            1739             363     3.56043E-03     5.08823E-03
            1703             364     2.07837E-03     3.52979E-03
            1721             364     2.07837E-03     3.52979E-03
            1703             365     1.49297E-03     2.54581E-03
            1685             365     1.49297E-03     2.54581E-03
            1667             366     2.19564E-03     3.17813E-03
            1685             366     2.19564E-03     3.17813E-03
            1649             367     3.83810E-03     4.17333E-03
            1667             367     3.83810E-03     4.17333E-03
            1649             368     5.45294E-03     5.84945E-03
            1631             368     5.45294E-03     5.84945E-03
            1631             369     7.10712E-03     7.33584E-03
            1613             369     7.10712E-03     7.33584E-03
            1613             370     9.02184E-03     9.53897E-03
            1595             370     9.02184E-03     9.53897E-03
            1595             371     10.2006E-03     12.1503E-03
            1577             371     10.2006E-03     12.1503E-03
            1577             372     6.66820E-03     8.24453E-03
            1559             372     6.66820E-03     8.24453E-03
            1559             373     2.19516E-03     3.34008E-03
            1541             373     2.19516E-03     3.34008E-03
            1541             374     1.23262E-03     2.42288E-03
            1523             374     1.23262E-03     2.42288E-03
            1523             375     1.22185E-03     1.97465E-03
            1505             375     1.22185E-03     1.97465E-03
            1505             376     2.14005E-03     2.57198E-03
            1487             376     2.14005E-03     2.57198E-03
            1487             377     3.28977E-03     3.52931E-03
            1469             377     3.28977E-03     3.52931E-03
            1469             378     4.48565E-03     4.51436E-03
            1451             378     4.48565E-03     4.51436E-03
            1451             379     5.63940E-03     5.84112E-03
            1433             379     5.63940E-03     5.84112E-03
            1415             380     6.83428E-03     6.91556E-03
            1433             380     6.83428E-03     6.91556E-03
            1397             381     8.23933E-03     8.60539E-03
            1415             381     8.23933E-03     8.60539E-03
            1379             382     9.02256E-03     10.6585E-03
            1397             382     9.02256E-03     10.6585E-03
            1361             383     5.06422E-03     6.35535E-03
            1379             383     5.06422E-03     6.35535E-03
            1361             384     720.025E-06     1.47726E-03
            1343             384     720.025E-06     1.47726E-03
            1343             385     889.860E-06     1.51574E-03
            1325             385     889.860E-06     1.51574E-03
            1325             386     1.75773E-03     1.89157E-03
            1307             386     1.75773E-03     1.89157E-03
            1307             387     2.61425E-03     2.58043E-03
            1289             387     2.61425E-03     2.58043E-03
            1271             388     3.42341E-03     3.38803E-03
            1289             388     3.42341E-03     3.38803E-03
            1253             389     4.25082E-03     4.11189E-03
            1271             389     4.25082E-03     4.11189E-03
            1235             390     5.03815E-03     5.05287E-03
            1253             390     5.03815E-03     5.05287E-03
            1235             391     5.83908E-03     5.79559E-03
            1217             391     5.83908E-03     5.79559E-03
            1199             392     6.80123E-03     6.98600E-03
            1217             392     6.80123E-03     6.98600E-03
            1181             393     7.24474E-03     8.48280E-03
            1199             393     7.24474E-03     8.48280E-03
            1181             394     4.14497E-03     5.20002E-03
            1163             394     4.14497E-03     5.20002E-03
            1163             395     1.47394E-03     1.65881E-03
            1145             395     1.47394E-03     1.65881E-03
            1127             396     2.14439E-03     2.00737E-03
            1145             396     2.14439E-03     2.00737E-03
            1109             397     2.64466E-03     2.47128E-03
            1127             397     2.64466E-03     2.47128E-03
            1091             398     3.14516E-03     2.91119E-03
            1109             398     3.14516E-03     2.91119E-03
            1073             399     3.58488E-03     3.37423E-03
            1091             399     3.58488E-03     3.37423E-03
            1073             400     4.02902E-03     3.77909E-03
            1055             400     4.02902E-03     3.77909E-03
            1055             401     4.44469E-03     4.30533E-03
            1037             401     4.44469E-03     4.30533E-03
            1019             402     4.84859E-03     4.69984E-03
            1037             402     4.84859E-03     4.69984E-03
            1019             403     5.36621E-03     5.38265E-03
            1001             403     5.36621E-03     5.38265E-03
             983             404     5.46848E-03     6.31749E-03
            1001             404     5.46848E-03     6.31749E-03
             983             405     3.85597E-03     4.74092E-03
             965             405     3.85597E-03     4.74092E-03
             965             406     2.70519E-03     2.93787E-03
             947             406     2.70519E-03     2.93787E-03
             929             407     3.12728E-03     2.80756E-03
             947             407     3.12728E-03     2.80756E-03
             911             408     3.27833E-03     2.93602E-03
             929             408     3.27833E-03     2.93602E-03
             911             409     3.43478E-03     3.08231E-03
             893             409     3.43478E-03     3.08231E-03
             875             410     3.60994E-03     3.34355E-03
             893             410     3.60994E-03     3.34355E-03
             875             411     3.46700E-03     3.84254E-03
             857             411     3.46700E-03     3.84254E-03
            2342             497     30.7281E-15     39.9157E-15
            2341             497     30.7281E-15     39.9157E-15
            2340             498     20.5434E-15     14.8214E-15
            2341             498     20.5434E-15     14.8214E-15
            2340             499     19.1169E-15     9.85266E-15
            2339             499     19.1169E-15     9.85266E-15
            2339             500     27.7592E-15     20.3180E-15
            2338             500     27.7592E-15     20.3180E-15
            2337             501     35.2548E-15     25.6878E-15
            2338             501     35.2548E-15     25.6878E-15
            2337             502     38.1408E-15     17.7908E-15
            2336             502     38.1408E-15     17.7908E-15
            2336             503     29.1803E-15     11.3411E-15
            2335             503     29.1803E-15     11.3411E-15
            2334             504     18.1514E-15     12.3953E-15
            2335             504     18.1514E-15     12.3953E-15
            2334             505     21.3241E-15     20.0683E-15
            2333             505     21.3241E-15     20.0683E-15
            2332             506     29.7953E-15     31.1881E-15
            2333             506     29.7953E-15     31.1881E-15
            2331             507     22.8474E-15     27.3865E-15
            2332             507     22.8474E-15     27.3865E-15
            2331             508     17.0911E-15     19.8154E-15
            2330             508     17.0911E-15     19.8154E-15
            2330             509     20.3892E-15     21.7018E-15
            2329             509     20.3892E-15     21.7018E-15
            2328             510     26.4419E-15     27.0039E-15
            2329             510     26.4419E-15     27.0039E-15
            2327             511     38.1027E-15     38.1999E-15
            2328             511     38.1027E-15     38.1999E-15
            2327             512     28.8685E-15     28.7845E-15
            2326             512     28.8685E-15     28.7845E-15
            2326             513     22.2023E-15     23.3284E-15
            2325             513     22.2023E-15     23.3284E-15
            3977             548     4.23744E-03     5.36356E-03
            3959             548     4.23744E-03     5.36356E-03
            3977             549     6.39432E-03     7.72762E-03
            3995             549     6.39432E-03     7.72762E-03
            3995             550     4.64165E-03     5.25739E-03
            4013             550     4.64165E-03     5.25739E-03
            4031             551     2.41203E-03     3.42703E-03
            4013             551     2.41203E-03     3.42703E-03
            4031             552     1.63595E-03     3.35509E-03
            4049             552     1.63595E-03     3.35509E-03
            4050             570     3.75223E-03     5.26099E-03
            3394             570     3.75223E-03     5.26099E-03
            4049             570     3.75223E-03     5.26099E-03
            3393             570     3.75223E-03     5.26099E-03
            4051             571     7.19483E-03     9.20472E-03
            3395             571     7.19483E-03     9.20472E-03
            4050             571     7.19483E-03     9.20472E-03
            3394             571     7.19483E-03     9.20472E-03
            4051             572     10.9606E-03     13.2026E-03
            3395             572     10.9606E-03     13.2026E-03
            3396             572     10.9606E-03     13.2026E-03
            4052             572     10.9606E-03     13.2026E-03
            3396             573     14.8376E-03     17.1592E-03
            3397             573     14.8376E-03     17.1592E-03
            4052             573     14.8376E-03     17.1592E-03
            4053             573     14.8376E-03     17.1592E-03
            4054             574     18.7643E-03     21.0919E-03
            3397             574     18.7643E-03     21.0919E-03
            4053             574     18.7643E-03     21.0919E-03
            3398             574     18.7643E-03     21.0919E-03
            3398             575     22.7000E-03     25.0151E-03
            3399             575     22.7000E-03     25.0151E-03
            4054             575     22.7000E-03     25.0151E-03
            4055             575     22.7000E-03     25.0151E-03
            3400             576     26.6354E-03     28.9375E-03
            4055             576     26.6354E-03     28.9375E-03
            4056             576     26.6354E-03     28.9375E-03
            3399             576     26.6354E-03     28.9375E-03
            4056             577     30.5454E-03     32.8500E-03
            3401             577     30.5454E-03     32.8500E-03
            3400             577     30.5454E-03     32.8500E-03
            4057             577     30.5454E-03     32.8500E-03
            3402             578     34.4490E-03     36.7438E-03
            4057             578     34.4490E-03     36.7438E-03
            3401             578     34.4490E-03     36.7438E-03
            4058             578     34.4490E-03     36.7438E-03
            3402             579     38.3016E-03     40.6092E-03
            4059             579     38.3016E-03     40.6092E-03
            3403             579     38.3016E-03     40.6092E-03
            4058             579     38.3016E-03     40.6092E-03
            3404             580     42.1447E-03     44.4290E-03
            3403             580     42.1447E-03     44.4290E-03
            4060             580     42.1447E-03     44.4290E-03
            4059             580     42.1447E-03     44.4290E-03
            4061             581     45.8929E-03     48.1892E-03
            3404             581     45.8929E-03     48.1892E-03
            3405             581     45.8929E-03     48.1892E-03
            4060             581     45.8929E-03     48.1892E-03
            3405             582     49.6686E-03     51.8705E-03
            4062             582     49.6686E-03     51.8705E-03
            4061             582     49.6686E-03     51.8705E-03
            3406             582     49.6686E-03     51.8705E-03
            3407             583     53.3120E-03     55.4829E-03
            4063             583     53.3120E-03     55.4829E-03
            4062             583     53.3120E-03     55.4829E-03
            3406             583     53.3120E-03     55.4829E-03
            3408             584     57.2377E-03     59.1833E-03
            4063             584     57.2377E-03     59.1833E-03
            3407             584     57.2377E-03     59.1833E-03
            4064             584     57.2377E-03     59.1833E-03
            3409             585     61.2263E-03     63.2032E-03
            4065             585     61.2263E-03     63.2032E-03
            4064             585     61.2263E-03     63.2032E-03
            3408             585     61.2263E-03     63.2032E-03
            3409             586     68.0407E-03     71.5110E-03
            4066             586     68.0407E-03     71.5110E-03
            3410             586     68.0407E-03     71.5110E-03
            4065             586     68.0407E-03     71.5110E-03
            3500             587     59.0767E-03     59.3796E-03
            5864             587     59.0767E-03     59.3796E-03
            5863             587     59.0767E-03     59.3796E-03
            3499             587     59.0767E-03     59.3796E-03
            5863             588     56.6245E-03     56.6246E-03
            5862             588     56.6245E-03     56.6246E-03
            3499             588     56.6245E-03     56.6246E-03
            3498             588     56.6245E-03     56.6246E-03
            3498             589     53.8038E-03     53.8658E-03
            3497             589     53.8038E-03     53.8658E-03
            5861             589     53.8038E-03     53.8658E-03
            5862             589     53.8038E-03     53.8658E-03
            5861             590     50.6111E-03     50.7910E-03
            3496             590     50.6111E-03     50.7910E-03
            5860             590     50.6111E-03     50.7910E-03
            3497             590     50.6111E-03     50.7910E-03
            3495             591     47.3130E-03     47.5351E-03
            3496             591     47.3130E-03     47.5351E-03
            5860             591     47.3130E-03     47.5351E-03
            5859             591     47.3130E-03     47.5351E-03
            3495             592     43.8832E-03     44.1451E-03
            5859             592     43.8832E-03     44.1451E-03
            5858             592     43.8832E-03     44.1451E-03
            3494             592     43.8832E-03     44.1451E-03
            5857             593     40.4162E-03     40.6847E-03
            3493             593     40.4162E-03     40.6847E-03
            5858             593     40.4162E-03     40.6847E-03
            3494             593     40.4162E-03     40.6847E-03
            3493             594     36.9093E-03     37.1909E-03
            5857             594     36.9093E-03     37.1909E-03
            5856             594     36.9093E-03     37.1909E-03
            3492             594     36.9093E-03     37.1909E-03
            5856             595     33.3862E-03     33.6621E-03
            5855             595     33.3862E-03     33.6621E-03
            3492             595     33.3862E-03     33.6621E-03
            3491             595     33.3862E-03     33.6621E-03
            5855             596     29.8504E-03     30.1344E-03
            3490             596     29.8504E-03     30.1344E-03
            3491             596     29.8504E-03     30.1344E-03
            5854             596     29.8504E-03     30.1344E-03
            5854             597     26.3183E-03     26.6022E-03
            3489             597     26.3183E-03     26.6022E-03
            5853             597     26.3183E-03     26.6022E-03
            3490             597     26.3183E-03     26.6022E-03
            3489             598     22.7990E-03     23.0942E-03
            5852             598     22.7990E-03     23.0942E-03
            5853             598     22.7990E-03     23.0942E-03
            3488             598     22.7990E-03     23.0942E-03
            5851             599     19.3140E-03     19.6178E-03
            5852             599     19.3140E-03     19.6178E-03
            3488             599     19.3140E-03     19.6178E-03
            3487             599     19.3140E-03     19.6178E-03
            3487             600     15.8941E-03     16.2110E-03
            3486             600     15.8941E-03     16.2110E-03
            5850             600     15.8941E-03     16.2110E-03
            5851             600     15.8941E-03     16.2110E-03
            5850             601     12.5869E-03     12.9002E-03
            5849             601     12.5869E-03     12.9002E-03
            3485             601     12.5869E-03     12.9002E-03
            3486             601     12.5869E-03     12.9002E-03
            5848             602     9.48205E-03     9.84844E-03
            3485             602     9.48205E-03     9.84844E-03
            5849             602     9.48205E-03     9.84844E-03
            3484             602     9.48205E-03     9.84844E-03
            3484             603     6.49588E-03     7.34260E-03
            5847             603     6.49588E-03     7.34260E-03
            5848             603     6.49588E-03     7.34260E-03
            3483             603     6.49588E-03     7.34260E-03
            3465             604     8.08952E-03     9.70256E-03
            3483             604     8.08952E-03     9.70256E-03
            3465             605     6.47436E-03     6.93706E-03
            3447             605     6.47436E-03     6.93706E-03
            3429             606     4.26099E-03     4.45832E-03
            3447             606     4.26099E-03     4.45832E-03
            3411             607     2.08776E-03     3.68442E-03
            3429             607     2.08776E-03     3.68442E-03
            3393             608     1.67485E-03     3.29028E-03
            3411             608     1.67485E-03     3.29028E-03
            5865             692     2.22296E-03     3.10152E-03
            5847             692     2.22296E-03     3.10152E-03
            5883             693     2.38610E-03     3.75066E-03
            5865             693     2.38610E-03     3.75066E-03
            5901             694     1.35529E-03     2.78497E-03
            5883             694     1.35529E-03     2.78497E-03
            5919             695     1.53912E-03     2.37317E-03
            5901             695     1.53912E-03     2.37317E-03
            5919             696     2.70858E-03     3.14241E-03
            5937             696     2.70858E-03     3.14241E-03
            5937             697     4.06896E-03     4.30902E-03
            5955             697     4.06896E-03     4.30902E-03
            5973             698     5.48421E-03     5.48641E-03
            5955             698     5.48421E-03     5.48641E-03
            5973             699     6.84190E-03     7.05904E-03
            5991             699     6.84190E-03     7.05904E-03
            6009             700     8.24896E-03     8.32644E-03
            5991             700     8.24896E-03     8.32644E-03
            6027             701     9.89055E-03     10.3310E-03
            6009             701     9.89055E-03     10.3310E-03
            6027             702     10.7820E-03     12.7488E-03
            6045             702     10.7820E-03     12.7488E-03
            6045             703     5.90840E-03     7.45239E-03
            6063             703     5.90840E-03     7.45239E-03
            6081             704     816.115E-06     1.57200E-03
            6063             704     816.115E-06     1.57200E-03
            6099             705     1.21042E-03     1.77519E-03
            6081             705     1.21042E-03     1.77519E-03
            6117             706     2.23001E-03     2.30815E-03
            6099             706     2.23001E-03     2.30815E-03
            6117             707     3.14208E-03     3.10986E-03
            6135             707     3.14208E-03     3.10986E-03
            6153             708     4.05569E-03     3.91431E-03
            6135             708     4.05569E-03     3.91431E-03
            6153             709     4.88531E-03     4.78353E-03
            6171             709     4.88531E-03     4.78353E-03
            6189             710     5.74508E-03     5.56120E-03
            6171             710     5.74508E-03     5.56120E-03
            6207             711     6.56703E-03     6.56826E-03
            6189             711     6.56703E-03     6.56826E-03
            6225             712     7.40880E-03     7.35248E-03
            6207             712     7.40880E-03     7.35248E-03
            6243             713     8.45310E-03     8.67632E-03
            6225             713     8.45310E-03     8.67632E-03
            6243             714     8.86200E-03     10.3788E-03
            6261             714     8.86200E-03     10.3788E-03
            6261             715     5.26964E-03     6.59043E-03
            6279             715     5.26964E-03     6.59043E-03
            6279             716     2.23443E-03     2.47976E-03
            6297             716     2.23443E-03     2.47976E-03
            6297             717     2.98134E-03     2.77750E-03
            6315             717     2.98134E-03     2.77750E-03
            6333             718     3.48647E-03     3.23786E-03
            6315             718     3.48647E-03     3.23786E-03
            6333             719     4.00596E-03     3.69351E-03
            6351             719     4.00596E-03     3.69351E-03
            6351             720     4.45627E-03     4.16222E-03
            6369             720     4.45627E-03     4.16222E-03
            6369             721     4.91012E-03     4.57918E-03
            6387             721     4.91012E-03     4.57918E-03
            6405             722     5.33099E-03     5.12540E-03
            6387             722     5.33099E-03     5.12540E-03
            6423             723     5.73406E-03     5.52496E-03
            6405             723     5.73406E-03     5.52496E-03
            6423             724     6.25859E-03     6.24944E-03
            6441             724     6.25859E-03     6.24944E-03
            6459             725     6.29548E-03     7.26154E-03
            6441             725     6.29548E-03     7.26154E-03
            6477             726     4.59600E-03     5.56622E-03
            6459             726     4.59600E-03     5.56622E-03
            6495             727     3.49230E-03     3.69269E-03
            6477             727     3.49230E-03     3.69269E-03
            6495             728     3.96359E-03     3.39327E-03
            6513             728     3.96359E-03     3.39327E-03
            6531             729     4.10876E-03     3.57205E-03
            6513             729     4.10876E-03     3.57205E-03
            6531             730     3.89765E-03     4.16591E-03
            6549             730     3.89765E-03     4.16591E-03
            5067             748     1.92811E-03     2.08696E-03
            6550             748     1.92811E-03     2.08696E-03
            6549             748     1.92811E-03     2.08696E-03
            5068             748     1.92811E-03     2.08696E-03
            5068             749     2.06248E-03     2.02240E-03
            6551             749     2.06248E-03     2.02240E-03
            6550             749     2.06248E-03     2.02240E-03
            5069             749     2.06248E-03     2.02240E-03
            6551             750     2.11249E-03     1.99088E-03
            6552             750     2.11249E-03     1.99088E-03
            5070             750     2.11249E-03     1.99088E-03
            5069             750     2.11249E-03     1.99088E-03
            6553             751     2.16047E-03     2.00755E-03
            5071             751     2.16047E-03     2.00755E-03
            5070             751     2.16047E-03     2.00755E-03
            6552             751     2.16047E-03     2.00755E-03
            5072             752     2.20246E-03     2.01401E-03
            6553             752     2.20246E-03     2.01401E-03
            5071             752     2.20246E-03     2.01401E-03
            6554             752     2.20246E-03     2.01401E-03
            5072             753     2.25213E-03     2.02887E-03
            6554             753     2.25213E-03     2.02887E-03
            5073             753     2.25213E-03     2.02887E-03
            6555             753     2.25213E-03     2.02887E-03
            5073             754     2.30369E-03     2.04862E-03
            6556             754     2.30369E-03     2.04862E-03
            6555             754     2.30369E-03     2.04862E-03
            5074             754     2.30369E-03     2.04862E-03
            6556             755     2.35935E-03     2.07188E-03
            6557             755     2.35935E-03     2.07188E-03
            5074             755     2.35935E-03     2.07188E-03
            5075             755     2.35935E-03     2.07188E-03
            6558             756     2.41628E-03     2.10180E-03
            5075             756     2.41628E-03     2.10180E-03
            6557             756     2.41628E-03     2.10180E-03
            5076             756     2.41628E-03     2.10180E-03
            5076             757     2.47565E-03     2.13046E-03
            6558             757     2.47565E-03     2.13046E-03
            6559             757     2.47565E-03     2.13046E-03
            5077             757     2.47565E-03     2.13046E-03
            5077             758     2.53397E-03     2.16543E-03
            5078             758     2.53397E-03     2.16543E-03
            6559             758     2.53397E-03     2.16543E-03
            6560             758     2.53397E-03     2.16543E-03
            5078             759     2.58685E-03     2.18717E-03
            5079             759     2.58685E-03     2.18717E-03
            6560             759     2.58685E-03     2.18717E-03
            6561             759     2.58685E-03     2.18717E-03
            6561             760     2.62237E-03     2.19493E-03
            5079             760     2.62237E-03     2.19493E-03
            6562             760     2.62237E-03     2.19493E-03
            5080             760     2.62237E-03     2.19493E-03
            5080             761     2.60222E-03     2.14822E-03
            5081             761     2.60222E-03     2.14822E-03
            6563             761     2.60222E-03     2.14822E-03
            6562             761     2.60222E-03     2.14822E-03
            5082             762     2.38532E-03     1.89775E-03
            6563             762     2.38532E-03     1.89775E-03
            5081             762     2.38532E-03     1.89775E-03
            6564             762     2.38532E-03     1.89775E-03
            6565             763     1.96825E-03     1.41006E-03
            5083             763     1.96825E-03     1.41006E-03
            5082             763     1.96825E-03     1.41006E-03
            6564             763     1.96825E-03     1.41006E-03
            6566             764     1.39328E-03     1.54602E-03
            6565             764     1.39328E-03     1.54602E-03
            5084             764     1.39328E-03     1.54602E-03
            5083             764     1.39328E-03     1.54602E-03
            5084             765     11.2870E-15     11.9406E-15
            5102             765     11.2870E-15     11.9406E-15
            5120             766     22.4380E-15     24.1359E-15
            5102             766     22.4380E-15     24.1359E-15
            5120             767     29.1789E-15     29.2392E-15
            5138             767     29.1789E-15     29.2392E-15
            5156             768     32.8388E-15     32.9549E-15
            5138             768     32.8388E-15     32.9549E-15
            5174             769     27.3449E-15     27.2541E-15
            5156             769     27.3449E-15     27.2541E-15
            5173             770     18.5729E-15     18.0656E-15
            5174             770     18.5729E-15     18.0656E-15
            5172             771     24.3436E-15     23.3075E-15
            5173             771     24.3436E-15     23.3075E-15
            5172             772     28.3303E-15     27.1860E-15
            5171             772     28.3303E-15     27.1860E-15
            5170             773     26.6506E-15     25.8079E-15
            5171             773     26.6506E-15     25.8079E-15
            5169             774     19.0624E-15     18.1067E-15
            5170             774     19.0624E-15     18.1067E-15
            5168             775     16.7535E-15     14.3992E-15
            5169             775     16.7535E-15     14.3992E-15
            5168             776     15.6545E-15     15.9432E-15
            5167             776     15.6545E-15     15.9432E-15
            5167             777     12.0074E-15     14.3437E-15
            5166             777     12.0074E-15     14.3437E-15
            5166             778     9.68605E-15     11.2715E-15
            5165             778     9.68605E-15     11.2715E-15
            5164             779     15.5194E-15     19.7042E-15
            5165             779     15.5194E-15     19.7042E-15
            5163             780     17.3079E-15     19.5601E-15
            5164             780     17.3079E-15     19.5601E-15
            5162             781     12.6435E-15     16.1585E-15
            5163             781     12.6435E-15     16.1585E-15
            5162             782     17.6574E-15     22.4218E-15
            5161             782     17.6574E-15     22.4218E-15
            5161             783     33.0020E-15     35.3560E-15
            5160             783     33.0020E-15     35.3560E-15
            5159             784     42.3470E-15     44.1790E-15
            5160             784     42.3470E-15     44.1790E-15
            5159             785     35.8086E-15     33.5362E-15
            5158             785     35.8086E-15     33.5362E-15
            5157             786     21.7626E-15     22.4984E-15
            5158             786     21.7626E-15     22.4984E-15
            5157             787     19.5960E-15     20.5948E-15
            5139             787     19.5960E-15     20.5948E-15
            5121             788     15.8189E-15     12.1291E-15
            5139             788     15.8189E-15     12.1291E-15
            5103             789     14.7372E-15     12.9361E-15
            5121             789     14.7372E-15     12.9361E-15
            5085             790     17.7616E-15     16.8450E-15
            5103             790     17.7616E-15     16.8450E-15
            5085             791     23.3755E-15     23.2031E-15
            5067             791     23.3755E-15     23.2031E-15
             876            1518     3.50757E-03     3.77731E-03
             858            1518     3.50757E-03     3.77731E-03
             875            1518     3.50757E-03     3.77731E-03
             857            1518     3.50757E-03     3.77731E-03
             876            1519     3.61295E-03     3.66435E-03
             877            1519     3.61295E-03     3.66435E-03
             859            1519     3.61295E-03     3.66435E-03
             858            1519     3.61295E-03     3.66435E-03
             878            1520     3.73393E-03     3.62418E-03
             877            1520     3.73393E-03     3.62418E-03
             859            1520     3.73393E-03     3.62418E-03
             860            1520     3.73393E-03     3.62418E-03
             879            1521     3.83434E-03     3.64957E-03
             860            1521     3.83434E-03     3.64957E-03
             878            1521     3.83434E-03     3.64957E-03
             861            1521     3.83434E-03     3.64957E-03
             879            1522     3.93489E-03     3.69759E-03
             862            1522     3.93489E-03     3.69759E-03
             861            1522     3.93489E-03     3.69759E-03
             880            1522     3.93489E-03     3.69759E-03
             880            1523     4.04422E-03     3.76468E-03
             863            1523     4.04422E-03     3.76468E-03
             881            1523     4.04422E-03     3.76468E-03
             862            1523     4.04422E-03     3.76468E-03
             882            1524     4.16088E-03     3.84218E-03
             881            1524     4.16088E-03     3.84218E-03
             864            1524     4.16088E-03     3.84218E-03
             863            1524     4.16088E-03     3.84218E-03
             864            1525     4.28512E-03     3.93033E-03
             865            1525     4.28512E-03     3.93033E-03
             883            1525     4.28512E-03     3.93033E-03
             882            1525     4.28512E-03     3.93033E-03
             866            1526     4.41203E-03     4.02268E-03
             865            1526     4.41203E-03     4.02268E-03
             884            1526     4.41203E-03     4.02268E-03
             883            1526     4.41203E-03     4.02268E-03
             866            1527     4.53699E-03     4.11373E-03
             867            1527     4.53699E-03     4.11373E-03
             884            1527     4.53699E-03     4.11373E-03
             885            1527     4.53699E-03     4.11373E-03
             867            1528     4.64613E-03     4.19090E-03
             886            1528     4.64613E-03     4.19090E-03
             885            1528     4.64613E-03     4.19090E-03
             868            1528     4.64613E-03     4.19090E-03
             868            1529     4.72226E-03     4.22984E-03
             887            1529     4.72226E-03     4.22984E-03
             869            1529     4.72226E-03     4.22984E-03
             886            1529     4.72226E-03     4.22984E-03
             887            1530     4.71569E-03     4.18938E-03
             888            1530     4.71569E-03     4.18938E-03
             869            1530     4.71569E-03     4.18938E-03
             870            1530     4.71569E-03     4.18938E-03
             889            1531     4.54909E-03     3.97864E-03
             870            1531     4.54909E-03     3.97864E-03
             871            1531     4.54909E-03     3.97864E-03
             888            1531     4.54909E-03     3.97864E-03
             890            1532     4.08987E-03     3.45446E-03
             871            1532     4.08987E-03     3.45446E-03
             889            1532     4.08987E-03     3.45446E-03
             872            1532     4.08987E-03     3.45446E-03
             873            1533     3.01152E-03     2.35928E-03
             891            1533     3.01152E-03     2.35928E-03
             872            1533     3.01152E-03     2.35928E-03
             890            1533     3.01152E-03     2.35928E-03
             892            1534     2.44932E-03     2.44372E-03
             874            1534     2.44932E-03     2.44372E-03
             891            1534     2.44932E-03     2.44372E-03
             873            1534     2.44932E-03     2.44372E-03
             875            1535     3.54411E-03     3.42481E-03
             876            1535     3.54411E-03     3.42481E-03
             894            1535     3.54411E-03     3.42481E-03
             893            1535     3.54411E-03     3.42481E-03
             876            1536     3.48653E-03     3.50498E-03
             894            1536     3.48653E-03     3.50498E-03
             895            1536     3.48653E-03     3.50498E-03
             877            1536     3.48653E-03     3.50498E-03
             896            1537     3.54661E-03     3.50249E-03
             877            1537     3.54661E-03     3.50249E-03
             895            1537     3.54661E-03     3.50249E-03
             878            1537     3.54661E-03     3.50249E-03
             897            1538     3.64240E-03     3.53395E-03
             878            1538     3.64240E-03     3.53395E-03
             896            1538     3.64240E-03     3.53395E-03
             879            1538     3.64240E-03     3.53395E-03
             898            1539     3.73687E-03     3.60204E-03
             897            1539     3.73687E-03     3.60204E-03
             879            1539     3.73687E-03     3.60204E-03
             880            1539     3.73687E-03     3.60204E-03
             881            1540     3.84800E-03     3.68470E-03
             899            1540     3.84800E-03     3.68470E-03
             898            1540     3.84800E-03     3.68470E-03
             880            1540     3.84800E-03     3.68470E-03
             899            1541     3.97211E-03     3.78698E-03
             881            1541     3.97211E-03     3.78698E-03
             882            1541     3.97211E-03     3.78698E-03
             900            1541     3.97211E-03     3.78698E-03
             900            1542     4.10946E-03     3.90377E-03
             883            1542     4.10946E-03     3.90377E-03
             882            1542     4.10946E-03     3.90377E-03
             901            1542     4.10946E-03     3.90377E-03
             884            1543     4.25995E-03     4.03562E-03
             902            1543     4.25995E-03     4.03562E-03
             883            1543     4.25995E-03     4.03562E-03
             901            1543     4.25995E-03     4.03562E-03
             903            1544     4.42135E-03     4.17922E-03
             902            1544     4.42135E-03     4.17922E-03
             885            1544     4.42135E-03     4.17922E-03
             884            1544     4.42135E-03     4.17922E-03
             904            1545     4.59179E-03     4.33250E-03
             885            1545     4.59179E-03     4.33250E-03
             886            1545     4.59179E-03     4.33250E-03
             903            1545     4.59179E-03     4.33250E-03
             905            1546     4.75099E-03     4.47577E-03
             886            1546     4.75099E-03     4.47577E-03
             887            1546     4.75099E-03     4.47577E-03
             904            1546     4.75099E-03     4.47577E-03
             887            1547     4.87984E-03     4.58728E-03
             905            1547     4.87984E-03     4.58728E-03
             906            1547     4.87984E-03     4.58728E-03
             888            1547     4.87984E-03     4.58728E-03
             889            1548     4.85061E-03     4.56260E-03
             906            1548     4.85061E-03     4.56260E-03
             907            1548     4.85061E-03     4.56260E-03
             888            1548     4.85061E-03     4.56260E-03
             890            1549     4.52450E-03     4.25811E-03
             908            1549     4.52450E-03     4.25811E-03
             889            1549     4.52450E-03     4.25811E-03
             907            1549     4.52450E-03     4.25811E-03
             909            1550     3.44998E-03     3.30399E-03
             890            1550     3.44998E-03     3.30399E-03
             891            1550     3.44998E-03     3.30399E-03
             908            1550     3.44998E-03     3.30399E-03
             910            1551     3.00844E-03     2.86696E-03
             891            1551     3.00844E-03     2.86696E-03
             909            1551     3.00844E-03     2.86696E-03
             892            1551     3.00844E-03     2.86696E-03
             893            1552     3.43066E-03     3.13353E-03
             894            1552     3.43066E-03     3.13353E-03
             912            1552     3.43066E-03     3.13353E-03
             911            1552     3.43066E-03     3.13353E-03
             894            1553     3.40819E-03     3.25248E-03
             912            1553     3.40819E-03     3.25248E-03
             913            1553     3.40819E-03     3.25248E-03
             895            1553     3.40819E-03     3.25248E-03
             914            1554     3.40022E-03     3.35913E-03
             896            1554     3.40022E-03     3.35913E-03
             895            1554     3.40022E-03     3.35913E-03
             913            1554     3.40022E-03     3.35913E-03
             915            1555     3.45167E-03     3.43314E-03
             914            1555     3.45167E-03     3.43314E-03
             896            1555     3.45167E-03     3.43314E-03
             897            1555     3.45167E-03     3.43314E-03
             898            1556     3.54320E-03     3.51592E-03
             897            1556     3.54320E-03     3.51592E-03
             915            1556     3.54320E-03     3.51592E-03
             916            1556     3.54320E-03     3.51592E-03
             898            1557     3.65375E-03     3.62008E-03
             899            1557     3.65375E-03     3.62008E-03
             916            1557     3.65375E-03     3.62008E-03
             917            1557     3.65375E-03     3.62008E-03
             899            1558     3.78372E-03     3.74380E-03
             900            1558     3.78372E-03     3.74380E-03
             918            1558     3.78372E-03     3.74380E-03
             917            1558     3.78372E-03     3.74380E-03
             901            1559     3.93127E-03     3.88699E-03
             900            1559     3.93127E-03     3.88699E-03
             918            1559     3.93127E-03     3.88699E-03
             919            1559     3.93127E-03     3.88699E-03
             902            1560     4.09810E-03     4.04989E-03
             901            1560     4.09810E-03     4.04989E-03
             919            1560     4.09810E-03     4.04989E-03
             920            1560     4.09810E-03     4.04989E-03
             903            1561     4.28459E-03     4.23325E-03
             921            1561     4.28459E-03     4.23325E-03
             902            1561     4.28459E-03     4.23325E-03
             920            1561     4.28459E-03     4.23325E-03
             903            1562     4.48849E-03     4.43401E-03
             921            1562     4.48849E-03     4.43401E-03
             922            1562     4.48849E-03     4.43401E-03
             904            1562     4.48849E-03     4.43401E-03
             922            1563     4.70604E-03     4.64993E-03
             923            1563     4.70604E-03     4.64993E-03
             905            1563     4.70604E-03     4.64993E-03
             904            1563     4.70604E-03     4.64993E-03
             906            1564     4.89189E-03     4.84149E-03
             924            1564     4.89189E-03     4.84149E-03
             923            1564     4.89189E-03     4.84149E-03
             905            1564     4.89189E-03     4.84149E-03
             907            1565     5.01321E-03     4.96823E-03
             925            1565     5.01321E-03     4.96823E-03
             906            1565     5.01321E-03     4.96823E-03
             924            1565     5.01321E-03     4.96823E-03
             926            1566     4.78262E-03     4.83172E-03
             908            1566     4.78262E-03     4.83172E-03
             925            1566     4.78262E-03     4.83172E-03
             907            1566     4.78262E-03     4.83172E-03
             908            1567     4.14170E-03     4.28404E-03
             926            1567     4.14170E-03     4.28404E-03
             909            1567     4.14170E-03     4.28404E-03
             927            1567     4.14170E-03     4.28404E-03
             909            1568     4.29283E-03     4.25439E-03
             927            1568     4.29283E-03     4.25439E-03
             928            1568     4.29283E-03     4.25439E-03
             910            1568     4.29283E-03     4.25439E-03
             912            1569     3.27138E-03     2.97389E-03
             911            1569     3.27138E-03     2.97389E-03
             930            1569     3.27138E-03     2.97389E-03
             929            1569     3.27138E-03     2.97389E-03
             912            1570     3.24520E-03     3.09074E-03
             930            1570     3.24520E-03     3.09074E-03
             913            1570     3.24520E-03     3.09074E-03
             931            1570     3.24520E-03     3.09074E-03
             932            1571     3.22723E-03     3.23033E-03
             931            1571     3.22723E-03     3.23033E-03
             914            1571     3.22723E-03     3.23033E-03
             913            1571     3.22723E-03     3.23033E-03
             932            1572     3.26331E-03     3.33519E-03
             915            1572     3.26331E-03     3.33519E-03
             933            1572     3.26331E-03     3.33519E-03
             914            1572     3.26331E-03     3.33519E-03
             933            1573     3.34847E-03     3.43763E-03
             916            1573     3.34847E-03     3.43763E-03
             934            1573     3.34847E-03     3.43763E-03
             915            1573     3.34847E-03     3.43763E-03
             917            1574     3.45830E-03     3.56221E-03
             934            1574     3.45830E-03     3.56221E-03
             916            1574     3.45830E-03     3.56221E-03
             935            1574     3.45830E-03     3.56221E-03
             935            1575     3.58903E-03     3.70429E-03
             918            1575     3.58903E-03     3.70429E-03
             917            1575     3.58903E-03     3.70429E-03
             936            1575     3.58903E-03     3.70429E-03
             936            1576     3.74092E-03     3.86667E-03
             919            1576     3.74092E-03     3.86667E-03
             918            1576     3.74092E-03     3.86667E-03
             937            1576     3.74092E-03     3.86667E-03
             919            1577     3.91179E-03     4.04698E-03
             938            1577     3.91179E-03     4.04698E-03
             920            1577     3.91179E-03     4.04698E-03
             937            1577     3.91179E-03     4.04698E-03
             920            1578     4.10383E-03     4.24718E-03
             921            1578     4.10383E-03     4.24718E-03
             939            1578     4.10383E-03     4.24718E-03
             938            1578     4.10383E-03     4.24718E-03
             939            1579     4.31373E-03     4.46591E-03
             922            1579     4.31373E-03     4.46591E-03
             940            1579     4.31373E-03     4.46591E-03
             921            1579     4.31373E-03     4.46591E-03
             922            1580     4.53889E-03     4.69874E-03
             941            1580     4.53889E-03     4.69874E-03
             940            1580     4.53889E-03     4.69874E-03
             923            1580     4.53889E-03     4.69874E-03
             923            1581     4.76163E-03     4.93657E-03
             924            1581     4.76163E-03     4.93657E-03
             942            1581     4.76163E-03     4.93657E-03
             941            1581     4.76163E-03     4.93657E-03
             943            1582     4.93789E-03     5.13330E-03
             924            1582     4.93789E-03     5.13330E-03
             925            1582     4.93789E-03     5.13330E-03
             942            1582     4.93789E-03     5.13330E-03
             926            1583     5.05773E-03     5.26498E-03
             925            1583     5.05773E-03     5.26498E-03
             944            1583     5.05773E-03     5.26498E-03
             943            1583     5.05773E-03     5.26498E-03
             944            1584     5.16815E-03     5.32710E-03
             945            1584     5.16815E-03     5.32710E-03
             926            1584     5.16815E-03     5.32710E-03
             927            1584     5.16815E-03     5.32710E-03
             928            1585     5.79386E-03     5.93442E-03
             945            1585     5.79386E-03     5.93442E-03
             946            1585     5.79386E-03     5.93442E-03
             927            1585     5.79386E-03     5.93442E-03
             948            1586     3.06668E-03     2.90361E-03
             947            1586     3.06668E-03     2.90361E-03
             929            1586     3.06668E-03     2.90361E-03
             930            1586     3.06668E-03     2.90361E-03
             949            1587     2.99239E-03     3.04637E-03
             931            1587     2.99239E-03     3.04637E-03
             930            1587     2.99239E-03     3.04637E-03
             948            1587     2.99239E-03     3.04637E-03
             949            1588     3.00802E-03     3.13316E-03
             932            1588     3.00802E-03     3.13316E-03
             950            1588     3.00802E-03     3.13316E-03
             931            1588     3.00802E-03     3.13316E-03
             950            1589     3.07073E-03     3.23737E-03
             933            1589     3.07073E-03     3.23737E-03
             932            1589     3.07073E-03     3.23737E-03
             951            1589     3.07073E-03     3.23737E-03
             934            1590     3.14978E-03     3.36604E-03
             952            1590     3.14978E-03     3.36604E-03
             933            1590     3.14978E-03     3.36604E-03
             951            1590     3.14978E-03     3.36604E-03
             935            1591     3.25662E-03     3.50577E-03
             952            1591     3.25662E-03     3.50577E-03
             934            1591     3.25662E-03     3.50577E-03
             953            1591     3.25662E-03     3.50577E-03
             936            1592     3.38592E-03     3.66507E-03
             954            1592     3.38592E-03     3.66507E-03
             935            1592     3.38592E-03     3.66507E-03
             953            1592     3.38592E-03     3.66507E-03
             937            1593     3.53419E-03     3.83774E-03
             954            1593     3.53419E-03     3.83774E-03
             955            1593     3.53419E-03     3.83774E-03
             936            1593     3.53419E-03     3.83774E-03
             956            1594     3.70089E-03     4.02621E-03
             955            1594     3.70089E-03     4.02621E-03
             938            1594     3.70089E-03     4.02621E-03
             937            1594     3.70089E-03     4.02621E-03
             938            1595     3.88181E-03     4.22497E-03
             957            1595     3.88181E-03     4.22497E-03
             939            1595     3.88181E-03     4.22497E-03
             956            1595     3.88181E-03     4.22497E-03
             939            1596     4.07764E-03     4.43798E-03
             957            1596     4.07764E-03     4.43798E-03
             958            1596     4.07764E-03     4.43798E-03
             940            1596     4.07764E-03     4.43798E-03
             941            1597     4.27915E-03     4.65733E-03
             940            1597     4.27915E-03     4.65733E-03
             959            1597     4.27915E-03     4.65733E-03
             958            1597     4.27915E-03     4.65733E-03
             941            1598     4.50028E-03     4.89579E-03
             959            1598     4.50028E-03     4.89579E-03
             960            1598     4.50028E-03     4.89579E-03
             942            1598     4.50028E-03     4.89579E-03
             942            1599     4.72243E-03     5.14871E-03
             960            1599     4.72243E-03     5.14871E-03
             943            1599     4.72243E-03     5.14871E-03
             961            1599     4.72243E-03     5.14871E-03
             943            1600     5.08694E-03     5.48960E-03
             944            1600     5.08694E-03     5.48960E-03
             962            1600     5.08694E-03     5.48960E-03
             961            1600     5.08694E-03     5.48960E-03
             945            1601     5.97300E-03     6.22859E-03
             963            1601     5.97300E-03     6.22859E-03
             962            1601     5.97300E-03     6.22859E-03
             944            1601     5.97300E-03     6.22859E-03
             946            1602     7.50872E-03     7.49450E-03
             963            1602     7.50872E-03     7.49450E-03
             964            1602     7.50872E-03     7.49450E-03
             945            1602     7.50872E-03     7.49450E-03
             948            1603     2.70855E-03     2.94282E-03
             966            1603     2.70855E-03     2.94282E-03
             965            1603     2.70855E-03     2.94282E-03
             947            1603     2.70855E-03     2.94282E-03
             948            1604     2.74055E-03     2.96397E-03
             949            1604     2.74055E-03     2.96397E-03
             967            1604     2.74055E-03     2.96397E-03
             966            1604     2.74055E-03     2.96397E-03
             950            1605     2.80146E-03     3.03346E-03
             968            1605     2.80146E-03     3.03346E-03
             967            1605     2.80146E-03     3.03346E-03
             949            1605     2.80146E-03     3.03346E-03
             950            1606     2.86530E-03     3.15326E-03
             968            1606     2.86530E-03     3.15326E-03
             951            1606     2.86530E-03     3.15326E-03
             969            1606     2.86530E-03     3.15326E-03
             970            1607     2.94490E-03     3.29506E-03
             952            1607     2.94490E-03     3.29506E-03
             969            1607     2.94490E-03     3.29506E-03
             951            1607     2.94490E-03     3.29506E-03
             953            1608     3.04772E-03     3.45371E-03
             971            1608     3.04772E-03     3.45371E-03
             970            1608     3.04772E-03     3.45371E-03
             952            1608     3.04772E-03     3.45371E-03
             954            1609     3.17198E-03     3.62348E-03
             972            1609     3.17198E-03     3.62348E-03
             971            1609     3.17198E-03     3.62348E-03
             953            1609     3.17198E-03     3.62348E-03
             955            1610     3.31485E-03     3.80634E-03
             972            1610     3.31485E-03     3.80634E-03
             954            1610     3.31485E-03     3.80634E-03
             973            1610     3.31485E-03     3.80634E-03
             973            1611     3.47284E-03     3.99573E-03
             956            1611     3.47284E-03     3.99573E-03
             974            1611     3.47284E-03     3.99573E-03
             955            1611     3.47284E-03     3.99573E-03
             975            1612     3.64102E-03     4.19355E-03
             974            1612     3.64102E-03     4.19355E-03
             956            1612     3.64102E-03     4.19355E-03
             957            1612     3.64102E-03     4.19355E-03
             957            1613     3.81385E-03     4.39059E-03
             975            1613     3.81385E-03     4.39059E-03
             976            1613     3.81385E-03     4.39059E-03
             958            1613     3.81385E-03     4.39059E-03
             976            1614     3.99608E-03     4.59883E-03
             959            1614     3.99608E-03     4.59883E-03
             958            1614     3.99608E-03     4.59883E-03
             977            1614     3.99608E-03     4.59883E-03
             959            1615     4.18246E-03     4.81412E-03
             960            1615     4.18246E-03     4.81412E-03
             977            1615     4.18246E-03     4.81412E-03
             978            1615     4.18246E-03     4.81412E-03
             960            1616     4.45682E-03     5.11499E-03
             979            1616     4.45682E-03     5.11499E-03
             978            1616     4.45682E-03     5.11499E-03
             961            1616     4.45682E-03     5.11499E-03
             979            1617     4.88737E-03     5.58807E-03
             980            1617     4.88737E-03     5.58807E-03
             962            1617     4.88737E-03     5.58807E-03
             961            1617     4.88737E-03     5.58807E-03
             963            1618     5.96220E-03     6.68323E-03
             981            1618     5.96220E-03     6.68323E-03
             962            1618     5.96220E-03     6.68323E-03
             980            1618     5.96220E-03     6.68323E-03
             964            1619     8.54009E-03     9.15932E-03
             963            1619     8.54009E-03     9.15932E-03
             981            1619     8.54009E-03     9.15932E-03
             982            1619     8.54009E-03     9.15932E-03
             966            1620     4.11232E-03     4.67204E-03
             984            1620     4.11232E-03     4.67204E-03
             965            1620     4.11232E-03     4.67204E-03
             983            1620     4.11232E-03     4.67204E-03
             966            1621     4.46163E-03     4.59370E-03
             985            1621     4.46163E-03     4.59370E-03
             967            1621     4.46163E-03     4.59370E-03
             984            1621     4.46163E-03     4.59370E-03
             967            1622     4.67045E-03     4.71625E-03
             985            1622     4.67045E-03     4.71625E-03
             968            1622     4.67045E-03     4.71625E-03
             986            1622     4.67045E-03     4.71625E-03
             969            1623     4.90350E-03     4.95996E-03
             968            1623     4.90350E-03     4.95996E-03
             987            1623     4.90350E-03     4.95996E-03
             986            1623     4.90350E-03     4.95996E-03
             988            1624     5.16798E-03     5.23375E-03
             970            1624     5.16798E-03     5.23375E-03
             969            1624     5.16798E-03     5.23375E-03
             987            1624     5.16798E-03     5.23375E-03
             989            1625     5.46677E-03     5.55088E-03
             988            1625     5.46677E-03     5.55088E-03
             970            1625     5.46677E-03     5.55088E-03
             971            1625     5.46677E-03     5.55088E-03
             972            1626     5.78792E-03     5.88341E-03
             989            1626     5.78792E-03     5.88341E-03
             990            1626     5.78792E-03     5.88341E-03
             971            1626     5.78792E-03     5.88341E-03
             972            1627     6.12533E-03     6.22805E-03
             973            1627     6.12533E-03     6.22805E-03
             990            1627     6.12533E-03     6.22805E-03
             991            1627     6.12533E-03     6.22805E-03
             974            1628     6.46453E-03     6.56848E-03
             991            1628     6.46453E-03     6.56848E-03
             992            1628     6.46453E-03     6.56848E-03
             973            1628     6.46453E-03     6.56848E-03
             975            1629     6.79565E-03     6.89638E-03
             974            1629     6.79565E-03     6.89638E-03
             992            1629     6.79565E-03     6.89638E-03
             993            1629     6.79565E-03     6.89638E-03
             994            1630     7.10073E-03     7.19094E-03
             975            1630     7.10073E-03     7.19094E-03
             976            1630     7.10073E-03     7.19094E-03
             993            1630     7.10073E-03     7.19094E-03
             995            1631     7.37178E-03     7.44651E-03
             977            1631     7.37178E-03     7.44651E-03
             994            1631     7.37178E-03     7.44651E-03
             976            1631     7.37178E-03     7.44651E-03
             995            1632     7.58878E-03     7.63847E-03
             978            1632     7.58878E-03     7.63847E-03
             996            1632     7.58878E-03     7.63847E-03
             977            1632     7.58878E-03     7.63847E-03
             997            1633     7.76993E-03     7.79024E-03
             979            1633     7.76993E-03     7.79024E-03
             996            1633     7.76993E-03     7.79024E-03
             978            1633     7.76993E-03     7.79024E-03
             997            1634     7.93922E-03     7.92127E-03
             998            1634     7.93922E-03     7.92127E-03
             980            1634     7.93922E-03     7.92127E-03
             979            1634     7.93922E-03     7.92127E-03
             980            1635     8.15720E-03     8.15302E-03
             981            1635     8.15720E-03     8.15302E-03
             999            1635     8.15720E-03     8.15302E-03
             998            1635     8.15720E-03     8.15302E-03
             982            1636     8.86977E-03     9.10541E-03
            1000            1636     8.86977E-03     9.10541E-03
             999            1636     8.86977E-03     9.10541E-03
             981            1636     8.86977E-03     9.10541E-03
             983            1637     5.59777E-03     6.23335E-03
             984            1637     5.59777E-03     6.23335E-03
            1002            1637     5.59777E-03     6.23335E-03
            1001            1637     5.59777E-03     6.23335E-03
            1002            1638     5.93637E-03     6.15490E-03
             985            1638     5.93637E-03     6.15490E-03
            1003            1638     5.93637E-03     6.15490E-03
             984            1638     5.93637E-03     6.15490E-03
            1003            1639     6.36895E-03     6.30593E-03
             986            1639     6.36895E-03     6.30593E-03
            1004            1639     6.36895E-03     6.30593E-03
             985            1639     6.36895E-03     6.30593E-03
             987            1640     6.82485E-03     6.65103E-03
             986            1640     6.82485E-03     6.65103E-03
            1005            1640     6.82485E-03     6.65103E-03
            1004            1640     6.82485E-03     6.65103E-03
             988            1641     7.32361E-03     7.08959E-03
             987            1641     7.32361E-03     7.08959E-03
            1005            1641     7.32361E-03     7.08959E-03
            1006            1641     7.32361E-03     7.08959E-03
            1007            1642     7.86829E-03     7.59359E-03
             989            1642     7.86829E-03     7.59359E-03
            1006            1642     7.86829E-03     7.59359E-03
             988            1642     7.86829E-03     7.59359E-03
             990            1643     8.44045E-03     8.13674E-03
            1007            1643     8.44045E-03     8.13674E-03
            1008            1643     8.44045E-03     8.13674E-03
             989            1643     8.44045E-03     8.13674E-03
             991            1644     9.03036E-03     8.69722E-03
            1009            1644     9.03036E-03     8.69722E-03
            1008            1644     9.03036E-03     8.69722E-03
             990            1644     9.03036E-03     8.69722E-03
             991            1645     9.61749E-03     9.25681E-03
             992            1645     9.61749E-03     9.25681E-03
            1010            1645     9.61749E-03     9.25681E-03
            1009            1645     9.61749E-03     9.25681E-03
             992            1646     10.1850E-03     9.79099E-03
            1011            1646     10.1850E-03     9.79099E-03
             993            1646     10.1850E-03     9.79099E-03
            1010            1646     10.1850E-03     9.79099E-03
            1011            1647     10.7082E-03     10.2783E-03
             994            1647     10.7082E-03     10.2783E-03
            1012            1647     10.7082E-03     10.2783E-03
             993            1647     10.7082E-03     10.2783E-03
             994            1648     11.1545E-03     10.6814E-03
            1012            1648     11.1545E-03     10.6814E-03
             995            1648     11.1545E-03     10.6814E-03
            1013            1648     11.1545E-03     10.6814E-03
            1013            1649     11.4886E-03     10.9648E-03
             996            1649     11.4886E-03     10.9648E-03
            1014            1649     11.4886E-03     10.9648E-03
             995            1649     11.4886E-03     10.9648E-03
             996            1650     11.6348E-03     11.0605E-03
            1015            1650     11.6348E-03     11.0605E-03
            1014            1650     11.6348E-03     11.0605E-03
             997            1650     11.6348E-03     11.0605E-03
            1015            1651     11.5237E-03     10.8956E-03
             997            1651     11.5237E-03     10.8956E-03
            1016            1651     11.5237E-03     10.8956E-03
             998            1651     11.5237E-03     10.8956E-03
             998            1652     10.9020E-03     10.2754E-03
            1017            1652     10.9020E-03     10.2754E-03
            1016            1652     10.9020E-03     10.2754E-03
             999            1652     10.9020E-03     10.2754E-03
             999            1653     9.74990E-03     9.19969E-03
            1018            1653     9.74990E-03     9.19969E-03
            1017            1653     9.74990E-03     9.19969E-03
            1000            1653     9.74990E-03     9.19969E-03
            1002            1654     5.32415E-03     5.54763E-03
            1019            1654     5.32415E-03     5.54763E-03
            1001            1654     5.32415E-03     5.54763E-03
            1020            1654     5.32415E-03     5.54763E-03
            1020            1655     5.44938E-03     5.78249E-03
            1003            1655     5.44938E-03     5.78249E-03
            1021            1655     5.44938E-03     5.78249E-03
            1002            1655     5.44938E-03     5.78249E-03
            1021            1656     5.87964E-03     5.99745E-03
            1022            1656     5.87964E-03     5.99745E-03
            1003            1656     5.87964E-03     5.99745E-03
            1004            1656     5.87964E-03     5.99745E-03
            1022            1657     6.41939E-03     6.37508E-03
            1005            1657     6.41939E-03     6.37508E-03
            1023            1657     6.41939E-03     6.37508E-03
            1004            1657     6.41939E-03     6.37508E-03
            1006            1658     7.00537E-03     6.88261E-03
            1023            1658     7.00537E-03     6.88261E-03
            1024            1658     7.00537E-03     6.88261E-03
            1005            1658     7.00537E-03     6.88261E-03
            1006            1659     7.64120E-03     7.46872E-03
            1025            1659     7.64120E-03     7.46872E-03
            1007            1659     7.64120E-03     7.46872E-03
            1024            1659     7.64120E-03     7.46872E-03
            1007            1660     8.31178E-03     8.11071E-03
            1025            1660     8.31178E-03     8.11071E-03
            1026            1660     8.31178E-03     8.11071E-03
            1008            1660     8.31178E-03     8.11071E-03
            1026            1661     9.00537E-03     8.78394E-03
            1009            1661     9.00537E-03     8.78394E-03
            1027            1661     9.00537E-03     8.78394E-03
            1008            1661     9.00537E-03     8.78394E-03
            1009            1662     9.70860E-03     9.46996E-03
            1028            1662     9.70860E-03     9.46996E-03
            1027            1662     9.70860E-03     9.46996E-03
            1010            1662     9.70860E-03     9.46996E-03
            1028            1663     10.4007E-03     10.1487E-03
            1029            1663     10.4007E-03     10.1487E-03
            1011            1663     10.4007E-03     10.1487E-03
            1010            1663     10.4007E-03     10.1487E-03
            1030            1664     11.0590E-03     10.7940E-03
            1011            1664     11.0590E-03     10.7940E-03
            1012            1664     11.0590E-03     10.7940E-03
            1029            1664     11.0590E-03     10.7940E-03
            1013            1665     11.6458E-03     11.3744E-03
            1031            1665     11.6458E-03     11.3744E-03
            1012            1665     11.6458E-03     11.3744E-03
            1030            1665     11.6458E-03     11.3744E-03
            1014            1666     12.1079E-03     11.8413E-03
            1032            1666     12.1079E-03     11.8413E-03
            1013            1666     12.1079E-03     11.8413E-03
            1031            1666     12.1079E-03     11.8413E-03
            1014            1667     12.3672E-03     12.1255E-03
            1032            1667     12.3672E-03     12.1255E-03
            1033            1667     12.3672E-03     12.1255E-03
            1015            1667     12.3672E-03     12.1255E-03
            1033            1668     12.3057E-03     12.1388E-03
            1016            1668     12.3057E-03     12.1388E-03
            1034            1668     12.3057E-03     12.1388E-03
            1015            1668     12.3057E-03     12.1388E-03
            1034            1669     11.7279E-03     11.7008E-03
            1035            1669     11.7279E-03     11.7008E-03
            1017            1669     11.7279E-03     11.7008E-03
            1016            1669     11.7279E-03     11.7008E-03
            1035            1670     11.3092E-03     11.3105E-03
            1018            1670     11.3092E-03     11.3105E-03
            1036            1670     11.3092E-03     11.3105E-03
            1017            1670     11.3092E-03     11.3105E-03
            1038            1671     4.92584E-03     4.86642E-03
            1020            1671     4.92584E-03     4.86642E-03
            1019            1671     4.92584E-03     4.86642E-03
            1037            1671     4.92584E-03     4.86642E-03
            1039            1672     5.13132E-03     5.24706E-03
            1038            1672     5.13132E-03     5.24706E-03
            1020            1672     5.13132E-03     5.24706E-03
            1021            1672     5.13132E-03     5.24706E-03
            1040            1673     5.50783E-03     5.66258E-03
            1021            1673     5.50783E-03     5.66258E-03
            1022            1673     5.50783E-03     5.66258E-03
            1039            1673     5.50783E-03     5.66258E-03
            1022            1674     6.07336E-03     6.13138E-03
            1040            1674     6.07336E-03     6.13138E-03
            1041            1674     6.07336E-03     6.13138E-03
            1023            1674     6.07336E-03     6.13138E-03
            1023            1675     6.73064E-03     6.71659E-03
            1024            1675     6.73064E-03     6.71659E-03
            1041            1675     6.73064E-03     6.71659E-03
            1042            1675     6.73064E-03     6.71659E-03
            1043            1676     7.44159E-03     7.38631E-03
            1025            1676     7.44159E-03     7.38631E-03
            1042            1676     7.44159E-03     7.38631E-03
            1024            1676     7.44159E-03     7.38631E-03
            1025            1677     8.19565E-03     8.11522E-03
            1026            1677     8.19565E-03     8.11522E-03
            1044            1677     8.19565E-03     8.11522E-03
            1043            1677     8.19565E-03     8.11522E-03
            1045            1678     8.97761E-03     8.88464E-03
            1026            1678     8.97761E-03     8.88464E-03
            1044            1678     8.97761E-03     8.88464E-03
            1027            1678     8.97761E-03     8.88464E-03
            1028            1679     9.77299E-03     9.67517E-03
            1046            1679     9.77299E-03     9.67517E-03
            1027            1679     9.77299E-03     9.67517E-03
            1045            1679     9.77299E-03     9.67517E-03
            1029            1680     10.5672E-03     10.4691E-03
            1047            1680     10.5672E-03     10.4691E-03
            1028            1680     10.5672E-03     10.4691E-03
            1046            1680     10.5672E-03     10.4691E-03
            1030            1681     11.3295E-03     11.2417E-03
            1029            1681     11.3295E-03     11.2417E-03
            1048            1681     11.3295E-03     11.2417E-03
            1047            1681     11.3295E-03     11.2417E-03
            1031            1682     12.0282E-03     11.9589E-03
            1030            1682     12.0282E-03     11.9589E-03
            1049            1682     12.0282E-03     11.9589E-03
            1048            1682     12.0282E-03     11.9589E-03
            1049            1683     12.5984E-03     12.5694E-03
            1032            1683     12.5984E-03     12.5694E-03
            1050            1683     12.5984E-03     12.5694E-03
            1031            1683     12.5984E-03     12.5694E-03
            1032            1684     12.9699E-03     13.0078E-03
            1051            1684     12.9699E-03     13.0078E-03
            1033            1684     12.9699E-03     13.0078E-03
            1050            1684     12.9699E-03     13.0078E-03
            1051            1685     13.0334E-03     13.1676E-03
            1052            1685     13.0334E-03     13.1676E-03
            1034            1685     13.0334E-03     13.1676E-03
            1033            1685     13.0334E-03     13.1676E-03
            1034            1686     12.8814E-03     13.0821E-03
            1053            1686     12.8814E-03     13.0821E-03
            1052            1686     12.8814E-03     13.0821E-03
            1035            1686     12.8814E-03     13.0821E-03
            1053            1687     13.1093E-03     13.1718E-03
            1035            1687     13.1093E-03     13.1718E-03
            1036            1687     13.1093E-03     13.1718E-03
            1054            1687     13.1093E-03     13.1718E-03
            1038            1688     4.51391E-03     4.42407E-03
            1056            1688     4.51391E-03     4.42407E-03
            1055            1688     4.51391E-03     4.42407E-03
            1037            1688     4.51391E-03     4.42407E-03
            1057            1689     4.76153E-03     4.77520E-03
            1056            1689     4.76153E-03     4.77520E-03
            1039            1689     4.76153E-03     4.77520E-03
            1038            1689     4.76153E-03     4.77520E-03
            1057            1690     5.19272E-03     5.29310E-03
            1058            1690     5.19272E-03     5.29310E-03
            1039            1690     5.19272E-03     5.29310E-03
            1040            1690     5.19272E-03     5.29310E-03
            1041            1691     5.77254E-03     5.88881E-03
            1040            1691     5.77254E-03     5.88881E-03
            1058            1691     5.77254E-03     5.88881E-03
            1059            1691     5.77254E-03     5.88881E-03
            1042            1692     6.47285E-03     6.55629E-03
            1059            1692     6.47285E-03     6.55629E-03
            1060            1692     6.47285E-03     6.55629E-03
            1041            1692     6.47285E-03     6.55629E-03
            1043            1693     7.24216E-03     7.30180E-03
            1060            1693     7.24216E-03     7.30180E-03
            1042            1693     7.24216E-03     7.30180E-03
            1061            1693     7.24216E-03     7.30180E-03
            1044            1694     8.05723E-03     8.10350E-03
            1043            1694     8.05723E-03     8.10350E-03
            1062            1694     8.05723E-03     8.10350E-03
            1061            1694     8.05723E-03     8.10350E-03
            1063            1695     8.90358E-03     8.94581E-03
            1044            1695     8.90358E-03     8.94581E-03
            1045            1695     8.90358E-03     8.94581E-03
            1062            1695     8.90358E-03     8.94581E-03
            1063            1696     9.76948E-03     9.81519E-03
            1045            1696     9.76948E-03     9.81519E-03
            1046            1696     9.76948E-03     9.81519E-03
            1064            1696     9.76948E-03     9.81519E-03
            1046            1697     10.6352E-03     10.6937E-03
            1047            1697     10.6352E-03     10.6937E-03
            1064            1697     10.6352E-03     10.6937E-03
            1065            1697     10.6352E-03     10.6937E-03
            1047            1698     11.4859E-03     11.5631E-03
            1048            1698     11.4859E-03     11.5631E-03
            1065            1698     11.4859E-03     11.5631E-03
            1066            1698     11.4859E-03     11.5631E-03
            1049            1699     12.2762E-03     12.3898E-03
            1048            1699     12.2762E-03     12.3898E-03
            1067            1699     12.2762E-03     12.3898E-03
            1066            1699     12.2762E-03     12.3898E-03
            1049            1700     12.9696E-03     13.1290E-03
            1067            1700     12.9696E-03     13.1290E-03
            1050            1700     12.9696E-03     13.1290E-03
            1068            1700     12.9696E-03     13.1290E-03
            1051            1701     13.4934E-03     13.7166E-03
            1050            1701     13.4934E-03     13.7166E-03
            1068            1701     13.4934E-03     13.7166E-03
            1069            1701     13.4934E-03     13.7166E-03
            1051            1702     13.8303E-03     14.1096E-03
            1052            1702     13.8303E-03     14.1096E-03
            1070            1702     13.8303E-03     14.1096E-03
            1069            1702     13.8303E-03     14.1096E-03
            1052            1703     14.1602E-03     14.3938E-03
            1053            1703     14.1602E-03     14.3938E-03
            1070            1703     14.1602E-03     14.3938E-03
            1071            1703     14.1602E-03     14.3938E-03
            1053            1704     14.7474E-03     14.8787E-03
            1054            1704     14.7474E-03     14.8787E-03
            1072            1704     14.7474E-03     14.8787E-03
            1071            1704     14.7474E-03     14.8787E-03
            1056            1705     4.11509E-03     3.95997E-03
            1073            1705     4.11509E-03     3.95997E-03
            1074            1705     4.11509E-03     3.95997E-03
            1055            1705     4.11509E-03     3.95997E-03
            1056            1706     4.38944E-03     4.38599E-03
            1075            1706     4.38944E-03     4.38599E-03
            1074            1706     4.38944E-03     4.38599E-03
            1057            1706     4.38944E-03     4.38599E-03
            1057            1707     4.85877E-03     4.95100E-03
            1076            1707     4.85877E-03     4.95100E-03
            1058            1707     4.85877E-03     4.95100E-03
            1075            1707     4.85877E-03     4.95100E-03
            1059            1708     5.48107E-03     5.63175E-03
            1076            1708     5.48107E-03     5.63175E-03
            1077            1708     5.48107E-03     5.63175E-03
            1058            1708     5.48107E-03     5.63175E-03
            1078            1709     6.21137E-03     6.38122E-03
            1077            1709     6.21137E-03     6.38122E-03
            1060            1709     6.21137E-03     6.38122E-03
            1059            1709     6.21137E-03     6.38122E-03
            1061            1710     7.01893E-03     7.18844E-03
            1060            1710     7.01893E-03     7.18844E-03
            1078            1710     7.01893E-03     7.18844E-03
            1079            1710     7.01893E-03     7.18844E-03
            1080            1711     7.87442E-03     8.04518E-03
            1079            1711     7.87442E-03     8.04518E-03
            1061            1711     7.87442E-03     8.04518E-03
            1062            1711     7.87442E-03     8.04518E-03
            1063            1712     8.76387E-03     8.93945E-03
            1062            1712     8.76387E-03     8.93945E-03
            1080            1712     8.76387E-03     8.93945E-03
            1081            1712     8.76387E-03     8.93945E-03
            1082            1713     9.67353E-03     9.86027E-03
            1064            1713     9.67353E-03     9.86027E-03
            1081            1713     9.67353E-03     9.86027E-03
            1063            1713     9.67353E-03     9.86027E-03
            1065            1714     10.5959E-03     10.7993E-03
            1064            1714     10.5959E-03     10.7993E-03
            1083            1714     10.5959E-03     10.7993E-03
            1082            1714     10.5959E-03     10.7993E-03
            1065            1715     11.5082E-03     11.7384E-03
            1083            1715     11.5082E-03     11.7384E-03
            1084            1715     11.5082E-03     11.7384E-03
            1066            1715     11.5082E-03     11.7384E-03
            1084            1716     12.4027E-03     12.6610E-03
            1066            1716     12.4027E-03     12.6610E-03
            1067            1716     12.4027E-03     12.6610E-03
            1085            1716     12.4027E-03     12.6610E-03
            1085            1717     13.2296E-03     13.5323E-03
            1067            1717     13.2296E-03     13.5323E-03
            1086            1717     13.2296E-03     13.5323E-03
            1068            1717     13.2296E-03     13.5323E-03
            1069            1718     13.9742E-03     14.3086E-03
            1068            1718     13.9742E-03     14.3086E-03
            1086            1718     13.9742E-03     14.3086E-03
            1087            1718     13.9742E-03     14.3086E-03
            1070            1719     14.6587E-03     14.9849E-03
            1087            1719     14.6587E-03     14.9849E-03
            1088            1719     14.6587E-03     14.9849E-03
            1069            1719     14.6587E-03     14.9849E-03
            1088            1720     15.3531E-03     15.6421E-03
            1071            1720     15.3531E-03     15.6421E-03
            1070            1720     15.3531E-03     15.6421E-03
            1089            1720     15.3531E-03     15.6421E-03
            1072            1721     16.3126E-03     16.4701E-03
            1071            1721     16.3126E-03     16.4701E-03
            1089            1721     16.3126E-03     16.4701E-03
            1090            1721     16.3126E-03     16.4701E-03
            1074            1722     3.68964E-03     3.53973E-03
            1091            1722     3.68964E-03     3.53973E-03
            1073            1722     3.68964E-03     3.53973E-03
            1092            1722     3.68964E-03     3.53973E-03
            1075            1723     4.00396E-03     3.99906E-03
            1074            1723     4.00396E-03     3.99906E-03
            1093            1723     4.00396E-03     3.99906E-03
            1092            1723     4.00396E-03     3.99906E-03
            1075            1724     4.50944E-03     4.63701E-03
            1076            1724     4.50944E-03     4.63701E-03
            1093            1724     4.50944E-03     4.63701E-03
            1094            1724     4.50944E-03     4.63701E-03
            1095            1725     5.16687E-03     5.37287E-03
            1077            1725     5.16687E-03     5.37287E-03
            1094            1725     5.16687E-03     5.37287E-03
            1076            1725     5.16687E-03     5.37287E-03
            1077            1726     5.92807E-03     6.18235E-03
            1078            1726     5.92807E-03     6.18235E-03
            1095            1726     5.92807E-03     6.18235E-03
            1096            1726     5.92807E-03     6.18235E-03
            1079            1727     6.75894E-03     7.03743E-03
            1097            1727     6.75894E-03     7.03743E-03
            1096            1727     6.75894E-03     7.03743E-03
            1078            1727     6.75894E-03     7.03743E-03
            1097            1728     7.63886E-03     7.93069E-03
            1080            1728     7.63886E-03     7.93069E-03
            1098            1728     7.63886E-03     7.93069E-03
            1079            1728     7.63886E-03     7.93069E-03
            1099            1729     8.55098E-03     8.85563E-03
            1081            1729     8.55098E-03     8.85563E-03
            1098            1729     8.55098E-03     8.85563E-03
            1080            1729     8.55098E-03     8.85563E-03
            1099            1730     9.48797E-03     9.80794E-03
            1082            1730     9.48797E-03     9.80794E-03
            1100            1730     9.48797E-03     9.80794E-03
            1081            1730     9.48797E-03     9.80794E-03
            1083            1731     10.4418E-03     10.7806E-03
            1101            1731     10.4418E-03     10.7806E-03
            1100            1731     10.4418E-03     10.7806E-03
            1082            1731     10.4418E-03     10.7806E-03
            1102            1732     11.4132E-03     11.7736E-03
            1084            1732     11.4132E-03     11.7736E-03
            1083            1732     11.4132E-03     11.7736E-03
            1101            1732     11.4132E-03     11.7736E-03
            1084            1733     12.3876E-03     12.7743E-03
            1103            1733     12.3876E-03     12.7743E-03
            1085            1733     12.3876E-03     12.7743E-03
            1102            1733     12.3876E-03     12.7743E-03
            1085            1734     13.3857E-03     13.7829E-03
            1103            1734     13.3857E-03     13.7829E-03
            1086            1734     13.3857E-03     13.7829E-03
            1104            1734     13.3857E-03     13.7829E-03
            1104            1735     14.3827E-03     14.7895E-03
            1105            1735     14.3827E-03     14.7895E-03
            1087            1735     14.3827E-03     14.7895E-03
            1086            1735     14.3827E-03     14.7895E-03
            1087            1736     15.4016E-03     15.7833E-03
            1088            1736     15.4016E-03     15.7833E-03
            1105            1736     15.4016E-03     15.7833E-03
            1106            1736     15.4016E-03     15.7833E-03
            1088            1737     16.5201E-03     16.8069E-03
            1106            1737     16.5201E-03     16.8069E-03
            1089            1737     16.5201E-03     16.8069E-03
            1107            1737     16.5201E-03     16.8069E-03
            1090            1738     17.7820E-03     18.0195E-03
            1107            1738     17.7820E-03     18.0195E-03
            1089            1738     17.7820E-03     18.0195E-03
            1108            1738     17.7820E-03     18.0195E-03
            1092            1739     3.25047E-03     3.12174E-03
            1109            1739     3.25047E-03     3.12174E-03
            1110            1739     3.25047E-03     3.12174E-03
            1091            1739     3.25047E-03     3.12174E-03
            1111            1740     3.58843E-03     3.63658E-03
            1093            1740     3.58843E-03     3.63658E-03
            1092            1740     3.58843E-03     3.63658E-03
            1110            1740     3.58843E-03     3.63658E-03
            1093            1741     4.13744E-03     4.32485E-03
            1094            1741     4.13744E-03     4.32485E-03
            1111            1741     4.13744E-03     4.32485E-03
            1112            1741     4.13744E-03     4.32485E-03
            1113            1742     4.82512E-03     5.11976E-03
            1094            1742     4.82512E-03     5.11976E-03
            1095            1742     4.82512E-03     5.11976E-03
            1112            1742     4.82512E-03     5.11976E-03
            1114            1743     5.61094E-03     5.96614E-03
            1095            1743     5.61094E-03     5.96614E-03
            1113            1743     5.61094E-03     5.96614E-03
            1096            1743     5.61094E-03     5.96614E-03
            1096            1744     6.46075E-03     6.85169E-03
            1097            1744     6.46075E-03     6.85169E-03
            1114            1744     6.46075E-03     6.85169E-03
            1115            1744     6.46075E-03     6.85169E-03
            1116            1745     7.35205E-03     7.76552E-03
            1097            1745     7.35205E-03     7.76552E-03
            1115            1745     7.35205E-03     7.76552E-03
            1098            1745     7.35205E-03     7.76552E-03
            1117            1746     8.27377E-03     8.70447E-03
            1099            1746     8.27377E-03     8.70447E-03
            1098            1746     8.27377E-03     8.70447E-03
            1116            1746     8.27377E-03     8.70447E-03
            1099            1747     9.22106E-03     9.66711E-03
            1100            1747     9.22106E-03     9.66711E-03
            1117            1747     9.22106E-03     9.66711E-03
            1118            1747     9.22106E-03     9.66711E-03
            1101            1748     10.1935E-03     10.6573E-03
            1118            1748     10.1935E-03     10.6573E-03
            1100            1748     10.1935E-03     10.6573E-03
            1119            1748     10.1935E-03     10.6573E-03
            1102            1749     11.1975E-03     11.6769E-03
            1120            1749     11.1975E-03     11.6769E-03
            1101            1749     11.1975E-03     11.6769E-03
            1119            1749     11.1975E-03     11.6769E-03
            1120            1750     12.2519E-03     12.7440E-03
            1103            1750     12.2519E-03     12.7440E-03
            1102            1750     12.2519E-03     12.7440E-03
            1121            1750     12.2519E-03     12.7440E-03
            1103            1751     13.3715E-03     13.8670E-03
            1104            1751     13.3715E-03     13.8670E-03
            1121            1751     13.3715E-03     13.8670E-03
            1122            1751     13.3715E-03     13.8670E-03
            1105            1752     14.6456E-03     15.0979E-03
            1123            1752     14.6456E-03     15.0979E-03
            1122            1752     14.6456E-03     15.0979E-03
            1104            1752     14.6456E-03     15.0979E-03
            1124            1753     16.0479E-03     16.4573E-03
            1105            1753     16.0479E-03     16.4573E-03
            1106            1753     16.0479E-03     16.4573E-03
            1123            1753     16.0479E-03     16.4573E-03
            1125            1754     17.5646E-03     17.9315E-03
            1106            1754     17.5646E-03     17.9315E-03
            1107            1754     17.5646E-03     17.9315E-03
            1124            1754     17.5646E-03     17.9315E-03
            1108            1755     19.2859E-03     19.5007E-03
            1126            1755     19.2859E-03     19.5007E-03
            1107            1755     19.2859E-03     19.5007E-03
            1125            1755     19.2859E-03     19.5007E-03
            1109            1756     2.77604E-03     2.69843E-03
            1110            1756     2.77604E-03     2.69843E-03
            1127            1756     2.77604E-03     2.69843E-03
            1128            1756     2.77604E-03     2.69843E-03
            1129            1757     3.15166E-03     3.28288E-03
            1110            1757     3.15166E-03     3.28288E-03
            1111            1757     3.15166E-03     3.28288E-03
            1128            1757     3.15166E-03     3.28288E-03
            1112            1758     3.72939E-03     4.03972E-03
            1130            1758     3.72939E-03     4.03972E-03
            1129            1758     3.72939E-03     4.03972E-03
            1111            1758     3.72939E-03     4.03972E-03
            1131            1759     4.45483E-03     4.86980E-03
            1112            1759     4.45483E-03     4.86980E-03
            1130            1759     4.45483E-03     4.86980E-03
            1113            1759     4.45483E-03     4.86980E-03
            1132            1760     5.26652E-03     5.74399E-03
            1113            1760     5.26652E-03     5.74399E-03
            1114            1760     5.26652E-03     5.74399E-03
            1131            1760     5.26652E-03     5.74399E-03
            1133            1761     6.12972E-03     6.64518E-03
            1114            1761     6.12972E-03     6.64518E-03
            1132            1761     6.12972E-03     6.64518E-03
            1115            1761     6.12972E-03     6.64518E-03
            1134            1762     7.02664E-03     7.56653E-03
            1115            1762     7.02664E-03     7.56653E-03
            1133            1762     7.02664E-03     7.56653E-03
            1116            1762     7.02664E-03     7.56653E-03
            1116            1763     7.94999E-03     8.50605E-03
            1134            1763     7.94999E-03     8.50605E-03
            1117            1763     7.94999E-03     8.50605E-03
            1135            1763     7.94999E-03     8.50605E-03
            1135            1764     8.89582E-03     9.46584E-03
            1117            1764     8.89582E-03     9.46584E-03
            1118            1764     8.89582E-03     9.46584E-03
            1136            1764     8.89582E-03     9.46584E-03
            1118            1765     9.87362E-03     10.4532E-03
            1137            1765     9.87362E-03     10.4532E-03
            1136            1765     9.87362E-03     10.4532E-03
            1119            1765     9.87362E-03     10.4532E-03
            1138            1766     10.8923E-03     11.4835E-03
            1120            1766     10.8923E-03     11.4835E-03
            1119            1766     10.8923E-03     11.4835E-03
            1137            1766     10.8923E-03     11.4835E-03
            1138            1767     11.9871E-03     12.5786E-03
            1139            1767     11.9871E-03     12.5786E-03
            1120            1767     11.9871E-03     12.5786E-03
            1121            1767     11.9871E-03     12.5786E-03
            1122            1768     13.2047E-03     13.7906E-03
            1139            1768     13.2047E-03     13.7906E-03
            1121            1768     13.2047E-03     13.7906E-03
            1140            1768     13.2047E-03     13.7906E-03
            1141            1769     14.6157E-03     15.1681E-03
            1140            1769     14.6157E-03     15.1681E-03
            1122            1769     14.6157E-03     15.1681E-03
            1123            1769     14.6157E-03     15.1681E-03
            1141            1770     16.4404E-03     16.8690E-03
            1123            1770     16.4404E-03     16.8690E-03
            1142            1770     16.4404E-03     16.8690E-03
            1124            1770     16.4404E-03     16.8690E-03
            1143            1771     18.5598E-03     18.8845E-03
            1142            1771     18.5598E-03     18.8845E-03
            1124            1771     18.5598E-03     18.8845E-03
            1125            1771     18.5598E-03     18.8845E-03
            1143            1772     20.6906E-03     21.0842E-03
            1144            1772     20.6906E-03     21.0842E-03
            1125            1772     20.6906E-03     21.0842E-03
            1126            1772     20.6906E-03     21.0842E-03
            1146            1773     2.26164E-03     2.30282E-03
            1145            1773     2.26164E-03     2.30282E-03
            1128            1773     2.26164E-03     2.30282E-03
            1127            1773     2.26164E-03     2.30282E-03
            1146            1774     2.65414E-03     2.97945E-03
            1147            1774     2.65414E-03     2.97945E-03
            1128            1774     2.65414E-03     2.97945E-03
            1129            1774     2.65414E-03     2.97945E-03
            1129            1775     3.29566E-03     3.77970E-03
            1148            1775     3.29566E-03     3.77970E-03
            1147            1775     3.29566E-03     3.77970E-03
            1130            1775     3.29566E-03     3.77970E-03
            1148            1776     4.06835E-03     4.63703E-03
            1130            1776     4.06835E-03     4.63703E-03
            1131            1776     4.06835E-03     4.63703E-03
            1149            1776     4.06835E-03     4.63703E-03
            1131            1777     4.90644E-03     5.52845E-03
            1150            1777     4.90644E-03     5.52845E-03
            1132            1777     4.90644E-03     5.52845E-03
            1149            1777     4.90644E-03     5.52845E-03
            1150            1778     5.78175E-03     6.43716E-03
            1132            1778     5.78175E-03     6.43716E-03
            1133            1778     5.78175E-03     6.43716E-03
            1151            1778     5.78175E-03     6.43716E-03
            1152            1779     6.68297E-03     7.35798E-03
            1133            1779     6.68297E-03     7.35798E-03
            1151            1779     6.68297E-03     7.35798E-03
            1134            1779     6.68297E-03     7.35798E-03
            1153            1780     7.60262E-03     8.28958E-03
            1134            1780     7.60262E-03     8.28958E-03
            1135            1780     7.60262E-03     8.28958E-03
            1152            1780     7.60262E-03     8.28958E-03
            1154            1781     8.54578E-03     9.23816E-03
            1135            1781     8.54578E-03     9.23816E-03
            1153            1781     8.54578E-03     9.23816E-03
            1136            1781     8.54578E-03     9.23816E-03
            1154            1782     9.51582E-03     10.2112E-03
            1137            1782     9.51582E-03     10.2112E-03
            1155            1782     9.51582E-03     10.2112E-03
            1136            1782     9.51582E-03     10.2112E-03
            1155            1783     10.5397E-03     11.2319E-03
            1138            1783     10.5397E-03     11.2319E-03
            1137            1783     10.5397E-03     11.2319E-03
            1156            1783     10.5397E-03     11.2319E-03
            1138            1784     11.6383E-03     12.3292E-03
            1156            1784     11.6383E-03     12.3292E-03
            1139            1784     11.6383E-03     12.3292E-03
            1157            1784     11.6383E-03     12.3292E-03
            1158            1785     12.8895E-03     13.5639E-03
            1139            1785     12.8895E-03     13.5639E-03
            1140            1785     12.8895E-03     13.5639E-03
            1157            1785     12.8895E-03     13.5639E-03
            1140            1786     14.3686E-03     15.0294E-03
            1159            1786     14.3686E-03     15.0294E-03
            1158            1786     14.3686E-03     15.0294E-03
            1141            1786     14.3686E-03     15.0294E-03
            1141            1787     16.2650E-03     16.8675E-03
            1159            1787     16.2650E-03     16.8675E-03
            1160            1787     16.2650E-03     16.8675E-03
            1142            1787     16.2650E-03     16.8675E-03
            1161            1788     19.0713E-03     19.4424E-03
            1142            1788     19.0713E-03     19.4424E-03
            1160            1788     19.0713E-03     19.4424E-03
            1143            1788     19.0713E-03     19.4424E-03
            1143            1789     22.2606E-03     22.3296E-03
            1161            1789     22.2606E-03     22.3296E-03
            1162            1789     22.2606E-03     22.3296E-03
            1144            1789     22.2606E-03     22.3296E-03
            1164            1790     1.63508E-03     1.99152E-03
            1145            1790     1.63508E-03     1.99152E-03
            1163            1790     1.63508E-03     1.99152E-03
            1146            1790     1.63508E-03     1.99152E-03
            1164            1791     2.13093E-03     2.72169E-03
            1147            1791     2.13093E-03     2.72169E-03
            1146            1791     2.13093E-03     2.72169E-03
            1165            1791     2.13093E-03     2.72169E-03
            1147            1792     2.86406E-03     3.55185E-03
            1148            1792     2.86406E-03     3.55185E-03
            1166            1792     2.86406E-03     3.55185E-03
            1165            1792     2.86406E-03     3.55185E-03
            1167            1793     3.68671E-03     4.43518E-03
            1166            1793     3.68671E-03     4.43518E-03
            1149            1793     3.68671E-03     4.43518E-03
            1148            1793     3.68671E-03     4.43518E-03
            1149            1794     4.54977E-03     5.33776E-03
            1168            1794     4.54977E-03     5.33776E-03
            1167            1794     4.54977E-03     5.33776E-03
            1150            1794     4.54977E-03     5.33776E-03
            1150            1795     5.43821E-03     6.24924E-03
            1168            1795     5.43821E-03     6.24924E-03
            1151            1795     5.43821E-03     6.24924E-03
            1169            1795     5.43821E-03     6.24924E-03
            1151            1796     6.34167E-03     7.16501E-03
            1152            1796     6.34167E-03     7.16501E-03
            1169            1796     6.34167E-03     7.16501E-03
            1170            1796     6.34167E-03     7.16501E-03
            1153            1797     7.26170E-03     8.08802E-03
            1171            1797     7.26170E-03     8.08802E-03
            1170            1797     7.26170E-03     8.08802E-03
            1152            1797     7.26170E-03     8.08802E-03
            1153            1798     8.19919E-03     9.02045E-03
            1171            1798     8.19919E-03     9.02045E-03
            1172            1798     8.19919E-03     9.02045E-03
            1154            1798     8.19919E-03     9.02045E-03
            1173            1799     9.16898E-03     9.97932E-03
            1155            1799     9.16898E-03     9.97932E-03
            1154            1799     9.16898E-03     9.97932E-03
            1172            1799     9.16898E-03     9.97932E-03
            1155            1800     10.1831E-03     10.9769E-03
            1174            1800     10.1831E-03     10.9769E-03
            1156            1800     10.1831E-03     10.9769E-03
            1173            1800     10.1831E-03     10.9769E-03
            1156            1801     11.2874E-03     12.0612E-03
            1157            1801     11.2874E-03     12.0612E-03
            1174            1801     11.2874E-03     12.0612E-03
            1175            1801     11.2874E-03     12.0612E-03
            1176            1802     12.5137E-03     13.2710E-03
            1158            1802     12.5137E-03     13.2710E-03
            1175            1802     12.5137E-03     13.2710E-03
            1157            1802     12.5137E-03     13.2710E-03
            1159            1803     13.9952E-03     14.7411E-03
            1176            1803     13.9952E-03     14.7411E-03
            1177            1803     13.9952E-03     14.7411E-03
            1158            1803     13.9952E-03     14.7411E-03
            1178            1804     15.8124E-03     16.5824E-03
            1177            1804     15.8124E-03     16.5824E-03
            1159            1804     15.8124E-03     16.5824E-03
            1160            1804     15.8124E-03     16.5824E-03
            1160            1805     18.4800E-03     19.3021E-03
            1161            1805     18.4800E-03     19.3021E-03
            1178            1805     18.4800E-03     19.3021E-03
            1179            1805     18.4800E-03     19.3021E-03
            1161            1806     22.8202E-03     23.4851E-03
            1179            1806     22.8202E-03     23.4851E-03
            1162            1806     22.8202E-03     23.4851E-03
            1180            1806     22.8202E-03     23.4851E-03
            1164            1807     4.56784E-03     5.31322E-03
            1163            1807     4.56784E-03     5.31322E-03
            1181            1807     4.56784E-03     5.31322E-03
            1182            1807     4.56784E-03     5.31322E-03
            1165            1808     5.35250E-03     5.71502E-03
            1164            1808     5.35250E-03     5.71502E-03
            1182            1808     5.35250E-03     5.71502E-03
            1183            1808     5.35250E-03     5.71502E-03
            1165            1809     6.14527E-03     6.45309E-03
            1183            1809     6.14527E-03     6.45309E-03
            1166            1809     6.14527E-03     6.45309E-03
            1184            1809     6.14527E-03     6.45309E-03
            1185            1810     7.04082E-03     7.36732E-03
            1166            1810     7.04082E-03     7.36732E-03
            1167            1810     7.04082E-03     7.36732E-03
            1184            1810     7.04082E-03     7.36732E-03
            1186            1811     8.01473E-03     8.35103E-03
            1185            1811     8.01473E-03     8.35103E-03
            1167            1811     8.01473E-03     8.35103E-03
            1168            1811     8.01473E-03     8.35103E-03
            1168            1812     9.04195E-03     9.38841E-03
            1186            1812     9.04195E-03     9.38841E-03
            1169            1812     9.04195E-03     9.38841E-03
            1187            1812     9.04195E-03     9.38841E-03
            1188            1813     10.1083E-03     10.4510E-03
            1170            1813     10.1083E-03     10.4510E-03
            1169            1813     10.1083E-03     10.4510E-03
            1187            1813     10.1083E-03     10.4510E-03
            1171            1814     11.1958E-03     11.5274E-03
            1188            1814     11.1958E-03     11.5274E-03
            1189            1814     11.1958E-03     11.5274E-03
            1170            1814     11.1958E-03     11.5274E-03
            1171            1815     12.2979E-03     12.6041E-03
            1172            1815     12.2979E-03     12.6041E-03
            1189            1815     12.2979E-03     12.6041E-03
            1190            1815     12.2979E-03     12.6041E-03
            1172            1816     13.4032E-03     13.6780E-03
            1173            1816     13.4032E-03     13.6780E-03
            1191            1816     13.4032E-03     13.6780E-03
            1190            1816     13.4032E-03     13.6780E-03
            1173            1817     14.5151E-03     14.7387E-03
            1174            1817     14.5151E-03     14.7387E-03
            1192            1817     14.5151E-03     14.7387E-03
            1191            1817     14.5151E-03     14.7387E-03
            1192            1818     15.6267E-03     15.7982E-03
            1193            1818     15.6267E-03     15.7982E-03
            1175            1818     15.6267E-03     15.7982E-03
            1174            1818     15.6267E-03     15.7982E-03
            1193            1819     16.7616E-03     16.8546E-03
            1175            1819     16.7616E-03     16.8546E-03
            1194            1819     16.7616E-03     16.8546E-03
            1176            1819     16.7616E-03     16.8546E-03
            1176            1820     17.9148E-03     17.9487E-03
            1177            1820     17.9148E-03     17.9487E-03
            1195            1820     17.9148E-03     17.9487E-03
            1194            1820     17.9148E-03     17.9487E-03
            1177            1821     19.1734E-03     19.1380E-03
            1178            1821     19.1734E-03     19.1380E-03
            1195            1821     19.1734E-03     19.1380E-03
            1196            1821     19.1734E-03     19.1380E-03
            1197            1822     20.5192E-03     20.5178E-03
            1178            1822     20.5192E-03     20.5178E-03
            1196            1822     20.5192E-03     20.5178E-03
            1179            1822     20.5192E-03     20.5178E-03
            1197            1823     22.5250E-03     22.9473E-03
            1180            1823     22.5250E-03     22.9473E-03
            1179            1823     22.5250E-03     22.9473E-03
            1198            1823     22.5250E-03     22.9473E-03
            1200            1824     7.52374E-03     8.43233E-03
            1181            1824     7.52374E-03     8.43233E-03
            1182            1824     7.52374E-03     8.43233E-03
            1199            1824     7.52374E-03     8.43233E-03
            1182            1825     8.24210E-03     8.56672E-03
            1183            1825     8.24210E-03     8.56672E-03
            1201            1825     8.24210E-03     8.56672E-03
            1200            1825     8.24210E-03     8.56672E-03
            1183            1826     9.18525E-03     9.17994E-03
            1201            1826     9.18525E-03     9.17994E-03
            1184            1826     9.18525E-03     9.17994E-03
            1202            1826     9.18525E-03     9.17994E-03
            1184            1827     10.2383E-03     10.1387E-03
            1202            1827     10.2383E-03     10.1387E-03
            1203            1827     10.2383E-03     10.1387E-03
            1185            1827     10.2383E-03     10.1387E-03
            1204            1828     11.3985E-03     11.2668E-03
            1185            1828     11.3985E-03     11.2668E-03
            1203            1828     11.3985E-03     11.2668E-03
            1186            1828     11.3985E-03     11.2668E-03
            1187            1829     12.6518E-03     12.5030E-03
            1204            1829     12.6518E-03     12.5030E-03
            1186            1829     12.6518E-03     12.5030E-03
            1205            1829     12.6518E-03     12.5030E-03
            1187            1830     13.9607E-03     13.7999E-03
            1188            1830     13.9607E-03     13.7999E-03
            1206            1830     13.9607E-03     13.7999E-03
            1205            1830     13.9607E-03     13.7999E-03
            1207            1831     15.3073E-03     15.1252E-03
            1188            1831     15.3073E-03     15.1252E-03
            1189            1831     15.3073E-03     15.1252E-03
            1206            1831     15.3073E-03     15.1252E-03
            1189            1832     16.6619E-03     16.4546E-03
            1190            1832     16.6619E-03     16.4546E-03
            1208            1832     16.6619E-03     16.4546E-03
            1207            1832     16.6619E-03     16.4546E-03
            1209            1833     18.0070E-03     17.7608E-03
            1190            1833     18.0070E-03     17.7608E-03
            1208            1833     18.0070E-03     17.7608E-03
            1191            1833     18.0070E-03     17.7608E-03
            1192            1834     19.3134E-03     19.0214E-03
            1191            1834     19.3134E-03     19.0214E-03
            1209            1834     19.3134E-03     19.0214E-03
            1210            1834     19.3134E-03     19.0214E-03
            1210            1835     20.5544E-03     20.2033E-03
            1193            1835     20.5544E-03     20.2033E-03
            1192            1835     20.5544E-03     20.2033E-03
            1211            1835     20.5544E-03     20.2033E-03
            1193            1836     21.6922E-03     21.2732E-03
            1211            1836     21.6922E-03     21.2732E-03
            1212            1836     21.6922E-03     21.2732E-03
            1194            1836     21.6922E-03     21.2732E-03
            1213            1837     22.6733E-03     22.1862E-03
            1195            1837     22.6733E-03     22.1862E-03
            1194            1837     22.6733E-03     22.1862E-03
            1212            1837     22.6733E-03     22.1862E-03
            1196            1838     23.4241E-03     22.8755E-03
            1213            1838     23.4241E-03     22.8755E-03
            1214            1838     23.4241E-03     22.8755E-03
            1195            1838     23.4241E-03     22.8755E-03
            1197            1839     23.7910E-03     23.2425E-03
            1196            1839     23.7910E-03     23.2425E-03
            1215            1839     23.7910E-03     23.2425E-03
            1214            1839     23.7910E-03     23.2425E-03
            1198            1840     23.6036E-03     23.0072E-03
            1216            1840     23.6036E-03     23.0072E-03
            1197            1840     23.6036E-03     23.0072E-03
            1215            1840     23.6036E-03     23.0072E-03
            1218            1841     6.84985E-03     7.31734E-03
            1199            1841     6.84985E-03     7.31734E-03
            1217            1841     6.84985E-03     7.31734E-03
            1200            1841     6.84985E-03     7.31734E-03
            1200            1842     7.33359E-03     7.92012E-03
            1201            1842     7.33359E-03     7.92012E-03
            1218            1842     7.33359E-03     7.92012E-03
            1219            1842     7.33359E-03     7.92012E-03
            1219            1843     8.36641E-03     8.64659E-03
            1202            1843     8.36641E-03     8.64659E-03
            1220            1843     8.36641E-03     8.64659E-03
            1201            1843     8.36641E-03     8.64659E-03
            1221            1844     9.60443E-03     9.69694E-03
            1202            1844     9.60443E-03     9.69694E-03
            1203            1844     9.60443E-03     9.69694E-03
            1220            1844     9.60443E-03     9.69694E-03
            1204            1845     10.9408E-03     10.9580E-03
            1221            1845     10.9408E-03     10.9580E-03
            1203            1845     10.9408E-03     10.9580E-03
            1222            1845     10.9408E-03     10.9580E-03
            1205            1846     12.3592E-03     12.3380E-03
            1223            1846     12.3592E-03     12.3380E-03
            1204            1846     12.3592E-03     12.3380E-03
            1222            1846     12.3592E-03     12.3380E-03
            1224            1847     13.8323E-03     13.7929E-03
            1205            1847     13.8323E-03     13.7929E-03
            1206            1847     13.8323E-03     13.7929E-03
            1223            1847     13.8323E-03     13.7929E-03
            1206            1848     15.3401E-03     15.2889E-03
            1224            1848     15.3401E-03     15.2889E-03
            1207            1848     15.3401E-03     15.2889E-03
            1225            1848     15.3401E-03     15.2889E-03
            1207            1849     16.8667E-03     16.8027E-03
            1208            1849     16.8667E-03     16.8027E-03
            1226            1849     16.8667E-03     16.8027E-03
            1225            1849     16.8667E-03     16.8027E-03
            1208            1850     18.3879E-03     18.3146E-03
            1209            1850     18.3879E-03     18.3146E-03
            1226            1850     18.3879E-03     18.3146E-03
            1227            1850     18.3879E-03     18.3146E-03
            1210            1851     19.8843E-03     19.7990E-03
            1228            1851     19.8843E-03     19.7990E-03
            1209            1851     19.8843E-03     19.7990E-03
            1227            1851     19.8843E-03     19.7990E-03
            1229            1852     21.3184E-03     21.2310E-03
            1228            1852     21.3184E-03     21.2310E-03
            1211            1852     21.3184E-03     21.2310E-03
            1210            1852     21.3184E-03     21.2310E-03
            1229            1853     22.6472E-03     22.5682E-03
            1211            1853     22.6472E-03     22.5682E-03
            1230            1853     22.6472E-03     22.5682E-03
            1212            1853     22.6472E-03     22.5682E-03
            1212            1854     23.8051E-03     23.7609E-03
            1230            1854     23.8051E-03     23.7609E-03
            1231            1854     23.8051E-03     23.7609E-03
            1213            1854     23.8051E-03     23.7609E-03
            1232            1855     24.6950E-03     24.7350E-03
            1213            1855     24.6950E-03     24.7350E-03
            1231            1855     24.6950E-03     24.7350E-03
            1214            1855     24.6950E-03     24.7350E-03
            1215            1856     25.2048E-03     25.3416E-03
            1232            1856     25.2048E-03     25.3416E-03
            1233            1856     25.2048E-03     25.3416E-03
            1214            1856     25.2048E-03     25.3416E-03
            1234            1857     25.5615E-03     25.6646E-03
            1216            1857     25.5615E-03     25.6646E-03
            1233            1857     25.5615E-03     25.6646E-03
            1215            1857     25.5615E-03     25.6646E-03
            1235            1858     6.05951E-03     6.18488E-03
            1217            1858     6.05951E-03     6.18488E-03
            1236            1858     6.05951E-03     6.18488E-03
            1218            1858     6.05951E-03     6.18488E-03
            1236            1859     6.68935E-03     7.08401E-03
            1219            1859     6.68935E-03     7.08401E-03
            1218            1859     6.68935E-03     7.08401E-03
            1237            1859     6.68935E-03     7.08401E-03
            1238            1860     7.72549E-03     8.13478E-03
            1219            1860     7.72549E-03     8.13478E-03
            1237            1860     7.72549E-03     8.13478E-03
            1220            1860     7.72549E-03     8.13478E-03
            1238            1861     9.07713E-03     9.33995E-03
            1239            1861     9.07713E-03     9.33995E-03
            1221            1861     9.07713E-03     9.33995E-03
            1220            1861     9.07713E-03     9.33995E-03
            1221            1862     10.5609E-03     10.7365E-03
            1240            1862     10.5609E-03     10.7365E-03
            1222            1862     10.5609E-03     10.7365E-03
            1239            1862     10.5609E-03     10.7365E-03
            1222            1863     12.1184E-03     12.2483E-03
            1240            1863     12.1184E-03     12.2483E-03
            1223            1863     12.1184E-03     12.2483E-03
            1241            1863     12.1184E-03     12.2483E-03
            1223            1864     13.7278E-03     13.8364E-03
            1224            1864     13.7278E-03     13.8364E-03
            1242            1864     13.7278E-03     13.8364E-03
            1241            1864     13.7278E-03     13.8364E-03
            1224            1865     15.3712E-03     15.4724E-03
            1242            1865     15.3712E-03     15.4724E-03
            1225            1865     15.3712E-03     15.4724E-03
            1243            1865     15.3712E-03     15.4724E-03
            1244            1866     17.0325E-03     17.1368E-03
            1225            1866     17.0325E-03     17.1368E-03
            1226            1866     17.0325E-03     17.1368E-03
            1243            1866     17.0325E-03     17.1368E-03
            1226            1867     18.6993E-03     18.8114E-03
            1244            1867     18.6993E-03     18.8114E-03
            1227            1867     18.6993E-03     18.8114E-03
            1245            1867     18.6993E-03     18.8114E-03
            1228            1868     20.3431E-03     20.4773E-03
            1227            1868     20.3431E-03     20.4773E-03
            1245            1868     20.3431E-03     20.4773E-03
            1246            1868     20.3431E-03     20.4773E-03
            1246            1869     21.9374E-03     22.1026E-03
            1247            1869     21.9374E-03     22.1026E-03
            1229            1869     21.9374E-03     22.1026E-03
            1228            1869     21.9374E-03     22.1026E-03
            1248            1870     23.4292E-03     23.6483E-03
            1247            1870     23.4292E-03     23.6483E-03
            1229            1870     23.4292E-03     23.6483E-03
            1230            1870     23.4292E-03     23.6483E-03
            1231            1871     24.7487E-03     25.0513E-03
            1230            1871     24.7487E-03     25.0513E-03
            1249            1871     24.7487E-03     25.0513E-03
            1248            1871     24.7487E-03     25.0513E-03
            1249            1872     25.8319E-03     26.2145E-03
            1231            1872     25.8319E-03     26.2145E-03
            1250            1872     25.8319E-03     26.2145E-03
            1232            1872     25.8319E-03     26.2145E-03
            1251            1873     26.6477E-03     27.0849E-03
            1232            1873     26.6477E-03     27.0849E-03
            1233            1873     26.6477E-03     27.0849E-03
            1250            1873     26.6477E-03     27.0849E-03
            1233            1874     27.5041E-03     27.8083E-03
            1252            1874     27.5041E-03     27.8083E-03
            1234            1874     27.5041E-03     27.8083E-03
            1251            1874     27.5041E-03     27.8083E-03
            1236            1875     5.27978E-03     5.39821E-03
            1254            1875     5.27978E-03     5.39821E-03
            1235            1875     5.27978E-03     5.39821E-03
            1253            1875     5.27978E-03     5.39821E-03
            1237            1876     6.03154E-03     6.33394E-03
            1254            1876     6.03154E-03     6.33394E-03
            1255            1876     6.03154E-03     6.33394E-03
            1236            1876     6.03154E-03     6.33394E-03
            1237            1877     7.20250E-03     7.60710E-03
            1255            1877     7.20250E-03     7.60710E-03
            1238            1877     7.20250E-03     7.60710E-03
            1256            1877     7.20250E-03     7.60710E-03
            1238            1878     8.63295E-03     9.01754E-03
            1239            1878     8.63295E-03     9.01754E-03
            1257            1878     8.63295E-03     9.01754E-03
            1256            1878     8.63295E-03     9.01754E-03
            1239            1879     10.2231E-03     10.5412E-03
            1258            1879     10.2231E-03     10.5412E-03
            1257            1879     10.2231E-03     10.5412E-03
            1240            1879     10.2231E-03     10.5412E-03
            1258            1880     11.8865E-03     12.1678E-03
            1241            1880     11.8865E-03     12.1678E-03
            1259            1880     11.8865E-03     12.1678E-03
            1240            1880     11.8865E-03     12.1678E-03
            1242            1881     13.5970E-03     13.8596E-03
            1259            1881     13.5970E-03     13.8596E-03
            1241            1881     13.5970E-03     13.8596E-03
            1260            1881     13.5970E-03     13.8596E-03
            1261            1882     15.3384E-03     15.6001E-03
            1260            1882     15.3384E-03     15.6001E-03
            1243            1882     15.3384E-03     15.6001E-03
            1242            1882     15.3384E-03     15.6001E-03
            1262            1883     17.1020E-03     17.3741E-03
            1261            1883     17.1020E-03     17.3741E-03
            1244            1883     17.1020E-03     17.3741E-03
            1243            1883     17.1020E-03     17.3741E-03
            1263            1884     18.8712E-03     19.1684E-03
            1244            1884     18.8712E-03     19.1684E-03
            1245            1884     18.8712E-03     19.1684E-03
            1262            1884     18.8712E-03     19.1684E-03
            1264            1885     20.6366E-03     20.9668E-03
            1245            1885     20.6366E-03     20.9668E-03
            1263            1885     20.6366E-03     20.9668E-03
            1246            1885     20.6366E-03     20.9668E-03
            1265            1886     22.3612E-03     22.7441E-03
            1246            1886     22.3612E-03     22.7441E-03
            1264            1886     22.3612E-03     22.7441E-03
            1247            1886     22.3612E-03     22.7441E-03
            1266            1887     24.0096E-03     24.4558E-03
            1265            1887     24.0096E-03     24.4558E-03
            1247            1887     24.0096E-03     24.4558E-03
            1248            1887     24.0096E-03     24.4558E-03
            1248            1888     25.5267E-03     26.0369E-03
            1266            1888     25.5267E-03     26.0369E-03
            1249            1888     25.5267E-03     26.0369E-03
            1267            1888     25.5267E-03     26.0369E-03
            1250            1889     26.8492E-03     27.4154E-03
            1249            1889     26.8492E-03     27.4154E-03
            1267            1889     26.8492E-03     27.4154E-03
            1268            1889     26.8492E-03     27.4154E-03
            1250            1890     28.0578E-03     28.5618E-03
            1268            1890     28.0578E-03     28.5618E-03
            1251            1890     28.0578E-03     28.5618E-03
            1269            1890     28.0578E-03     28.5618E-03
            1270            1891     29.2593E-03     29.5816E-03
            1251            1891     29.2593E-03     29.5816E-03
            1252            1891     29.2593E-03     29.5816E-03
            1269            1891     29.2593E-03     29.5816E-03
            1271            1892     4.54372E-03     4.60313E-03
            1272            1892     4.54372E-03     4.60313E-03
            1254            1892     4.54372E-03     4.60313E-03
            1253            1892     4.54372E-03     4.60313E-03
            1273            1893     5.40331E-03     5.73340E-03
            1254            1893     5.40331E-03     5.73340E-03
            1272            1893     5.40331E-03     5.73340E-03
            1255            1893     5.40331E-03     5.73340E-03
            1274            1894     6.69995E-03     7.12897E-03
            1255            1894     6.69995E-03     7.12897E-03
            1273            1894     6.69995E-03     7.12897E-03
            1256            1894     6.69995E-03     7.12897E-03
            1274            1895     8.23542E-03     8.69309E-03
            1257            1895     8.23542E-03     8.69309E-03
            1256            1895     8.23542E-03     8.69309E-03
            1275            1895     8.23542E-03     8.69309E-03
            1275            1896     9.89637E-03     10.3389E-03
            1276            1896     9.89637E-03     10.3389E-03
            1258            1896     9.89637E-03     10.3389E-03
            1257            1896     9.89637E-03     10.3389E-03
            1258            1897     11.6323E-03     12.0503E-03
            1276            1897     11.6323E-03     12.0503E-03
            1277            1897     11.6323E-03     12.0503E-03
            1259            1897     11.6323E-03     12.0503E-03
            1259            1898     13.4078E-03     13.8177E-03
            1260            1898     13.4078E-03     13.8177E-03
            1277            1898     13.4078E-03     13.8177E-03
            1278            1898     13.4078E-03     13.8177E-03
            1278            1899     15.2131E-03     15.6270E-03
            1279            1899     15.2131E-03     15.6270E-03
            1260            1899     15.2131E-03     15.6270E-03
            1261            1899     15.2131E-03     15.6270E-03
            1280            1900     17.0386E-03     17.4705E-03
            1279            1900     17.0386E-03     17.4705E-03
            1261            1900     17.0386E-03     17.4705E-03
            1262            1900     17.0386E-03     17.4705E-03
            1262            1901     18.8828E-03     19.3430E-03
            1280            1901     18.8828E-03     19.3430E-03
            1281            1901     18.8828E-03     19.3430E-03
            1263            1901     18.8828E-03     19.3430E-03
            1282            1902     20.7297E-03     21.2323E-03
            1281            1902     20.7297E-03     21.2323E-03
            1264            1902     20.7297E-03     21.2323E-03
            1263            1902     20.7297E-03     21.2323E-03
            1283            1903     22.5783E-03     23.1255E-03
            1264            1903     22.5783E-03     23.1255E-03
            1282            1903     22.5783E-03     23.1255E-03
            1265            1903     22.5783E-03     23.1255E-03
            1283            1904     24.3870E-03     24.9898E-03
            1284            1904     24.3870E-03     24.9898E-03
            1266            1904     24.3870E-03     24.9898E-03
            1265            1904     24.3870E-03     24.9898E-03
            1285            1905     26.1259E-03     26.7667E-03
            1284            1905     26.1259E-03     26.7667E-03
            1267            1905     26.1259E-03     26.7667E-03
            1266            1905     26.1259E-03     26.7667E-03
            1268            1906     27.7764E-03     28.3978E-03
            1285            1906     27.7764E-03     28.3978E-03
            1286            1906     27.7764E-03     28.3978E-03
            1267            1906     27.7764E-03     28.3978E-03
            1269            1907     29.3153E-03     29.8649E-03
            1287            1907     29.3153E-03     29.8649E-03
            1268            1907     29.3153E-03     29.8649E-03
            1286            1907     29.3153E-03     29.8649E-03
            1287            1908     30.8734E-03     31.2380E-03
            1269            1908     30.8734E-03     31.2380E-03
            1288            1908     30.8734E-03     31.2380E-03
            1270            1908     30.8734E-03     31.2380E-03
            1272            1909     3.78942E-03     3.90435E-03
            1271            1909     3.78942E-03     3.90435E-03
            1289            1909     3.78942E-03     3.90435E-03
            1290            1909     3.78942E-03     3.90435E-03
            1272            1910     4.80054E-03     5.16566E-03
            1273            1910     4.80054E-03     5.16566E-03
            1290            1910     4.80054E-03     5.16566E-03
            1291            1910     4.80054E-03     5.16566E-03
            1274            1911     6.22102E-03     6.71717E-03
            1292            1911     6.22102E-03     6.71717E-03
            1291            1911     6.22102E-03     6.71717E-03
            1273            1911     6.22102E-03     6.71717E-03
            1274            1912     7.84202E-03     8.37761E-03
            1292            1912     7.84202E-03     8.37761E-03
            1275            1912     7.84202E-03     8.37761E-03
            1293            1912     7.84202E-03     8.37761E-03
            1294            1913     9.56350E-03     10.1081E-03
            1275            1913     9.56350E-03     10.1081E-03
            1293            1913     9.56350E-03     10.1081E-03
            1276            1913     9.56350E-03     10.1081E-03
            1277            1914     11.3387E-03     11.8811E-03
            1295            1914     11.3387E-03     11.8811E-03
            1276            1914     11.3387E-03     11.8811E-03
            1294            1914     11.3387E-03     11.8811E-03
            1295            1915     13.1489E-03     13.6924E-03
            1277            1915     13.1489E-03     13.6924E-03
            1296            1915     13.1489E-03     13.6924E-03
            1278            1915     13.1489E-03     13.6924E-03
            1296            1916     14.9835E-03     15.5369E-03
            1278            1916     14.9835E-03     15.5369E-03
            1297            1916     14.9835E-03     15.5369E-03
            1279            1916     14.9835E-03     15.5369E-03
            1279            1917     16.8412E-03     17.4149E-03
            1280            1917     16.8412E-03     17.4149E-03
            1297            1917     16.8412E-03     17.4149E-03
            1298            1917     16.8412E-03     17.4149E-03
            1298            1918     18.7207E-03     19.3233E-03
            1280            1918     18.7207E-03     19.3233E-03
            1281            1918     18.7207E-03     19.3233E-03
            1299            1918     18.7207E-03     19.3233E-03
            1282            1919     20.6305E-03     21.2687E-03
            1299            1919     20.6305E-03     21.2687E-03
            1300            1919     20.6305E-03     21.2687E-03
            1281            1919     20.6305E-03     21.2687E-03
            1300            1920     22.5625E-03     23.2422E-03
            1282            1920     22.5625E-03     23.2422E-03
            1283            1920     22.5625E-03     23.2422E-03
            1301            1920     22.5625E-03     23.2422E-03
            1284            1921     24.5460E-03     25.2456E-03
            1283            1921     24.5460E-03     25.2456E-03
            1302            1921     24.5460E-03     25.2456E-03
            1301            1921     24.5460E-03     25.2456E-03
            1284            1922     26.5388E-03     27.2532E-03
            1303            1922     26.5388E-03     27.2532E-03
            1285            1922     26.5388E-03     27.2532E-03
            1302            1922     26.5388E-03     27.2532E-03
            1304            1923     28.5215E-03     29.1991E-03
            1285            1923     28.5215E-03     29.1991E-03
            1303            1923     28.5215E-03     29.1991E-03
            1286            1923     28.5215E-03     29.1991E-03
            1286            1924     30.4852E-03     31.0318E-03
            1304            1924     30.4852E-03     31.0318E-03
            1287            1924     30.4852E-03     31.0318E-03
            1305            1924     30.4852E-03     31.0318E-03
            1288            1925     32.3638E-03     32.8080E-03
            1287            1925     32.3638E-03     32.8080E-03
            1305            1925     32.3638E-03     32.8080E-03
            1306            1925     32.3638E-03     32.8080E-03
            1307            1926     3.05635E-03     3.23296E-03
            1308            1926     3.05635E-03     3.23296E-03
            1290            1926     3.05635E-03     3.23296E-03
            1289            1926     3.05635E-03     3.23296E-03
            1308            1927     4.21843E-03     4.68326E-03
            1309            1927     4.21843E-03     4.68326E-03
            1290            1927     4.21843E-03     4.68326E-03
            1291            1927     4.21843E-03     4.68326E-03
            1309            1928     5.76368E-03     6.34270E-03
            1291            1928     5.76368E-03     6.34270E-03
            1292            1928     5.76368E-03     6.34270E-03
            1310            1928     5.76368E-03     6.34270E-03
            1292            1929     7.45532E-03     8.08091E-03
            1310            1929     7.45532E-03     8.08091E-03
            1311            1929     7.45532E-03     8.08091E-03
            1293            1929     7.45532E-03     8.08091E-03
            1312            1930     9.21331E-03     9.85740E-03
            1294            1930     9.21331E-03     9.85740E-03
            1293            1930     9.21331E-03     9.85740E-03
            1311            1930     9.21331E-03     9.85740E-03
            1295            1931     11.0058E-03     11.6639E-03
            1313            1931     11.0058E-03     11.6639E-03
            1312            1931     11.0058E-03     11.6639E-03
            1294            1931     11.0058E-03     11.6639E-03
            1296            1932     12.8231E-03     13.4902E-03
            1314            1932     12.8231E-03     13.4902E-03
            1295            1932     12.8231E-03     13.4902E-03
            1313            1932     12.8231E-03     13.4902E-03
            1297            1933     14.6600E-03     15.3408E-03
            1314            1933     14.6600E-03     15.3408E-03
            1315            1933     14.6600E-03     15.3408E-03
            1296            1933     14.6600E-03     15.3408E-03
            1316            1934     16.5193E-03     17.2171E-03
            1315            1934     16.5193E-03     17.2171E-03
            1297            1934     16.5193E-03     17.2171E-03
            1298            1934     16.5193E-03     17.2171E-03
            1317            1935     18.4069E-03     19.1299E-03
            1316            1935     18.4069E-03     19.1299E-03
            1299            1935     18.4069E-03     19.1299E-03
            1298            1935     18.4069E-03     19.1299E-03
            1318            1936     20.3361E-03     21.0847E-03
            1317            1936     20.3361E-03     21.0847E-03
            1300            1936     20.3361E-03     21.0847E-03
            1299            1936     20.3361E-03     21.0847E-03
            1319            1937     22.3353E-03     23.1086E-03
            1300            1937     22.3353E-03     23.1086E-03
            1318            1937     22.3353E-03     23.1086E-03
            1301            1937     22.3353E-03     23.1086E-03
            1302            1938     24.4194E-03     25.2091E-03
            1301            1938     24.4194E-03     25.2091E-03
            1319            1938     24.4194E-03     25.2091E-03
            1320            1938     24.4194E-03     25.2091E-03
            1321            1939     26.6921E-03     27.4349E-03
            1320            1939     26.6921E-03     27.4349E-03
            1302            1939     26.6921E-03     27.4349E-03
            1303            1939     26.6921E-03     27.4349E-03
            1321            1940     29.0753E-03     29.7730E-03
            1303            1940     29.0753E-03     29.7730E-03
            1322            1940     29.0753E-03     29.7730E-03
            1304            1940     29.0753E-03     29.7730E-03
            1304            1941     31.4690E-03     32.1058E-03
            1323            1941     31.4690E-03     32.1058E-03
            1305            1941     31.4690E-03     32.1058E-03
            1322            1941     31.4690E-03     32.1058E-03
            1305            1942     33.8633E-03     34.2641E-03
            1324            1942     33.8633E-03     34.2641E-03
            1323            1942     33.8633E-03     34.2641E-03
            1306            1942     33.8633E-03     34.2641E-03
            1325            1943     2.32116E-03     2.66625E-03
            1308            1943     2.32116E-03     2.66625E-03
            1326            1943     2.32116E-03     2.66625E-03
            1307            1943     2.32116E-03     2.66625E-03
            1309            1944     3.68773E-03     4.29584E-03
            1308            1944     3.68773E-03     4.29584E-03
            1327            1944     3.68773E-03     4.29584E-03
            1326            1944     3.68773E-03     4.29584E-03
            1328            1945     5.35047E-03     6.02817E-03
            1309            1945     5.35047E-03     6.02817E-03
            1310            1945     5.35047E-03     6.02817E-03
            1327            1945     5.35047E-03     6.02817E-03
            1329            1946     7.08926E-03     7.80990E-03
            1311            1946     7.08926E-03     7.80990E-03
            1310            1946     7.08926E-03     7.80990E-03
            1328            1946     7.08926E-03     7.80990E-03
            1330            1947     8.85660E-03     9.61278E-03
            1311            1947     8.85660E-03     9.61278E-03
            1312            1947     8.85660E-03     9.61278E-03
            1329            1947     8.85660E-03     9.61278E-03
            1330            1948     10.6460E-03     11.4201E-03
            1313            1948     10.6460E-03     11.4201E-03
            1331            1948     10.6460E-03     11.4201E-03
            1312            1948     10.6460E-03     11.4201E-03
            1331            1949     12.4485E-03     13.2378E-03
            1332            1949     12.4485E-03     13.2378E-03
            1313            1949     12.4485E-03     13.2378E-03
            1314            1949     12.4485E-03     13.2378E-03
            1332            1950     14.2670E-03     15.0664E-03
            1314            1950     14.2670E-03     15.0664E-03
            1333            1950     14.2670E-03     15.0664E-03
            1315            1950     14.2670E-03     15.0664E-03
            1316            1951     16.1028E-03     16.9151E-03
            1333            1951     16.1028E-03     16.9151E-03
            1315            1951     16.1028E-03     16.9151E-03
            1334            1951     16.1028E-03     16.9151E-03
            1317            1952     17.9721E-03     18.7942E-03
            1335            1952     17.9721E-03     18.7942E-03
            1316            1952     17.9721E-03     18.7942E-03
            1334            1952     17.9721E-03     18.7942E-03
            1317            1953     19.8885E-03     20.7274E-03
            1318            1953     19.8885E-03     20.7274E-03
            1335            1953     19.8885E-03     20.7274E-03
            1336            1953     19.8885E-03     20.7274E-03
            1337            1954     21.8941E-03     22.7392E-03
            1318            1954     21.8941E-03     22.7392E-03
            1319            1954     21.8941E-03     22.7392E-03
            1336            1954     21.8941E-03     22.7392E-03
            1319            1955     24.0470E-03     24.8937E-03
            1338            1955     24.0470E-03     24.8937E-03
            1337            1955     24.0470E-03     24.8937E-03
            1320            1955     24.0470E-03     24.8937E-03
            1338            1956     26.4147E-03     27.2378E-03
            1339            1956     26.4147E-03     27.2378E-03
            1321            1956     26.4147E-03     27.2378E-03
            1320            1956     26.4147E-03     27.2378E-03
            1339            1957     29.2555E-03     29.9344E-03
            1321            1957     29.2555E-03     29.9344E-03
            1340            1957     29.2555E-03     29.9344E-03
            1322            1957     29.2555E-03     29.9344E-03
            1323            1958     32.3385E-03     32.8980E-03
            1322            1958     32.3385E-03     32.8980E-03
            1340            1958     32.3385E-03     32.8980E-03
            1341            1958     32.3385E-03     32.8980E-03
            1323            1959     35.1937E-03     35.8236E-03
            1324            1959     35.1937E-03     35.8236E-03
            1341            1959     35.1937E-03     35.8236E-03
            1342            1959     35.1937E-03     35.8236E-03
            1326            1960     1.66717E-03     2.33104E-03
            1343            1960     1.66717E-03     2.33104E-03
            1344            1960     1.66717E-03     2.33104E-03
            1325            1960     1.66717E-03     2.33104E-03
            1344            1961     3.30377E-03     4.02231E-03
            1326            1961     3.30377E-03     4.02231E-03
            1327            1961     3.30377E-03     4.02231E-03
            1345            1961     3.30377E-03     4.02231E-03
            1345            1962     5.02750E-03     5.80643E-03
            1346            1962     5.02750E-03     5.80643E-03
            1328            1962     5.02750E-03     5.80643E-03
            1327            1962     5.02750E-03     5.80643E-03
            1328            1963     6.76557E-03     7.60841E-03
            1347            1963     6.76557E-03     7.60841E-03
            1346            1963     6.76557E-03     7.60841E-03
            1329            1963     6.76557E-03     7.60841E-03
            1329            1964     8.52136E-03     9.40074E-03
            1330            1964     8.52136E-03     9.40074E-03
            1347            1964     8.52136E-03     9.40074E-03
            1348            1964     8.52136E-03     9.40074E-03
            1349            1965     10.2842E-03     11.1889E-03
            1331            1965     10.2842E-03     11.1889E-03
            1330            1965     10.2842E-03     11.1889E-03
            1348            1965     10.2842E-03     11.1889E-03
            1331            1966     12.0570E-03     12.9733E-03
            1350            1966     12.0570E-03     12.9733E-03
            1349            1966     12.0570E-03     12.9733E-03
            1332            1966     12.0570E-03     12.9733E-03
            1351            1967     13.8378E-03     14.7597E-03
            1333            1967     13.8378E-03     14.7597E-03
            1332            1967     13.8378E-03     14.7597E-03
            1350            1967     13.8378E-03     14.7597E-03
            1352            1968     15.6381E-03     16.5574E-03
            1333            1968     15.6381E-03     16.5574E-03
            1334            1968     15.6381E-03     16.5574E-03
            1351            1968     15.6381E-03     16.5574E-03
            1353            1969     17.4628E-03     18.3790E-03
            1352            1969     17.4628E-03     18.3790E-03
            1334            1969     17.4628E-03     18.3790E-03
            1335            1969     17.4628E-03     18.3790E-03
            1335            1970     19.3459E-03     20.2507E-03
            1353            1970     19.3459E-03     20.2507E-03
            1336            1970     19.3459E-03     20.2507E-03
            1354            1970     19.3459E-03     20.2507E-03
            1355            1971     21.3094E-03     22.2092E-03
            1354            1971     21.3094E-03     22.2092E-03
            1336            1971     21.3094E-03     22.2092E-03
            1337            1971     21.3094E-03     22.2092E-03
            1355            1972     23.4425E-03     24.3211E-03
            1338            1972     23.4425E-03     24.3211E-03
            1356            1972     23.4425E-03     24.3211E-03
            1337            1972     23.4425E-03     24.3211E-03
            1338            1973     25.8293E-03     26.6964E-03
            1339            1973     25.8293E-03     26.6964E-03
            1356            1973     25.8293E-03     26.6964E-03
            1357            1973     25.8293E-03     26.6964E-03
            1357            1974     28.6764E-03     29.4880E-03
            1339            1974     28.6764E-03     29.4880E-03
            1358            1974     28.6764E-03     29.4880E-03
            1340            1974     28.6764E-03     29.4880E-03
            1359            1975     32.5622E-03     33.0958E-03
            1358            1975     32.5622E-03     33.0958E-03
            1340            1975     32.5622E-03     33.0958E-03
            1341            1975     32.5622E-03     33.0958E-03
            1359            1976     36.6808E-03     36.8283E-03
            1341            1976     36.6808E-03     36.8283E-03
            1342            1976     36.6808E-03     36.8283E-03
            1360            1976     36.6808E-03     36.8283E-03
            1362            1977     1.54384E-03     2.27091E-03
            1361            1977     1.54384E-03     2.27091E-03
            1344            1977     1.54384E-03     2.27091E-03
            1343            1977     1.54384E-03     2.27091E-03
            1362            1978     3.18211E-03     3.96099E-03
            1363            1978     3.18211E-03     3.96099E-03
            1344            1978     3.18211E-03     3.96099E-03
            1345            1978     3.18211E-03     3.96099E-03
            1364            1979     4.84003E-03     5.74401E-03
            1345            1979     4.84003E-03     5.74401E-03
            1346            1979     4.84003E-03     5.74401E-03
            1363            1979     4.84003E-03     5.74401E-03
            1364            1980     6.53521E-03     7.51363E-03
            1346            1980     6.53521E-03     7.51363E-03
            1347            1980     6.53521E-03     7.51363E-03
            1365            1980     6.53521E-03     7.51363E-03
            1366            1981     8.24193E-03     9.26858E-03
            1365            1981     8.24193E-03     9.26858E-03
            1348            1981     8.24193E-03     9.26858E-03
            1347            1981     8.24193E-03     9.26858E-03
            1348            1982     9.96036E-03     11.0119E-03
            1367            1982     9.96036E-03     11.0119E-03
            1349            1982     9.96036E-03     11.0119E-03
            1366            1982     9.96036E-03     11.0119E-03
            1368            1983     11.6843E-03     12.7446E-03
            1349            1983     11.6843E-03     12.7446E-03
            1367            1983     11.6843E-03     12.7446E-03
            1350            1983     11.6843E-03     12.7446E-03
            1368            1984     13.4199E-03     14.4741E-03
            1350            1984     13.4199E-03     14.4741E-03
            1369            1984     13.4199E-03     14.4741E-03
            1351            1984     13.4199E-03     14.4741E-03
            1352            1985     15.1681E-03     16.2047E-03
            1369            1985     15.1681E-03     16.2047E-03
            1370            1985     15.1681E-03     16.2047E-03
            1351            1985     15.1681E-03     16.2047E-03
            1371            1986     16.9481E-03     17.9555E-03
            1352            1986     16.9481E-03     17.9555E-03
            1370            1986     16.9481E-03     17.9555E-03
            1353            1986     16.9481E-03     17.9555E-03
            1353            1987     18.7706E-03     19.7402E-03
            1371            1987     18.7706E-03     19.7402E-03
            1354            1987     18.7706E-03     19.7402E-03
            1372            1987     18.7706E-03     19.7402E-03
            1354            1988     20.6886E-03     21.6123E-03
            1372            1988     20.6886E-03     21.6123E-03
            1373            1988     20.6886E-03     21.6123E-03
            1355            1988     20.6886E-03     21.6123E-03
            1355            1989     22.7314E-03     23.6119E-03
            1356            1989     22.7314E-03     23.6119E-03
            1373            1989     22.7314E-03     23.6119E-03
            1374            1989     22.7314E-03     23.6119E-03
            1375            1990     25.0536E-03     25.8964E-03
            1356            1990     25.0536E-03     25.8964E-03
            1374            1990     25.0536E-03     25.8964E-03
            1357            1990     25.0536E-03     25.8964E-03
            1376            1991     27.7302E-03     28.5814E-03
            1358            1991     27.7302E-03     28.5814E-03
            1357            1991     27.7302E-03     28.5814E-03
            1375            1991     27.7302E-03     28.5814E-03
            1358            1992     31.3760E-03     32.2814E-03
            1377            1992     31.3760E-03     32.2814E-03
            1376            1992     31.3760E-03     32.2814E-03
            1359            1992     31.3760E-03     32.2814E-03
            1359            1993     36.8672E-03     37.5429E-03
            1360            1993     36.8672E-03     37.5429E-03
            1377            1993     36.8672E-03     37.5429E-03
            1378            1993     36.8672E-03     37.5429E-03
            1380            1994     5.84567E-03     6.72947E-03
            1362            1994     5.84567E-03     6.72947E-03
            1361            1994     5.84567E-03     6.72947E-03
            1379            1994     5.84567E-03     6.72947E-03
            1363            1995     7.30288E-03     7.73210E-03
            1362            1995     7.30288E-03     7.73210E-03
            1380            1995     7.30288E-03     7.73210E-03
            1381            1995     7.30288E-03     7.73210E-03
            1364            1996     8.75066E-03     9.17086E-03
            1381            1996     8.75066E-03     9.17086E-03
            1363            1996     8.75066E-03     9.17086E-03
            1382            1996     8.75066E-03     9.17086E-03
            1365            1997     10.3371E-03     10.8189E-03
            1383            1997     10.3371E-03     10.8189E-03
            1364            1997     10.3371E-03     10.8189E-03
            1382            1997     10.3371E-03     10.8189E-03
            1366            1998     12.0311E-03     12.5532E-03
            1384            1998     12.0311E-03     12.5532E-03
            1383            1998     12.0311E-03     12.5532E-03
            1365            1998     12.0311E-03     12.5532E-03
            1366            1999     13.7961E-03     14.3442E-03
            1385            1999     13.7961E-03     14.3442E-03
            1384            1999     13.7961E-03     14.3442E-03
            1367            1999     13.7961E-03     14.3442E-03
            1367            2000     15.6131E-03     16.1627E-03
            1386            2000     15.6131E-03     16.1627E-03
            1385            2000     15.6131E-03     16.1627E-03
            1368            2000     15.6131E-03     16.1627E-03
            1387            2001     17.4550E-03     17.9906E-03
            1369            2001     17.4550E-03     17.9906E-03
            1386            2001     17.4550E-03     17.9906E-03
            1368            2001     17.4550E-03     17.9906E-03
            1388            2002     19.3171E-03     19.8145E-03
            1370            2002     19.3171E-03     19.8145E-03
            1369            2002     19.3171E-03     19.8145E-03
            1387            2002     19.3171E-03     19.8145E-03
            1389            2003     21.1806E-03     21.6296E-03
            1388            2003     21.1806E-03     21.6296E-03
            1370            2003     21.1806E-03     21.6296E-03
            1371            2003     21.1806E-03     21.6296E-03
            1372            2004     23.0565E-03     23.4242E-03
            1390            2004     23.0565E-03     23.4242E-03
            1371            2004     23.0565E-03     23.4242E-03
            1389            2004     23.0565E-03     23.4242E-03
            1391            2005     24.9287E-03     25.2141E-03
            1373            2005     24.9287E-03     25.2141E-03
            1372            2005     24.9287E-03     25.2141E-03
            1390            2005     24.9287E-03     25.2141E-03
            1391            2006     26.8387E-03     26.9988E-03
            1392            2006     26.8387E-03     26.9988E-03
            1373            2006     26.8387E-03     26.9988E-03
            1374            2006     26.8387E-03     26.9988E-03
            1392            2007     28.7678E-03     28.8328E-03
            1393            2007     28.7678E-03     28.8328E-03
            1374            2007     28.7678E-03     28.8328E-03
            1375            2007     28.7678E-03     28.8328E-03
            1375            2008     30.8501E-03     30.8031E-03
            1393            2008     30.8501E-03     30.8031E-03
            1376            2008     30.8501E-03     30.8031E-03
            1394            2008     30.8501E-03     30.8031E-03
            1376            2009     33.0529E-03     33.0430E-03
            1377            2009     33.0529E-03     33.0430E-03
            1395            2009     33.0529E-03     33.0430E-03
            1394            2009     33.0529E-03     33.0430E-03
            1395            2010     36.1829E-03     36.8153E-03
            1396            2010     36.1829E-03     36.8153E-03
            1377            2010     36.1829E-03     36.8153E-03
            1378            2010     36.1829E-03     36.8153E-03
            1398            2011     9.46609E-03     10.6633E-03
            1380            2011     9.46609E-03     10.6633E-03
            1379            2011     9.46609E-03     10.6633E-03
            1397            2011     9.46609E-03     10.6633E-03
            1380            2012     10.5995E-03     11.0624E-03
            1399            2012     10.5995E-03     11.0624E-03
            1398            2012     10.5995E-03     11.0624E-03
            1381            2012     10.5995E-03     11.0624E-03
            1382            2013     12.0928E-03     12.1915E-03
            1381            2013     12.0928E-03     12.1915E-03
            1399            2013     12.0928E-03     12.1915E-03
            1400            2013     12.0928E-03     12.1915E-03
            1400            2014     13.7759E-03     13.8018E-03
            1382            2014     13.7759E-03     13.8018E-03
            1401            2014     13.7759E-03     13.8018E-03
            1383            2014     13.7759E-03     13.8018E-03
            1384            2015     15.6193E-03     15.6393E-03
            1383            2015     15.6193E-03     15.6393E-03
            1401            2015     15.6193E-03     15.6393E-03
            1402            2015     15.6193E-03     15.6393E-03
            1402            2016     17.5925E-03     17.6137E-03
            1385            2016     17.5925E-03     17.6137E-03
            1403            2016     17.5925E-03     17.6137E-03
            1384            2016     17.5925E-03     17.6137E-03
            1403            2017     19.6411E-03     19.6612E-03
            1385            2017     19.6411E-03     19.6612E-03
            1386            2017     19.6411E-03     19.6612E-03
            1404            2017     19.6411E-03     19.6612E-03
            1386            2018     21.7410E-03     21.7419E-03
            1404            2018     21.7410E-03     21.7419E-03
            1387            2018     21.7410E-03     21.7419E-03
            1405            2018     21.7410E-03     21.7419E-03
            1405            2019     23.8550E-03     23.8272E-03
            1406            2019     23.8550E-03     23.8272E-03
            1387            2019     23.8550E-03     23.8272E-03
            1388            2019     23.8550E-03     23.8272E-03
            1406            2020     25.9657E-03     25.8882E-03
            1407            2020     25.9657E-03     25.8882E-03
            1389            2020     25.9657E-03     25.8882E-03
            1388            2020     25.9657E-03     25.8882E-03
            1407            2021     28.0401E-03     27.9016E-03
            1389            2021     28.0401E-03     27.9016E-03
            1390            2021     28.0401E-03     27.9016E-03
            1408            2021     28.0401E-03     27.9016E-03
            1390            2022     30.0576E-03     29.8391E-03
            1408            2022     30.0576E-03     29.8391E-03
            1391            2022     30.0576E-03     29.8391E-03
            1409            2022     30.0576E-03     29.8391E-03
            1392            2023     31.9779E-03     31.6692E-03
            1409            2023     31.9779E-03     31.6692E-03
            1410            2023     31.9779E-03     31.6692E-03
            1391            2023     31.9779E-03     31.6692E-03
            1411            2024     33.7702E-03     33.3712E-03
            1410            2024     33.7702E-03     33.3712E-03
            1393            2024     33.7702E-03     33.3712E-03
            1392            2024     33.7702E-03     33.3712E-03
            1394            2025     35.3582E-03     34.8860E-03
            1412            2025     35.3582E-03     34.8860E-03
            1393            2025     35.3582E-03     34.8860E-03
            1411            2025     35.3582E-03     34.8860E-03
            1394            2026     36.6910E-03     36.2246E-03
            1395            2026     36.6910E-03     36.2246E-03
            1412            2026     36.6910E-03     36.2246E-03
            1413            2026     36.6910E-03     36.2246E-03
            1395            2027     37.6442E-03     37.0535E-03
            1413            2027     37.6442E-03     37.0535E-03
            1396            2027     37.6442E-03     37.0535E-03
            1414            2027     37.6442E-03     37.0535E-03
            1397            2028     8.40118E-03     9.13076E-03
            1416            2028     8.40118E-03     9.13076E-03
            1398            2028     8.40118E-03     9.13076E-03
            1415            2028     8.40118E-03     9.13076E-03
            1417            2029     9.29698E-03     10.1636E-03
            1416            2029     9.29698E-03     10.1636E-03
            1398            2029     9.29698E-03     10.1636E-03
            1399            2029     9.29698E-03     10.1636E-03
            1400            2030     10.9845E-03     11.4617E-03
            1417            2030     10.9845E-03     11.4617E-03
            1399            2030     10.9845E-03     11.4617E-03
            1418            2030     10.9845E-03     11.4617E-03
            1418            2031     12.9540E-03     13.2229E-03
            1419            2031     12.9540E-03     13.2229E-03
            1400            2031     12.9540E-03     13.2229E-03
            1401            2031     12.9540E-03     13.2229E-03
            1419            2032     15.0577E-03     15.2529E-03
            1401            2032     15.0577E-03     15.2529E-03
            1402            2032     15.0577E-03     15.2529E-03
            1420            2032     15.0577E-03     15.2529E-03
            1420            2033     17.2638E-03     17.4275E-03
            1402            2033     17.2638E-03     17.4275E-03
            1421            2033     17.2638E-03     17.4275E-03
            1403            2033     17.2638E-03     17.4275E-03
            1404            2034     19.5371E-03     19.6878E-03
            1422            2034     19.5371E-03     19.6878E-03
            1403            2034     19.5371E-03     19.6878E-03
            1421            2034     19.5371E-03     19.6878E-03
            1404            2035     21.8519E-03     21.9943E-03
            1422            2035     21.8519E-03     21.9943E-03
            1405            2035     21.8519E-03     21.9943E-03
            1423            2035     21.8519E-03     21.9943E-03
            1423            2036     24.1917E-03     24.3214E-03
            1406            2036     24.1917E-03     24.3214E-03
            1424            2036     24.1917E-03     24.3214E-03
            1405            2036     24.1917E-03     24.3214E-03
            1425            2037     26.5295E-03     26.6500E-03
            1424            2037     26.5295E-03     26.6500E-03
            1406            2037     26.5295E-03     26.6500E-03
            1407            2037     26.5295E-03     26.6500E-03
            1426            2038     28.8500E-03     28.9555E-03
            1425            2038     28.8500E-03     28.9555E-03
            1407            2038     28.8500E-03     28.9555E-03
            1408            2038     28.8500E-03     28.9555E-03
            1408            2039     31.1143E-03     31.2185E-03
            1409            2039     31.1143E-03     31.2185E-03
            1427            2039     31.1143E-03     31.2185E-03
            1426            2039     31.1143E-03     31.2185E-03
            1409            2040     33.2905E-03     33.4025E-03
            1428            2040     33.2905E-03     33.4025E-03
            1410            2040     33.2905E-03     33.4025E-03
            1427            2040     33.2905E-03     33.4025E-03
            1428            2041     35.3213E-03     35.4745E-03
            1429            2041     35.3213E-03     35.4745E-03
            1410            2041     35.3213E-03     35.4745E-03
            1411            2041     35.3213E-03     35.4745E-03
            1429            2042     37.1313E-03     37.3757E-03
            1411            2042     37.1313E-03     37.3757E-03
            1412            2042     37.1313E-03     37.3757E-03
            1430            2042     37.1313E-03     37.3757E-03
            1412            2043     38.7029E-03     39.0005E-03
            1430            2043     38.7029E-03     39.0005E-03
            1413            2043     38.7029E-03     39.0005E-03
            1431            2043     38.7029E-03     39.0005E-03
            1413            2044     39.9924E-03     40.1724E-03
            1414            2044     39.9924E-03     40.1724E-03
            1431            2044     39.9924E-03     40.1724E-03
            1432            2044     39.9924E-03     40.1724E-03
            1416            2045     7.23221E-03     7.56769E-03
            1415            2045     7.23221E-03     7.56769E-03
            1433            2045     7.23221E-03     7.56769E-03
            1434            2045     7.23221E-03     7.56769E-03
            1416            2046     8.36200E-03     9.06196E-03
            1434            2046     8.36200E-03     9.06196E-03
            1417            2046     8.36200E-03     9.06196E-03
            1435            2046     8.36200E-03     9.06196E-03
            1435            2047     10.1221E-03     10.8086E-03
            1417            2047     10.1221E-03     10.8086E-03
            1418            2047     10.1221E-03     10.8086E-03
            1436            2047     10.1221E-03     10.8086E-03
            1419            2048     12.2914E-03     12.7833E-03
            1436            2048     12.2914E-03     12.7833E-03
            1437            2048     12.2914E-03     12.7833E-03
            1418            2048     12.2914E-03     12.7833E-03
            1438            2049     14.6109E-03     15.0001E-03
            1437            2049     14.6109E-03     15.0001E-03
            1420            2049     14.6109E-03     15.0001E-03
            1419            2049     14.6109E-03     15.0001E-03
            1420            2050     17.0124E-03     17.3493E-03
            1439            2050     17.0124E-03     17.3493E-03
            1421            2050     17.0124E-03     17.3493E-03
            1438            2050     17.0124E-03     17.3493E-03
            1421            2051     19.4692E-03     19.7851E-03
            1439            2051     19.4692E-03     19.7851E-03
            1422            2051     19.4692E-03     19.7851E-03
            1440            2051     19.4692E-03     19.7851E-03
            1422            2052     21.9634E-03     22.2739E-03
            1440            2052     21.9634E-03     22.2739E-03
            1441            2052     21.9634E-03     22.2739E-03
            1423            2052     21.9634E-03     22.2739E-03
            1423            2053     24.4786E-03     24.7972E-03
            1424            2053     24.4786E-03     24.7972E-03
            1441            2053     24.4786E-03     24.7972E-03
            1442            2053     24.4786E-03     24.7972E-03
            1424            2054     27.0053E-03     27.3369E-03
            1443            2054     27.0053E-03     27.3369E-03
            1425            2054     27.0053E-03     27.3369E-03
            1442            2054     27.0053E-03     27.3369E-03
            1426            2055     29.5155E-03     29.8788E-03
            1443            2055     29.5155E-03     29.8788E-03
            1425            2055     29.5155E-03     29.8788E-03
            1444            2055     29.5155E-03     29.8788E-03
            1445            2056     31.9878E-03     32.3921E-03
            1444            2056     31.9878E-03     32.3921E-03
            1426            2056     31.9878E-03     32.3921E-03
            1427            2056     31.9878E-03     32.3921E-03
            1446            2057     34.3768E-03     34.8472E-03
            1427            2057     34.3768E-03     34.8472E-03
            1428            2057     34.3768E-03     34.8472E-03
            1445            2057     34.3768E-03     34.8472E-03
            1447            2058     36.6120E-03     37.1802E-03
            1428            2058     36.6120E-03     37.1802E-03
            1429            2058     36.6120E-03     37.1802E-03
            1446            2058     36.6120E-03     37.1802E-03
            1429            2059     38.6729E-03     39.3044E-03
            1447            2059     38.6729E-03     39.3044E-03
            1448            2059     38.6729E-03     39.3044E-03
            1430            2059     38.6729E-03     39.3044E-03
            1430            2060     40.4332E-03     41.1051E-03
            1449            2060     40.4332E-03     41.1051E-03
            1448            2060     40.4332E-03     41.1051E-03
            1431            2060     40.4332E-03     41.1051E-03
            1432            2061     42.0407E-03     42.5765E-03
            1449            2061     42.0407E-03     42.5765E-03
            1450            2061     42.0407E-03     42.5765E-03
            1431            2061     42.0407E-03     42.5765E-03
            1451            2062     6.10460E-03     6.46848E-03
            1434            2062     6.10460E-03     6.46848E-03
            1452            2062     6.10460E-03     6.46848E-03
            1433            2062     6.10460E-03     6.46848E-03
            1452            2063     7.46287E-03     8.08275E-03
            1434            2063     7.46287E-03     8.08275E-03
            1435            2063     7.46287E-03     8.08275E-03
            1453            2063     7.46287E-03     8.08275E-03
            1453            2064     9.44723E-03     10.1675E-03
            1454            2064     9.44723E-03     10.1675E-03
            1435            2064     9.44723E-03     10.1675E-03
            1436            2064     9.44723E-03     10.1675E-03
            1437            2065     11.7534E-03     12.4143E-03
            1454            2065     11.7534E-03     12.4143E-03
            1436            2065     11.7534E-03     12.4143E-03
            1455            2065     11.7534E-03     12.4143E-03
            1437            2066     14.2319E-03     14.7938E-03
            1455            2066     14.2319E-03     14.7938E-03
            1456            2066     14.2319E-03     14.7938E-03
            1438            2066     14.2319E-03     14.7938E-03
            1438            2067     16.7783E-03     17.2902E-03
            1439            2067     16.7783E-03     17.2902E-03
            1456            2067     16.7783E-03     17.2902E-03
            1457            2067     16.7783E-03     17.2902E-03
            1439            2068     19.3703E-03     19.8571E-03
            1440            2068     19.3703E-03     19.8571E-03
            1458            2068     19.3703E-03     19.8571E-03
            1457            2068     19.3703E-03     19.8571E-03
            1459            2069     21.9924E-03     22.4801E-03
            1441            2069     21.9924E-03     22.4801E-03
            1458            2069     21.9924E-03     22.4801E-03
            1440            2069     21.9924E-03     22.4801E-03
            1460            2070     24.6396E-03     25.1435E-03
            1441            2070     24.6396E-03     25.1435E-03
            1459            2070     24.6396E-03     25.1435E-03
            1442            2070     24.6396E-03     25.1435E-03
            1442            2071     27.2976E-03     27.8376E-03
            1443            2071     27.2976E-03     27.8376E-03
            1461            2071     27.2976E-03     27.8376E-03
            1460            2071     27.2976E-03     27.8376E-03
            1461            2072     29.9612E-03     30.5474E-03
            1444            2072     29.9612E-03     30.5474E-03
            1462            2072     29.9612E-03     30.5474E-03
            1443            2072     29.9612E-03     30.5474E-03
            1444            2073     32.5980E-03     33.2532E-03
            1445            2073     32.5980E-03     33.2532E-03
            1463            2073     32.5980E-03     33.2532E-03
            1462            2073     32.5980E-03     33.2532E-03
            1464            2074     35.1712E-03     35.9068E-03
            1445            2074     35.1712E-03     35.9068E-03
            1446            2074     35.1712E-03     35.9068E-03
            1463            2074     35.1712E-03     35.9068E-03
            1447            2075     37.6399E-03     38.4405E-03
            1446            2075     37.6399E-03     38.4405E-03
            1464            2075     37.6399E-03     38.4405E-03
            1465            2075     37.6399E-03     38.4405E-03
            1448            2076     39.8987E-03     40.7557E-03
            1465            2076     39.8987E-03     40.7557E-03
            1447            2076     39.8987E-03     40.7557E-03
            1466            2076     39.8987E-03     40.7557E-03
            1467            2077     41.9711E-03     42.7439E-03
            1448            2077     41.9711E-03     42.7439E-03
            1449            2077     41.9711E-03     42.7439E-03
            1466            2077     41.9711E-03     42.7439E-03
            1468            2078     43.8932E-03     44.3964E-03
            1450            2078     43.8932E-03     44.3964E-03
            1449            2078     43.8932E-03     44.3964E-03
            1467            2078     43.8932E-03     44.3964E-03
            1451            2079     5.06306E-03     5.39053E-03
            1470            2079     5.06306E-03     5.39053E-03
            1452            2079     5.06306E-03     5.39053E-03
            1469            2079     5.06306E-03     5.39053E-03
            1470            2080     6.64376E-03     7.33728E-03
            1471            2080     6.64376E-03     7.33728E-03
            1452            2080     6.64376E-03     7.33728E-03
            1453            2080     6.64376E-03     7.33728E-03
            1454            2081     8.84118E-03     9.60812E-03
            1453            2081     8.84118E-03     9.60812E-03
            1472            2081     8.84118E-03     9.60812E-03
            1471            2081     8.84118E-03     9.60812E-03
            1472            2082     11.3012E-03     12.0584E-03
            1455            2082     11.3012E-03     12.0584E-03
            1454            2082     11.3012E-03     12.0584E-03
            1473            2082     11.3012E-03     12.0584E-03
            1455            2083     13.8783E-03     14.5876E-03
            1456            2083     13.8783E-03     14.5876E-03
            1474            2083     13.8783E-03     14.5876E-03
            1473            2083     13.8783E-03     14.5876E-03
            1474            2084     16.5214E-03     17.1846E-03
            1456            2084     16.5214E-03     17.1846E-03
            1457            2084     16.5214E-03     17.1846E-03
            1475            2084     16.5214E-03     17.1846E-03
            1458            2085     19.1965E-03     19.8431E-03
            1457            2085     19.1965E-03     19.8431E-03
            1476            2085     19.1965E-03     19.8431E-03
            1475            2085     19.1965E-03     19.8431E-03
            1459            2086     21.8991E-03     22.5496E-03
            1477            2086     21.8991E-03     22.5496E-03
            1476            2086     21.8991E-03     22.5496E-03
            1458            2086     21.8991E-03     22.5496E-03
            1460            2087     24.6235E-03     25.2988E-03
            1477            2087     24.6235E-03     25.2988E-03
            1459            2087     24.6235E-03     25.2988E-03
            1478            2087     24.6235E-03     25.2988E-03
            1479            2088     27.3726E-03     28.0880E-03
            1478            2088     27.3726E-03     28.0880E-03
            1460            2088     27.3726E-03     28.0880E-03
            1461            2088     27.3726E-03     28.0880E-03
            1479            2089     30.1344E-03     30.9084E-03
            1480            2089     30.1344E-03     30.9084E-03
            1461            2089     30.1344E-03     30.9084E-03
            1462            2089     30.1344E-03     30.9084E-03
            1481            2090     32.9113E-03     33.7476E-03
            1462            2090     32.9113E-03     33.7476E-03
            1480            2090     32.9113E-03     33.7476E-03
            1463            2090     32.9113E-03     33.7476E-03
            1481            2091     35.6652E-03     36.5705E-03
            1463            2091     35.6652E-03     36.5705E-03
            1482            2091     35.6652E-03     36.5705E-03
            1464            2091     35.6652E-03     36.5705E-03
            1482            2092     38.3499E-03     39.3019E-03
            1464            2092     38.3499E-03     39.3019E-03
            1483            2092     38.3499E-03     39.3019E-03
            1465            2092     38.3499E-03     39.3019E-03
            1465            2093     40.9186E-03     41.8391E-03
            1483            2093     40.9186E-03     41.8391E-03
            1466            2093     40.9186E-03     41.8391E-03
            1484            2093     40.9186E-03     41.8391E-03
            1467            2094     43.2920E-03     44.1005E-03
            1484            2094     43.2920E-03     44.1005E-03
            1485            2094     43.2920E-03     44.1005E-03
            1466            2094     43.2920E-03     44.1005E-03
            1485            2095     45.5364E-03     46.1009E-03
            1467            2095     45.5364E-03     46.1009E-03
            1468            2095     45.5364E-03     46.1009E-03
            1486            2095     45.5364E-03     46.1009E-03
            1487            2096     4.03360E-03     4.49834E-03
            1488            2096     4.03360E-03     4.49834E-03
            1469            2096     4.03360E-03     4.49834E-03
            1470            2096     4.03360E-03     4.49834E-03
            1488            2097     5.91447E-03     6.68245E-03
            1470            2097     5.91447E-03     6.68245E-03
            1489            2097     5.91447E-03     6.68245E-03
            1471            2097     5.91447E-03     6.68245E-03
            1489            2098     8.30927E-03     9.16031E-03
            1471            2098     8.30927E-03     9.16031E-03
            1490            2098     8.30927E-03     9.16031E-03
            1472            2098     8.30927E-03     9.16031E-03
            1490            2099     10.8815E-03     11.7252E-03
            1473            2099     10.8815E-03     11.7252E-03
            1472            2099     10.8815E-03     11.7252E-03
            1491            2099     10.8815E-03     11.7252E-03
            1473            2100     13.5310E-03     14.3478E-03
            1474            2100     13.5310E-03     14.3478E-03
            1491            2100     13.5310E-03     14.3478E-03
            1492            2100     13.5310E-03     14.3478E-03
            1475            2101     16.2188E-03     17.0106E-03
            1492            2101     16.2188E-03     17.0106E-03
            1493            2101     16.2188E-03     17.0106E-03
            1474            2101     16.2188E-03     17.0106E-03
            1476            2102     18.9316E-03     19.7152E-03
            1494            2102     18.9316E-03     19.7152E-03
            1493            2102     18.9316E-03     19.7152E-03
            1475            2102     18.9316E-03     19.7152E-03
            1494            2103     21.6654E-03     22.4580E-03
            1476            2103     21.6654E-03     22.4580E-03
            1495            2103     21.6654E-03     22.4580E-03
            1477            2103     21.6654E-03     22.4580E-03
            1496            2104     24.4233E-03     25.2425E-03
            1478            2104     24.4233E-03     25.2425E-03
            1495            2104     24.4233E-03     25.2425E-03
            1477            2104     24.4233E-03     25.2425E-03
            1497            2105     27.2086E-03     28.0681E-03
            1496            2105     27.2086E-03     28.0681E-03
            1479            2105     27.2086E-03     28.0681E-03
            1478            2105     27.2086E-03     28.0681E-03
            1498            2106     30.0342E-03     30.9452E-03
            1479            2106     30.0342E-03     30.9452E-03
            1480            2106     30.0342E-03     30.9452E-03
            1497            2106     30.0342E-03     30.9452E-03
            1499            2107     32.8953E-03     33.8650E-03
            1480            2107     32.8953E-03     33.8650E-03
            1498            2107     32.8953E-03     33.8650E-03
            1481            2107     32.8953E-03     33.8650E-03
            1499            2108     35.8249E-03     36.8275E-03
            1481            2108     35.8249E-03     36.8275E-03
            1482            2108     35.8249E-03     36.8275E-03
            1500            2108     35.8249E-03     36.8275E-03
            1483            2109     38.7639E-03     39.7896E-03
            1482            2109     38.7639E-03     39.7896E-03
            1501            2109     38.7639E-03     39.7896E-03
            1500            2109     38.7639E-03     39.7896E-03
            1502            2110     41.6642E-03     42.6411E-03
            1501            2110     41.6642E-03     42.6411E-03
            1483            2110     41.6642E-03     42.6411E-03
            1484            2110     41.6642E-03     42.6411E-03
            1485            2111     44.4626E-03     45.2678E-03
            1503            2111     44.4626E-03     45.2678E-03
            1502            2111     44.4626E-03     45.2678E-03
            1484            2111     44.4626E-03     45.2678E-03
            1485            2112     47.0314E-03     47.6754E-03
            1503            2112     47.0314E-03     47.6754E-03
            1486            2112     47.0314E-03     47.6754E-03
            1504            2112     47.0314E-03     47.6754E-03
            1506            2113     3.10165E-03     3.74275E-03
            1487            2113     3.10165E-03     3.74275E-03
            1505            2113     3.10165E-03     3.74275E-03
            1488            2113     3.10165E-03     3.74275E-03
            1489            2114     5.30420E-03     6.19883E-03
            1506            2114     5.30420E-03     6.19883E-03
            1507            2114     5.30420E-03     6.19883E-03
            1488            2114     5.30420E-03     6.19883E-03
            1507            2115     7.85650E-03     8.79734E-03
            1490            2115     7.85650E-03     8.79734E-03
            1508            2115     7.85650E-03     8.79734E-03
            1489            2115     7.85650E-03     8.79734E-03
            1490            2116     10.5014E-03     11.4258E-03
            1508            2116     10.5014E-03     11.4258E-03
            1509            2116     10.5014E-03     11.4258E-03
            1491            2116     10.5014E-03     11.4258E-03
            1491            2117     13.1799E-03     14.0837E-03
            1509            2117     13.1799E-03     14.0837E-03
            1510            2117     13.1799E-03     14.0837E-03
            1492            2117     13.1799E-03     14.0837E-03
            1492            2118     15.8715E-03     16.7722E-03
            1493            2118     15.8715E-03     16.7722E-03
            1511            2118     15.8715E-03     16.7722E-03
            1510            2118     15.8715E-03     16.7722E-03
            1512            2119     18.5791E-03     19.4799E-03
            1494            2119     18.5791E-03     19.4799E-03
            1511            2119     18.5791E-03     19.4799E-03
            1493            2119     18.5791E-03     19.4799E-03
            1513            2120     21.3022E-03     22.2165E-03
            1495            2120     21.3022E-03     22.2165E-03
            1512            2120     21.3022E-03     22.2165E-03
            1494            2120     21.3022E-03     22.2165E-03
            1513            2121     24.0489E-03     24.9843E-03
            1514            2121     24.0489E-03     24.9843E-03
            1496            2121     24.0489E-03     24.9843E-03
            1495            2121     24.0489E-03     24.9843E-03
            1497            2122     26.8281E-03     27.7986E-03
            1514            2122     26.8281E-03     27.7986E-03
            1515            2122     26.8281E-03     27.7986E-03
            1496            2122     26.8281E-03     27.7986E-03
            1497            2123     29.6579E-03     30.6662E-03
            1516            2123     29.6579E-03     30.6662E-03
            1515            2123     29.6579E-03     30.6662E-03
            1498            2123     29.6579E-03     30.6662E-03
            1499            2124     32.5718E-03     33.6199E-03
            1517            2124     32.5718E-03     33.6199E-03
            1498            2124     32.5718E-03     33.6199E-03
            1516            2124     32.5718E-03     33.6199E-03
            1499            2125     35.5828E-03     36.6634E-03
            1500            2125     35.5828E-03     36.6634E-03
            1517            2125     35.5828E-03     36.6634E-03
            1518            2125     35.5828E-03     36.6634E-03
            1501            2126     38.8082E-03     39.8420E-03
            1500            2126     38.8082E-03     39.8420E-03
            1519            2126     38.8082E-03     39.8420E-03
            1518            2126     38.8082E-03     39.8420E-03
            1519            2127     42.1265E-03     43.1155E-03
            1501            2127     42.1265E-03     43.1155E-03
            1502            2127     42.1265E-03     43.1155E-03
            1520            2127     42.1265E-03     43.1155E-03
            1520            2128     45.3837E-03     46.2893E-03
            1502            2128     45.3837E-03     46.2893E-03
            1503            2128     45.3837E-03     46.2893E-03
            1521            2128     45.3837E-03     46.2893E-03
            1504            2129     48.5112E-03     49.0919E-03
            1521            2129     48.5112E-03     49.0919E-03
            1503            2129     48.5112E-03     49.0919E-03
            1522            2129     48.5112E-03     49.0919E-03
            1505            2130     2.39234E-03     3.31482E-03
            1524            2130     2.39234E-03     3.31482E-03
            1506            2130     2.39234E-03     3.31482E-03
            1523            2130     2.39234E-03     3.31482E-03
            1507            2131     4.88014E-03     5.94727E-03
            1524            2131     4.88014E-03     5.94727E-03
            1506            2131     4.88014E-03     5.94727E-03
            1525            2131     4.88014E-03     5.94727E-03
            1507            2132     7.53086E-03     8.53708E-03
            1508            2132     7.53086E-03     8.53708E-03
            1525            2132     7.53086E-03     8.53708E-03
            1526            2132     7.53086E-03     8.53708E-03
            1509            2133     10.1901E-03     11.1718E-03
            1508            2133     10.1901E-03     11.1718E-03
            1527            2133     10.1901E-03     11.1718E-03
            1526            2133     10.1901E-03     11.1718E-03
            1528            2134     12.8397E-03     13.8345E-03
            1527            2134     12.8397E-03     13.8345E-03
            1509            2134     12.8397E-03     13.8345E-03
            1510            2134     12.8397E-03     13.8345E-03
            1529            2135     15.4983E-03     16.4983E-03
            1528            2135     15.4983E-03     16.4983E-03
            1510            2135     15.4983E-03     16.4983E-03
            1511            2135     15.4983E-03     16.4983E-03
            1511            2136     18.1624E-03     19.1740E-03
            1530            2136     18.1624E-03     19.1740E-03
            1529            2136     18.1624E-03     19.1740E-03
            1512            2136     18.1624E-03     19.1740E-03
            1513            2137     20.8409E-03     21.8612E-03
            1531            2137     20.8409E-03     21.8612E-03
            1530            2137     20.8409E-03     21.8612E-03
            1512            2137     20.8409E-03     21.8612E-03
            1513            2138     23.5366E-03     24.5725E-03
            1532            2138     23.5366E-03     24.5725E-03
            1531            2138     23.5366E-03     24.5725E-03
            1514            2138     23.5366E-03     24.5725E-03
            1515            2139     26.2703E-03     27.3194E-03
            1533            2139     26.2703E-03     27.3194E-03
            1532            2139     26.2703E-03     27.3194E-03
            1514            2139     26.2703E-03     27.3194E-03
            1534            2140     29.0569E-03     30.1308E-03
            1515            2140     29.0569E-03     30.1308E-03
            1533            2140     29.0569E-03     30.1308E-03
            1516            2140     29.0569E-03     30.1308E-03
            1534            2141     31.9440E-03     33.0324E-03
            1535            2141     31.9440E-03     33.0324E-03
            1517            2141     31.9440E-03     33.0324E-03
            1516            2141     31.9440E-03     33.0324E-03
            1536            2142     34.9972E-03     36.0979E-03
            1518            2142     34.9972E-03     36.0979E-03
            1535            2142     34.9972E-03     36.0979E-03
            1517            2142     34.9972E-03     36.0979E-03
            1536            2143     38.2824E-03     39.3723E-03
            1518            2143     38.2824E-03     39.3723E-03
            1519            2143     38.2824E-03     39.3723E-03
            1537            2143     38.2824E-03     39.3723E-03
            1519            2144     42.1000E-03     43.0283E-03
            1520            2144     42.1000E-03     43.0283E-03
            1537            2144     42.1000E-03     43.0283E-03
            1538            2144     42.1000E-03     43.0283E-03
            1538            2145     46.1265E-03     46.9204E-03
            1520            2145     46.1265E-03     46.9204E-03
            1521            2145     46.1265E-03     46.9204E-03
            1539            2145     46.1265E-03     46.9204E-03
            1540            2146     49.7528E-03     50.6128E-03
            1521            2146     49.7528E-03     50.6128E-03
            1539            2146     49.7528E-03     50.6128E-03
            1522            2146     49.7528E-03     50.6128E-03
            1542            2147     2.36964E-03     3.55513E-03
            1523            2147     2.36964E-03     3.55513E-03
            1524            2147     2.36964E-03     3.55513E-03
            1541            2147     2.36964E-03     3.55513E-03
            1542            2148     4.81769E-03     5.90103E-03
            1543            2148     4.81769E-03     5.90103E-03
            1524            2148     4.81769E-03     5.90103E-03
            1525            2148     4.81769E-03     5.90103E-03
            1526            2149     7.41073E-03     8.42349E-03
            1544            2149     7.41073E-03     8.42349E-03
            1525            2149     7.41073E-03     8.42349E-03
            1543            2149     7.41073E-03     8.42349E-03
            1544            2150     9.97616E-03     11.0319E-03
            1527            2150     9.97616E-03     11.0319E-03
            1526            2150     9.97616E-03     11.0319E-03
            1545            2150     9.97616E-03     11.0319E-03
            1545            2151     12.5526E-03     13.6403E-03
            1546            2151     12.5526E-03     13.6403E-03
            1528            2151     12.5526E-03     13.6403E-03
            1527            2151     12.5526E-03     13.6403E-03
            1528            2152     15.1340E-03     16.2482E-03
            1546            2152     15.1340E-03     16.2482E-03
            1547            2152     15.1340E-03     16.2482E-03
            1529            2152     15.1340E-03     16.2482E-03
            1530            2153     17.7258E-03     18.8516E-03
            1547            2153     17.7258E-03     18.8516E-03
            1548            2153     17.7258E-03     18.8516E-03
            1529            2153     17.7258E-03     18.8516E-03
            1549            2154     20.3259E-03     21.4567E-03
            1530            2154     20.3259E-03     21.4567E-03
            1531            2154     20.3259E-03     21.4567E-03
            1548            2154     20.3259E-03     21.4567E-03
            1550            2155     22.9478E-03     24.0729E-03
            1531            2155     22.9478E-03     24.0729E-03
            1532            2155     22.9478E-03     24.0729E-03
            1549            2155     22.9478E-03     24.0729E-03
            1550            2156     25.5953E-03     26.7148E-03
            1533            2156     25.5953E-03     26.7148E-03
            1532            2156     25.5953E-03     26.7148E-03
            1551            2156     25.5953E-03     26.7148E-03
            1533            2157     28.3072E-03     29.4103E-03
            1551            2157     28.3072E-03     29.4103E-03
            1534            2157     28.3072E-03     29.4103E-03
            1552            2157     28.3072E-03     29.4103E-03
            1534            2158     31.1050E-03     32.2018E-03
            1552            2158     31.1050E-03     32.2018E-03
            1535            2158     31.1050E-03     32.2018E-03
            1553            2158     31.1050E-03     32.2018E-03
            1553            2159     34.0888E-03     35.1619E-03
            1536            2159     34.0888E-03     35.1619E-03
            1535            2159     34.0888E-03     35.1619E-03
            1554            2159     34.0888E-03     35.1619E-03
            1537            2160     37.3503E-03     38.4168E-03
            1555            2160     37.3503E-03     38.4168E-03
            1536            2160     37.3503E-03     38.4168E-03
            1554            2160     37.3503E-03     38.4168E-03
            1538            2161     41.1174E-03     42.1338E-03
            1537            2161     41.1174E-03     42.1338E-03
            1555            2161     41.1174E-03     42.1338E-03
            1556            2161     41.1174E-03     42.1338E-03
            1538            2162     46.0632E-03     46.7573E-03
            1557            2162     46.0632E-03     46.7573E-03
            1556            2162     46.0632E-03     46.7573E-03
            1539            2162     46.0632E-03     46.7573E-03
            1540            2163     51.1439E-03     51.3640E-03
            1539            2163     51.1439E-03     51.3640E-03
            1558            2163     51.1439E-03     51.3640E-03
            1557            2163     51.1439E-03     51.3640E-03
            1542            2164     3.16478E-03     4.14241E-03
            1541            2164     3.16478E-03     4.14241E-03
            1559            2164     3.16478E-03     4.14241E-03
            1560            2164     3.16478E-03     4.14241E-03
            1560            2165     5.24225E-03     6.12860E-03
            1542            2165     5.24225E-03     6.12860E-03
            1561            2165     5.24225E-03     6.12860E-03
            1543            2165     5.24225E-03     6.12860E-03
            1562            2166     7.53305E-03     8.55836E-03
            1561            2166     7.53305E-03     8.55836E-03
            1543            2166     7.53305E-03     8.55836E-03
            1544            2166     7.53305E-03     8.55836E-03
            1545            2167     9.92758E-03     11.0630E-03
            1563            2167     9.92758E-03     11.0630E-03
            1544            2167     9.92758E-03     11.0630E-03
            1562            2167     9.92758E-03     11.0630E-03
            1564            2168     12.3661E-03     13.5757E-03
            1546            2168     12.3661E-03     13.5757E-03
            1545            2168     12.3661E-03     13.5757E-03
            1563            2168     12.3661E-03     13.5757E-03
            1565            2169     14.8366E-03     16.0853E-03
            1546            2169     14.8366E-03     16.0853E-03
            1547            2169     14.8366E-03     16.0853E-03
            1564            2169     14.8366E-03     16.0853E-03
            1547            2170     17.3218E-03     18.5854E-03
            1566            2170     17.3218E-03     18.5854E-03
            1548            2170     17.3218E-03     18.5854E-03
            1565            2170     17.3218E-03     18.5854E-03
            1567            2171     19.8255E-03     21.0808E-03
            1566            2171     19.8255E-03     21.0808E-03
            1549            2171     19.8255E-03     21.0808E-03
            1548            2171     19.8255E-03     21.0808E-03
            1550            2172     22.3437E-03     23.5740E-03
            1568            2172     22.3437E-03     23.5740E-03
            1567            2172     22.3437E-03     23.5740E-03
            1549            2172     22.3437E-03     23.5740E-03
            1569            2173     24.8971E-03     26.0843E-03
            1550            2173     24.8971E-03     26.0843E-03
            1568            2173     24.8971E-03     26.0843E-03
            1551            2173     24.8971E-03     26.0843E-03
            1552            2174     27.4934E-03     28.6249E-03
            1569            2174     27.4934E-03     28.6249E-03
            1551            2174     27.4934E-03     28.6249E-03
            1570            2174     27.4934E-03     28.6249E-03
            1570            2175     30.1921E-03     31.2545E-03
            1552            2175     30.1921E-03     31.2545E-03
            1571            2175     30.1921E-03     31.2545E-03
            1553            2175     30.1921E-03     31.2545E-03
            1553            2176     33.0202E-03     34.0149E-03
            1572            2176     33.0202E-03     34.0149E-03
            1571            2176     33.0202E-03     34.0149E-03
            1554            2176     33.0202E-03     34.0149E-03
            1573            2177     36.1548E-03     37.0877E-03
            1555            2177     36.1548E-03     37.0877E-03
            1554            2177     36.1548E-03     37.0877E-03
            1572            2177     36.1548E-03     37.0877E-03
            1555            2178     39.6679E-03     40.5959E-03
            1573            2178     39.6679E-03     40.5959E-03
            1574            2178     39.6679E-03     40.5959E-03
            1556            2178     39.6679E-03     40.5959E-03
            1556            2179     44.2773E-03     45.2659E-03
            1575            2179     44.2773E-03     45.2659E-03
            1557            2179     44.2773E-03     45.2659E-03
            1574            2179     44.2773E-03     45.2659E-03
            1575            2180     50.9415E-03     51.6293E-03
            1558            2180     50.9415E-03     51.6293E-03
            1576            2180     50.9415E-03     51.6293E-03
            1557            2180     50.9415E-03     51.6293E-03
            1560            2181     7.64156E-03     8.65476E-03
            1577            2181     7.64156E-03     8.65476E-03
            1559            2181     7.64156E-03     8.65476E-03
            1578            2181     7.64156E-03     8.65476E-03
            1579            2182     9.52473E-03     9.95979E-03
            1560            2182     9.52473E-03     9.95979E-03
            1561            2182     9.52473E-03     9.95979E-03
            1578            2182     9.52473E-03     9.95979E-03
            1561            2183     11.5061E-03     11.9967E-03
            1562            2183     11.5061E-03     11.9967E-03
            1579            2183     11.5061E-03     11.9967E-03
            1580            2183     11.5061E-03     11.9967E-03
            1562            2184     13.7373E-03     14.3493E-03
            1563            2184     13.7373E-03     14.3493E-03
            1580            2184     13.7373E-03     14.3493E-03
            1581            2184     13.7373E-03     14.3493E-03
            1581            2185     16.1316E-03     16.8181E-03
            1563            2185     16.1316E-03     16.8181E-03
            1582            2185     16.1316E-03     16.8181E-03
            1564            2185     16.1316E-03     16.8181E-03
            1582            2186     18.6313E-03     19.3626E-03
            1564            2186     18.6313E-03     19.3626E-03
            1583            2186     18.6313E-03     19.3626E-03
            1565            2186     18.6313E-03     19.3626E-03
            1583            2187     21.1966E-03     21.9365E-03
            1565            2187     21.1966E-03     21.9365E-03
            1584            2187     21.1966E-03     21.9365E-03
            1566            2187     21.1966E-03     21.9365E-03
            1584            2188     23.7953E-03     24.5221E-03
            1585            2188     23.7953E-03     24.5221E-03
            1567            2188     23.7953E-03     24.5221E-03
            1566            2188     23.7953E-03     24.5221E-03
            1586            2189     26.4185E-03     27.0998E-03
            1585            2189     26.4185E-03     27.0998E-03
            1567            2189     26.4185E-03     27.0998E-03
            1568            2189     26.4185E-03     27.0998E-03
            1587            2190     29.0402E-03     29.6620E-03
            1586            2190     29.0402E-03     29.6620E-03
            1568            2190     29.0402E-03     29.6620E-03
            1569            2190     29.0402E-03     29.6620E-03
            1587            2191     31.6817E-03     32.1995E-03
            1570            2191     31.6817E-03     32.1995E-03
            1588            2191     31.6817E-03     32.1995E-03
            1569            2191     31.6817E-03     32.1995E-03
            1588            2192     34.3081E-03     34.7187E-03
            1570            2192     34.3081E-03     34.7187E-03
            1589            2192     34.3081E-03     34.7187E-03
            1571            2192     34.3081E-03     34.7187E-03
            1571            2193     36.9929E-03     37.2338E-03
            1572            2193     36.9929E-03     37.2338E-03
            1590            2193     36.9929E-03     37.2338E-03
            1589            2193     36.9929E-03     37.2338E-03
            1590            2194     39.6816E-03     39.7936E-03
            1573            2194     39.6816E-03     39.7936E-03
            1591            2194     39.6816E-03     39.7936E-03
            1572            2194     39.6816E-03     39.7936E-03
            1573            2195     42.5783E-03     42.5286E-03
            1574            2195     42.5783E-03     42.5286E-03
            1591            2195     42.5783E-03     42.5286E-03
            1592            2195     42.5783E-03     42.5286E-03
            1592            2196     45.6095E-03     45.6025E-03
            1574            2196     45.6095E-03     45.6025E-03
            1593            2196     45.6095E-03     45.6025E-03
            1575            2196     45.6095E-03     45.6025E-03
            1593            2197     49.8455E-03     50.7099E-03
            1576            2197     49.8455E-03     50.7099E-03
            1594            2197     49.8455E-03     50.7099E-03
            1575            2197     49.8455E-03     50.7099E-03
            1595            2198     10.8421E-03     12.2536E-03
            1596            2198     10.8421E-03     12.2536E-03
            1577            2198     10.8421E-03     12.2536E-03
            1578            2198     10.8421E-03     12.2536E-03
            1596            2199     12.4578E-03     13.0282E-03
            1578            2199     12.4578E-03     13.0282E-03
            1597            2199     12.4578E-03     13.0282E-03
            1579            2199     12.4578E-03     13.0282E-03
            1580            2200     14.5758E-03     14.7896E-03
            1579            2200     14.5758E-03     14.7896E-03
            1598            2200     14.5758E-03     14.7896E-03
            1597            2200     14.5758E-03     14.7896E-03
            1599            2201     16.9660E-03     17.1337E-03
            1598            2201     16.9660E-03     17.1337E-03
            1580            2201     16.9660E-03     17.1337E-03
            1581            2201     16.9660E-03     17.1337E-03
            1599            2202     19.5626E-03     19.7474E-03
            1581            2202     19.5626E-03     19.7474E-03
            1600            2202     19.5626E-03     19.7474E-03
            1582            2202     19.5626E-03     19.7474E-03
            1582            2203     22.3109E-03     22.5128E-03
            1583            2203     22.3109E-03     22.5128E-03
            1600            2203     22.3109E-03     22.5128E-03
            1601            2203     22.3109E-03     22.5128E-03
            1602            2204     25.1496E-03     25.3552E-03
            1601            2204     25.1496E-03     25.3552E-03
            1583            2204     25.1496E-03     25.3552E-03
            1584            2204     25.1496E-03     25.3552E-03
            1584            2205     28.0425E-03     28.2356E-03
            1585            2205     28.0425E-03     28.2356E-03
            1602            2205     28.0425E-03     28.2356E-03
            1603            2205     28.0425E-03     28.2356E-03
            1585            2206     30.9565E-03     31.1165E-03
            1586            2206     30.9565E-03     31.1165E-03
            1603            2206     30.9565E-03     31.1165E-03
            1604            2206     30.9565E-03     31.1165E-03
            1586            2207     33.8678E-03     33.9785E-03
            1605            2207     33.8678E-03     33.9785E-03
            1604            2207     33.8678E-03     33.9785E-03
            1587            2207     33.8678E-03     33.9785E-03
            1588            2208     36.7460E-03     36.7839E-03
            1587            2208     36.7460E-03     36.7839E-03
            1606            2208     36.7460E-03     36.7839E-03
            1605            2208     36.7460E-03     36.7839E-03
            1588            2209     39.5761E-03     39.5202E-03
            1589            2209     39.5761E-03     39.5202E-03
            1607            2209     39.5761E-03     39.5202E-03
            1606            2209     39.5761E-03     39.5202E-03
            1608            2210     42.3022E-03     42.1416E-03
            1589            2210     42.3022E-03     42.1416E-03
            1607            2210     42.3022E-03     42.1416E-03
            1590            2210     42.3022E-03     42.1416E-03
            1590            2211     44.9333E-03     44.6484E-03
            1591            2211     44.9333E-03     44.6484E-03
            1609            2211     44.9333E-03     44.6484E-03
            1608            2211     44.9333E-03     44.6484E-03
            1609            2212     47.3501E-03     46.9920E-03
            1610            2212     47.3501E-03     46.9920E-03
            1592            2212     47.3501E-03     46.9920E-03
            1591            2212     47.3501E-03     46.9920E-03
            1592            2213     49.6269E-03     49.2598E-03
            1593            2213     49.6269E-03     49.2598E-03
            1610            2213     49.6269E-03     49.2598E-03
            1611            2213     49.6269E-03     49.2598E-03
            1611            2214     51.7025E-03     51.1395E-03
            1594            2214     51.7025E-03     51.1395E-03
            1612            2214     51.7025E-03     51.1395E-03
            1593            2214     51.7025E-03     51.1395E-03
            1613            2215     9.34655E-03     10.2997E-03
            1595            2215     9.34655E-03     10.2997E-03
            1596            2215     9.34655E-03     10.2997E-03
            1614            2215     9.34655E-03     10.2997E-03
            1614            2216     10.7582E-03     11.8646E-03
            1596            2216     10.7582E-03     11.8646E-03
            1597            2216     10.7582E-03     11.8646E-03
            1615            2216     10.7582E-03     11.8646E-03
            1615            2217     13.1894E-03     13.8435E-03
            1616            2217     13.1894E-03     13.8435E-03
            1598            2217     13.1894E-03     13.8435E-03
            1597            2217     13.1894E-03     13.8435E-03
            1598            2218     15.9523E-03     16.3986E-03
            1617            2218     15.9523E-03     16.3986E-03
            1599            2218     15.9523E-03     16.3986E-03
            1616            2218     15.9523E-03     16.3986E-03
            1600            2219     18.8652E-03     19.2489E-03
            1599            2219     18.8652E-03     19.2489E-03
            1617            2219     18.8652E-03     19.2489E-03
            1618            2219     18.8652E-03     19.2489E-03
            1600            2220     21.8931E-03     22.2516E-03
            1619            2220     21.8931E-03     22.2516E-03
            1601            2220     21.8931E-03     22.2516E-03
            1618            2220     21.8931E-03     22.2516E-03
            1619            2221     24.9883E-03     25.3437E-03
            1601            2221     24.9883E-03     25.3437E-03
            1620            2221     24.9883E-03     25.3437E-03
            1602            2221     24.9883E-03     25.3437E-03
            1603            2222     28.1339E-03     28.4824E-03
            1602            2222     28.1339E-03     28.4824E-03
            1620            2222     28.1339E-03     28.4824E-03
            1621            2222     28.1339E-03     28.4824E-03
            1604            2223     31.3052E-03     31.6486E-03
            1622            2223     31.3052E-03     31.6486E-03
            1603            2223     31.3052E-03     31.6486E-03
            1621            2223     31.3052E-03     31.6486E-03
            1622            2224     34.4889E-03     34.8209E-03
            1604            2224     34.4889E-03     34.8209E-03
            1605            2224     34.4889E-03     34.8209E-03
            1623            2224     34.4889E-03     34.8209E-03
            1624            2225     37.6624E-03     37.9863E-03
            1606            2225     37.6624E-03     37.9863E-03
            1605            2225     37.6624E-03     37.9863E-03
            1623            2225     37.6624E-03     37.9863E-03
            1607            2226     40.7971E-03     41.1210E-03
            1606            2226     40.7971E-03     41.1210E-03
            1625            2226     40.7971E-03     41.1210E-03
            1624            2226     40.7971E-03     41.1210E-03
            1607            2227     43.8674E-03     44.2001E-03
            1608            2227     43.8674E-03     44.2001E-03
            1626            2227     43.8674E-03     44.2001E-03
            1625            2227     43.8674E-03     44.2001E-03
            1626            2228     46.8028E-03     47.1977E-03
            1608            2228     46.8028E-03     47.1977E-03
            1609            2228     46.8028E-03     47.1977E-03
            1627            2228     46.8028E-03     47.1977E-03
            1627            2229     49.5748E-03     50.0481E-03
            1610            2229     49.5748E-03     50.0481E-03
            1628            2229     49.5748E-03     50.0481E-03
            1609            2229     49.5748E-03     50.0481E-03
            1628            2230     52.2010E-03     52.7086E-03
            1610            2230     52.2010E-03     52.7086E-03
            1629            2230     52.2010E-03     52.7086E-03
            1611            2230     52.2010E-03     52.7086E-03
            1611            2231     54.4447E-03     54.7144E-03
            1630            2231     54.4447E-03     54.7144E-03
            1629            2231     54.4447E-03     54.7144E-03
            1612            2231     54.4447E-03     54.7144E-03
            1613            2232     7.74608E-03     8.30851E-03
            1632            2232     7.74608E-03     8.30851E-03
            1614            2232     7.74608E-03     8.30851E-03
            1631            2232     7.74608E-03     8.30851E-03
            1614            2233     9.51354E-03     10.5054E-03
            1633            2233     9.51354E-03     10.5054E-03
            1632            2233     9.51354E-03     10.5054E-03
            1615            2233     9.51354E-03     10.5054E-03
            1615            2234     12.1044E-03     13.0452E-03
            1616            2234     12.1044E-03     13.0452E-03
            1634            2234     12.1044E-03     13.0452E-03
            1633            2234     12.1044E-03     13.0452E-03
            1635            2235     15.1382E-03     15.8532E-03
            1616            2235     15.1382E-03     15.8532E-03
            1617            2235     15.1382E-03     15.8532E-03
            1634            2235     15.1382E-03     15.8532E-03
            1636            2236     18.3167E-03     18.9205E-03
            1618            2236     18.3167E-03     18.9205E-03
            1617            2236     18.3167E-03     18.9205E-03
            1635            2236     18.3167E-03     18.9205E-03
            1637            2237     21.5667E-03     22.1218E-03
            1636            2237     21.5667E-03     22.1218E-03
            1618            2237     21.5667E-03     22.1218E-03
            1619            2237     21.5667E-03     22.1218E-03
            1637            2238     24.8728E-03     25.4085E-03
            1638            2238     24.8728E-03     25.4085E-03
            1619            2238     24.8728E-03     25.4085E-03
            1620            2238     24.8728E-03     25.4085E-03
            1639            2239     28.2132E-03     28.7517E-03
            1620            2239     28.2132E-03     28.7517E-03
            1638            2239     28.2132E-03     28.7517E-03
            1621            2239     28.2132E-03     28.7517E-03
            1640            2240     31.5873E-03     32.1372E-03
            1622            2240     31.5873E-03     32.1372E-03
            1621            2240     31.5873E-03     32.1372E-03
            1639            2240     31.5873E-03     32.1372E-03
            1641            2241     34.9764E-03     35.5537E-03
            1622            2241     34.9764E-03     35.5537E-03
            1640            2241     34.9764E-03     35.5537E-03
            1623            2241     34.9764E-03     35.5537E-03
            1624            2242     38.3803E-03     38.9941E-03
            1642            2242     38.3803E-03     38.9941E-03
            1623            2242     38.3803E-03     38.9941E-03
            1641            2242     38.3803E-03     38.9941E-03
            1625            2243     41.7618E-03     42.4392E-03
            1624            2243     41.7618E-03     42.4392E-03
            1642            2243     41.7618E-03     42.4392E-03
            1643            2243     41.7618E-03     42.4392E-03
            1644            2244     45.1016E-03     45.8611E-03
            1643            2244     45.1016E-03     45.8611E-03
            1625            2244     45.1016E-03     45.8611E-03
            1626            2244     45.1016E-03     45.8611E-03
            1627            2245     48.3229E-03     49.1927E-03
            1645            2245     48.3229E-03     49.1927E-03
            1644            2245     48.3229E-03     49.1927E-03
            1626            2245     48.3229E-03     49.1927E-03
            1627            2246     51.4021E-03     52.3526E-03
            1628            2246     51.4021E-03     52.3526E-03
            1645            2246     51.4021E-03     52.3526E-03
            1646            2246     51.4021E-03     52.3526E-03
            1629            2247     54.1865E-03     55.1197E-03
            1647            2247     54.1865E-03     55.1197E-03
            1628            2247     54.1865E-03     55.1197E-03
            1646            2247     54.1865E-03     55.1197E-03
            1648            2248     56.5765E-03     57.4033E-03
            1647            2248     56.5765E-03     57.4033E-03
            1630            2248     56.5765E-03     57.4033E-03
            1629            2248     56.5765E-03     57.4033E-03
            1649            2249     6.24255E-03     6.86822E-03
            1631            2249     6.24255E-03     6.86822E-03
            1650            2249     6.24255E-03     6.86822E-03
            1632            2249     6.24255E-03     6.86822E-03
            1633            2250     8.37446E-03     9.33570E-03
            1632            2250     8.37446E-03     9.33570E-03
            1650            2250     8.37446E-03     9.33570E-03
            1651            2250     8.37446E-03     9.33570E-03
            1634            2251     11.2753E-03     12.3096E-03
            1652            2251     11.2753E-03     12.3096E-03
            1651            2251     11.2753E-03     12.3096E-03
            1633            2251     11.2753E-03     12.3096E-03
            1652            2252     14.4982E-03     15.4209E-03
            1634            2252     14.4982E-03     15.4209E-03
            1635            2252     14.4982E-03     15.4209E-03
            1653            2252     14.4982E-03     15.4209E-03
            1653            2253     17.8586E-03     18.6665E-03
            1635            2253     17.8586E-03     18.6665E-03
            1636            2253     17.8586E-03     18.6665E-03
            1654            2253     17.8586E-03     18.6665E-03
            1636            2254     21.2705E-03     22.0193E-03
            1637            2254     21.2705E-03     22.0193E-03
            1655            2254     21.2705E-03     22.0193E-03
            1654            2254     21.2705E-03     22.0193E-03
            1638            2255     24.7162E-03     25.4418E-03
            1655            2255     24.7162E-03     25.4418E-03
            1656            2255     24.7162E-03     25.4418E-03
            1637            2255     24.7162E-03     25.4418E-03
            1657            2256     28.1934E-03     28.9238E-03
            1638            2256     28.1934E-03     28.9238E-03
            1656            2256     28.1934E-03     28.9238E-03
            1639            2256     28.1934E-03     28.9238E-03
            1640            2257     31.6944E-03     32.4526E-03
            1658            2257     31.6944E-03     32.4526E-03
            1657            2257     31.6944E-03     32.4526E-03
            1639            2257     31.6944E-03     32.4526E-03
            1641            2258     35.2305E-03     36.0322E-03
            1659            2258     35.2305E-03     36.0322E-03
            1640            2258     35.2305E-03     36.0322E-03
            1658            2258     35.2305E-03     36.0322E-03
            1641            2259     38.7785E-03     39.6529E-03
            1659            2259     38.7785E-03     39.6529E-03
            1660            2259     38.7785E-03     39.6529E-03
            1642            2259     38.7785E-03     39.6529E-03
            1660            2260     42.3613E-03     43.3125E-03
            1661            2260     42.3613E-03     43.3125E-03
            1643            2260     42.3613E-03     43.3125E-03
            1642            2260     42.3613E-03     43.3125E-03
            1662            2261     45.9051E-03     46.9753E-03
            1643            2261     45.9051E-03     46.9753E-03
            1661            2261     45.9051E-03     46.9753E-03
            1644            2261     45.9051E-03     46.9753E-03
            1645            2262     49.4081E-03     50.5591E-03
            1644            2262     49.4081E-03     50.5591E-03
            1663            2262     49.4081E-03     50.5591E-03
            1662            2262     49.4081E-03     50.5591E-03
            1645            2263     52.7286E-03     53.9183E-03
            1664            2263     52.7286E-03     53.9183E-03
            1646            2263     52.7286E-03     53.9183E-03
            1663            2263     52.7286E-03     53.9183E-03
            1665            2264     55.7260E-03     56.8782E-03
            1646            2264     55.7260E-03     56.8782E-03
            1664            2264     55.7260E-03     56.8782E-03
            1647            2264     55.7260E-03     56.8782E-03
            1665            2265     58.5335E-03     59.2269E-03
            1666            2265     58.5335E-03     59.2269E-03
            1647            2265     58.5335E-03     59.2269E-03
            1648            2265     58.5335E-03     59.2269E-03
            1667            2266     4.84949E-03     5.58366E-03
            1668            2266     4.84949E-03     5.58366E-03
            1649            2266     4.84949E-03     5.58366E-03
            1650            2266     4.84949E-03     5.58366E-03
            1668            2267     7.40127E-03     8.51835E-03
            1650            2267     7.40127E-03     8.51835E-03
            1669            2267     7.40127E-03     8.51835E-03
            1651            2267     7.40127E-03     8.51835E-03
            1651            2268     10.6078E-03     11.7082E-03
            1669            2268     10.6078E-03     11.7082E-03
            1652            2268     10.6078E-03     11.7082E-03
            1670            2268     10.6078E-03     11.7082E-03
            1671            2269     13.9900E-03     15.0502E-03
            1670            2269     13.9900E-03     15.0502E-03
            1652            2269     13.9900E-03     15.0502E-03
            1653            2269     13.9900E-03     15.0502E-03
            1654            2270     17.4552E-03     18.4300E-03
            1671            2270     17.4552E-03     18.4300E-03
            1672            2270     17.4552E-03     18.4300E-03
            1653            2270     17.4552E-03     18.4300E-03
            1672            2271     20.9580E-03     21.8761E-03
            1655            2271     20.9580E-03     21.8761E-03
            1654            2271     20.9580E-03     21.8761E-03
            1673            2271     20.9580E-03     21.8761E-03
            1674            2272     24.4778E-03     25.3795E-03
            1655            2272     24.4778E-03     25.3795E-03
            1673            2272     24.4778E-03     25.3795E-03
            1656            2272     24.4778E-03     25.3795E-03
            1656            2273     28.0185E-03     28.9278E-03
            1674            2273     28.0185E-03     28.9278E-03
            1675            2273     28.0185E-03     28.9278E-03
            1657            2273     28.0185E-03     28.9278E-03
            1657            2274     31.5879E-03     32.5288E-03
            1675            2274     31.5879E-03     32.5288E-03
            1658            2274     31.5879E-03     32.5288E-03
            1676            2274     31.5879E-03     32.5288E-03
            1676            2275     35.1823E-03     36.1787E-03
            1658            2275     35.1823E-03     36.1787E-03
            1659            2275     35.1823E-03     36.1787E-03
            1677            2275     35.1823E-03     36.1787E-03
            1659            2276     38.8295E-03     39.8941E-03
            1660            2276     38.8295E-03     39.8941E-03
            1677            2276     38.8295E-03     39.8941E-03
            1678            2276     38.8295E-03     39.8941E-03
            1679            2277     42.4994E-03     43.6654E-03
            1661            2277     42.4994E-03     43.6654E-03
            1660            2277     42.4994E-03     43.6654E-03
            1678            2277     42.4994E-03     43.6654E-03
            1680            2278     46.2565E-03     47.4883E-03
            1679            2278     46.2565E-03     47.4883E-03
            1661            2278     46.2565E-03     47.4883E-03
            1662            2278     46.2565E-03     47.4883E-03
            1662            2279     49.9842E-03     51.3032E-03
            1680            2279     49.9842E-03     51.3032E-03
            1663            2279     49.9842E-03     51.3032E-03
            1681            2279     49.9842E-03     51.3032E-03
            1664            2280     53.6157E-03     54.9359E-03
            1682            2280     53.6157E-03     54.9359E-03
            1663            2280     53.6157E-03     54.9359E-03
            1681            2280     53.6157E-03     54.9359E-03
            1683            2281     57.0644E-03     58.1474E-03
            1664            2281     57.0644E-03     58.1474E-03
            1665            2281     57.0644E-03     58.1474E-03
            1682            2281     57.0644E-03     58.1474E-03
            1683            2282     60.0708E-03     60.9719E-03
            1666            2282     60.0708E-03     60.9719E-03
            1684            2282     60.0708E-03     60.9719E-03
            1665            2282     60.0708E-03     60.9719E-03
            1686            2283     3.62499E-03     4.68323E-03
            1668            2283     3.62499E-03     4.68323E-03
            1667            2283     3.62499E-03     4.68323E-03
            1685            2283     3.62499E-03     4.68323E-03
            1668            2284     6.70516E-03     7.92030E-03
            1687            2284     6.70516E-03     7.92030E-03
            1686            2284     6.70516E-03     7.92030E-03
            1669            2284     6.70516E-03     7.92030E-03
            1688            2285     10.0918E-03     11.3325E-03
            1669            2285     10.0918E-03     11.3325E-03
            1670            2285     10.0918E-03     11.3325E-03
            1687            2285     10.0918E-03     11.3325E-03
            1689            2286     13.5844E-03     14.7317E-03
            1688            2286     13.5844E-03     14.7317E-03
            1671            2286     13.5844E-03     14.7317E-03
            1670            2286     13.5844E-03     14.7317E-03
            1671            2287     17.0948E-03     18.1904E-03
            1689            2287     17.0948E-03     18.1904E-03
            1690            2287     17.0948E-03     18.1904E-03
            1672            2287     17.0948E-03     18.1904E-03
            1672            2288     20.6121E-03     21.6779E-03
            1691            2288     20.6121E-03     21.6779E-03
            1673            2288     20.6121E-03     21.6779E-03
            1690            2288     20.6121E-03     21.6779E-03
            1674            2289     24.1425E-03     25.1970E-03
            1691            2289     24.1425E-03     25.1970E-03
            1692            2289     24.1425E-03     25.1970E-03
            1673            2289     24.1425E-03     25.1970E-03
            1674            2290     27.6860E-03     28.7526E-03
            1692            2290     27.6860E-03     28.7526E-03
            1675            2290     27.6860E-03     28.7526E-03
            1693            2290     27.6860E-03     28.7526E-03
            1694            2291     31.2499E-03     32.3450E-03
            1675            2291     31.2499E-03     32.3450E-03
            1693            2291     31.2499E-03     32.3450E-03
            1676            2291     31.2499E-03     32.3450E-03
            1695            2292     34.8502E-03     35.9917E-03
            1676            2292     34.8502E-03     35.9917E-03
            1677            2292     34.8502E-03     35.9917E-03
            1694            2292     34.8502E-03     35.9917E-03
            1696            2293     38.4912E-03     39.6982E-03
            1677            2293     38.4912E-03     39.6982E-03
            1678            2293     38.4912E-03     39.6982E-03
            1695            2293     38.4912E-03     39.6982E-03
            1697            2294     42.2231E-03     43.4970E-03
            1696            2294     42.2231E-03     43.4970E-03
            1679            2294     42.2231E-03     43.4970E-03
            1678            2294     42.2231E-03     43.4970E-03
            1680            2295     46.0294E-03     47.3856E-03
            1679            2295     46.0294E-03     47.3856E-03
            1697            2295     46.0294E-03     47.3856E-03
            1698            2295     46.0294E-03     47.3856E-03
            1680            2296     50.0446E-03     51.3904E-03
            1681            2296     50.0446E-03     51.3904E-03
            1698            2296     50.0446E-03     51.3904E-03
            1699            2296     50.0446E-03     51.3904E-03
            1681            2297     54.1080E-03     55.4189E-03
            1682            2297     54.1080E-03     55.4189E-03
            1700            2297     54.1080E-03     55.4189E-03
            1699            2297     54.1080E-03     55.4189E-03
            1701            2298     57.9848E-03     59.2226E-03
            1683            2298     57.9848E-03     59.2226E-03
            1682            2298     57.9848E-03     59.2226E-03
            1700            2298     57.9848E-03     59.2226E-03
            1684            2299     61.6575E-03     62.4057E-03
            1701            2299     61.6575E-03     62.4057E-03
            1702            2299     61.6575E-03     62.4057E-03
            1683            2299     61.6575E-03     62.4057E-03
            1686            2300     3.02586E-03     4.32127E-03
            1685            2300     3.02586E-03     4.32127E-03
            1703            2300     3.02586E-03     4.32127E-03
            1704            2300     3.02586E-03     4.32127E-03
            1704            2301     6.31130E-03     7.74840E-03
            1687            2301     6.31130E-03     7.74840E-03
            1686            2301     6.31130E-03     7.74840E-03
            1705            2301     6.31130E-03     7.74840E-03
            1705            2302     9.81400E-03     11.0973E-03
            1688            2302     9.81400E-03     11.0973E-03
            1706            2302     9.81400E-03     11.0973E-03
            1687            2302     9.81400E-03     11.0973E-03
            1706            2303     13.3011E-03     14.5189E-03
            1689            2303     13.3011E-03     14.5189E-03
            1688            2303     13.3011E-03     14.5189E-03
            1707            2303     13.3011E-03     14.5189E-03
            1708            2304     16.7746E-03     17.9735E-03
            1690            2304     16.7746E-03     17.9735E-03
            1689            2304     16.7746E-03     17.9735E-03
            1707            2304     16.7746E-03     17.9735E-03
            1708            2305     20.2491E-03     21.4433E-03
            1691            2305     20.2491E-03     21.4433E-03
            1709            2305     20.2491E-03     21.4433E-03
            1690            2305     20.2491E-03     21.4433E-03
            1692            2306     23.7278E-03     24.9245E-03
            1709            2306     23.7278E-03     24.9245E-03
            1710            2306     23.7278E-03     24.9245E-03
            1691            2306     23.7278E-03     24.9245E-03
            1693            2307     27.2168E-03     28.4225E-03
            1711            2307     27.2168E-03     28.4225E-03
            1710            2307     27.2168E-03     28.4225E-03
            1692            2307     27.2168E-03     28.4225E-03
            1711            2308     30.7214E-03     31.9454E-03
            1693            2308     30.7214E-03     31.9454E-03
            1694            2308     30.7214E-03     31.9454E-03
            1712            2308     30.7214E-03     31.9454E-03
            1712            2309     34.2560E-03     35.5048E-03
            1713            2309     34.2560E-03     35.5048E-03
            1694            2309     34.2560E-03     35.5048E-03
            1695            2309     34.2560E-03     35.5048E-03
            1713            2310     37.8402E-03     39.1273E-03
            1714            2310     37.8402E-03     39.1273E-03
            1696            2310     37.8402E-03     39.1273E-03
            1695            2310     37.8402E-03     39.1273E-03
            1696            2311     41.5093E-03     42.8370E-03
            1697            2311     41.5093E-03     42.8370E-03
            1715            2311     41.5093E-03     42.8370E-03
            1714            2311     41.5093E-03     42.8370E-03
            1715            2312     45.3354E-03     46.7043E-03
            1697            2312     45.3354E-03     46.7043E-03
            1698            2312     45.3354E-03     46.7043E-03
            1716            2312     45.3354E-03     46.7043E-03
            1717            2313     49.3748E-03     50.7590E-03
            1698            2313     49.3748E-03     50.7590E-03
            1699            2313     49.3748E-03     50.7590E-03
            1716            2313     49.3748E-03     50.7590E-03
            1718            2314     53.9476E-03     55.1784E-03
            1717            2314     53.9476E-03     55.1784E-03
            1700            2314     53.9476E-03     55.1784E-03
            1699            2314     53.9476E-03     55.1784E-03
            1718            2315     58.6901E-03     59.7400E-03
            1719            2315     58.6901E-03     59.7400E-03
            1701            2315     58.6901E-03     59.7400E-03
            1700            2315     58.6901E-03     59.7400E-03
            1701            2316     62.8361E-03     63.9377E-03
            1720            2316     62.8361E-03     63.9377E-03
            1702            2316     62.8361E-03     63.9377E-03
            1719            2316     62.8361E-03     63.9377E-03
            1722            2317     3.43250E-03     4.94007E-03
            1703            2317     3.43250E-03     4.94007E-03
            1721            2317     3.43250E-03     4.94007E-03
            1704            2317     3.43250E-03     4.94007E-03
            1723            2318     6.47328E-03     7.88215E-03
            1704            2318     6.47328E-03     7.88215E-03
            1705            2318     6.47328E-03     7.88215E-03
            1722            2318     6.47328E-03     7.88215E-03
            1723            2319     9.83315E-03     11.0878E-03
            1724            2319     9.83315E-03     11.0878E-03
            1706            2319     9.83315E-03     11.0878E-03
            1705            2319     9.83315E-03     11.0878E-03
            1724            2320     13.1785E-03     14.4550E-03
            1707            2320     13.1785E-03     14.4550E-03
            1706            2320     13.1785E-03     14.4550E-03
            1725            2320     13.1785E-03     14.4550E-03
            1708            2321     16.5345E-03     17.8429E-03
            1725            2321     16.5345E-03     17.8429E-03
            1726            2321     16.5345E-03     17.8429E-03
            1707            2321     16.5345E-03     17.8429E-03
            1726            2322     19.9037E-03     21.2321E-03
            1709            2322     19.9037E-03     21.2321E-03
            1727            2322     19.9037E-03     21.2321E-03
            1708            2322     19.9037E-03     21.2321E-03
            1727            2323     23.2805E-03     24.6223E-03
            1728            2323     23.2805E-03     24.6223E-03
            1709            2323     23.2805E-03     24.6223E-03
            1710            2323     23.2805E-03     24.6223E-03
            1728            2324     26.6649E-03     28.0094E-03
            1711            2324     26.6649E-03     28.0094E-03
            1729            2324     26.6649E-03     28.0094E-03
            1710            2324     26.6649E-03     28.0094E-03
            1711            2325     30.0643E-03     31.4053E-03
            1729            2325     30.0643E-03     31.4053E-03
            1730            2325     30.0643E-03     31.4053E-03
            1712            2325     30.0643E-03     31.4053E-03
            1730            2326     33.4818E-03     34.8175E-03
            1712            2326     33.4818E-03     34.8175E-03
            1731            2326     33.4818E-03     34.8175E-03
            1713            2326     33.4818E-03     34.8175E-03
            1732            2327     36.9511E-03     38.2744E-03
            1713            2327     36.9511E-03     38.2744E-03
            1731            2327     36.9511E-03     38.2744E-03
            1714            2327     36.9511E-03     38.2744E-03
            1715            2328     40.4895E-03     41.8124E-03
            1732            2328     40.4895E-03     41.8124E-03
            1714            2328     40.4895E-03     41.8124E-03
            1733            2328     40.4895E-03     41.8124E-03
            1716            2329     44.2007E-03     45.5034E-03
            1715            2329     44.2007E-03     45.5034E-03
            1733            2329     44.2007E-03     45.5034E-03
            1734            2329     44.2007E-03     45.5034E-03
            1735            2330     48.1690E-03     49.4807E-03
            1717            2330     48.1690E-03     49.4807E-03
            1716            2330     48.1690E-03     49.4807E-03
            1734            2330     48.1690E-03     49.4807E-03
            1735            2331     52.6530E-03     53.9076E-03
            1736            2331     52.6530E-03     53.9076E-03
            1717            2331     52.6530E-03     53.9076E-03
            1718            2331     52.6530E-03     53.9076E-03
            1719            2332     58.3900E-03     59.2816E-03
            1718            2332     58.3900E-03     59.2816E-03
            1736            2332     58.3900E-03     59.2816E-03
            1737            2332     58.3900E-03     59.2816E-03
            1737            2333     64.1675E-03     64.4654E-03
            1720            2333     64.1675E-03     64.4654E-03
            1738            2333     64.1675E-03     64.4654E-03
            1719            2333     64.1675E-03     64.4654E-03
            1721            2334     4.71731E-03     5.97683E-03
            1740            2334     4.71731E-03     5.97683E-03
            1739            2334     4.71731E-03     5.97683E-03
            1722            2334     4.71731E-03     5.97683E-03
            1740            2335     7.27637E-03     8.33770E-03
            1722            2335     7.27637E-03     8.33770E-03
            1741            2335     7.27637E-03     8.33770E-03
            1723            2335     7.27637E-03     8.33770E-03
            1741            2336     10.1938E-03     11.4070E-03
            1742            2336     10.1938E-03     11.4070E-03
            1724            2336     10.1938E-03     11.4070E-03
            1723            2336     10.1938E-03     11.4070E-03
            1724            2337     13.2751E-03     14.6241E-03
            1725            2337     13.2751E-03     14.6241E-03
            1743            2337     13.2751E-03     14.6241E-03
            1742            2337     13.2751E-03     14.6241E-03
            1726            2338     16.4362E-03     17.8758E-03
            1744            2338     16.4362E-03     17.8758E-03
            1725            2338     16.4362E-03     17.8758E-03
            1743            2338     16.4362E-03     17.8758E-03
            1726            2339     19.6413E-03     21.1325E-03
            1727            2339     19.6413E-03     21.1325E-03
            1745            2339     19.6413E-03     21.1325E-03
            1744            2339     19.6413E-03     21.1325E-03
            1746            2340     22.8691E-03     24.3770E-03
            1745            2340     22.8691E-03     24.3770E-03
            1728            2340     22.8691E-03     24.3770E-03
            1727            2340     22.8691E-03     24.3770E-03
            1728            2341     26.1122E-03     27.6141E-03
            1747            2341     26.1122E-03     27.6141E-03
            1746            2341     26.1122E-03     27.6141E-03
            1729            2341     26.1122E-03     27.6141E-03
            1730            2342     29.3629E-03     30.8357E-03
            1748            2342     29.3629E-03     30.8357E-03
            1729            2342     29.3629E-03     30.8357E-03
            1747            2342     29.3629E-03     30.8357E-03
            1730            2343     32.6376E-03     34.0620E-03
            1749            2343     32.6376E-03     34.0620E-03
            1731            2343     32.6376E-03     34.0620E-03
            1748            2343     32.6376E-03     34.0620E-03
            1732            2344     35.9376E-03     37.2942E-03
            1750            2344     35.9376E-03     37.2942E-03
            1749            2344     35.9376E-03     37.2942E-03
            1731            2344     35.9376E-03     37.2942E-03
            1733            2345     39.3264E-03     40.5938E-03
            1751            2345     39.3264E-03     40.5938E-03
            1732            2345     39.3264E-03     40.5938E-03
            1750            2345     39.3264E-03     40.5938E-03
            1752            2346     42.8170E-03     43.9936E-03
            1751            2346     42.8170E-03     43.9936E-03
            1734            2346     42.8170E-03     43.9936E-03
            1733            2346     42.8170E-03     43.9936E-03
            1752            2347     46.6145E-03     47.6895E-03
            1734            2347     46.6145E-03     47.6895E-03
            1753            2347     46.6145E-03     47.6895E-03
            1735            2347     46.6145E-03     47.6895E-03
            1753            2348     50.7683E-03     51.8153E-03
            1736            2348     50.7683E-03     51.8153E-03
            1754            2348     50.7683E-03     51.8153E-03
            1735            2348     50.7683E-03     51.8153E-03
            1737            2349     56.0987E-03     57.1817E-03
            1754            2349     56.0987E-03     57.1817E-03
            1755            2349     56.0987E-03     57.1817E-03
            1736            2349     56.0987E-03     57.1817E-03
            1756            2350     63.6426E-03     64.3434E-03
            1737            2350     63.6426E-03     64.3434E-03
            1738            2350     63.6426E-03     64.3434E-03
            1755            2350     63.6426E-03     64.3434E-03
            2271            2785     30.4565E-15     30.7706E-15
            2290            2785     30.4565E-15     30.7706E-15
            2289            2785     30.4565E-15     30.7706E-15
            2272            2785     30.4565E-15     30.7706E-15
            2291            2786     29.5087E-15     29.8210E-15
            2290            2786     29.5087E-15     29.8210E-15
            2272            2786     29.5087E-15     29.8210E-15
            2273            2786     29.5087E-15     29.8210E-15
            2273            2787     25.1257E-15     25.5463E-15
            2291            2787     25.1257E-15     25.5463E-15
            2292            2787     25.1257E-15     25.5463E-15
            2274            2787     25.1257E-15     25.5463E-15
            2275            2788     37.8631E-15     38.2523E-15
            2292            2788     37.8631E-15     38.2523E-15
            2274            2788     37.8631E-15     38.2523E-15
            2293            2788     37.8631E-15     38.2523E-15
            2275            2789     43.1473E-15     43.1210E-15
            2294            2789     43.1473E-15     43.1210E-15
            2293            2789     43.1473E-15     43.1210E-15
            2276            2789     43.1473E-15     43.1210E-15
            2294            2790     25.9392E-15     28.1545E-15
            2295            2790     25.9392E-15     28.1545E-15
            2276            2790     25.9392E-15     28.1545E-15
            2277            2790     25.9392E-15     28.1545E-15
            2295            2791     18.5615E-15     19.9853E-15
            2278            2791     18.5615E-15     19.9853E-15
            2296            2791     18.5615E-15     19.9853E-15
            2277            2791     18.5615E-15     19.9853E-15
            2297            2792     25.2658E-15     25.1116E-15
            2296            2792     25.2658E-15     25.1116E-15
            2278            2792     25.2658E-15     25.1116E-15
            2279            2792     25.2658E-15     25.1116E-15
            2279            2793     33.1692E-15     32.7486E-15
            2298            2793     33.1692E-15     32.7486E-15
            2280            2793     33.1692E-15     32.7486E-15
            2297            2793     33.1692E-15     32.7486E-15
            2280            2794     22.7673E-15     25.5399E-15
            2281            2794     22.7673E-15     25.5399E-15
            2298            2794     22.7673E-15     25.5399E-15
            2299            2794     22.7673E-15     25.5399E-15
            2299            2795     18.7166E-15     20.2919E-15
            2282            2795     18.7166E-15     20.2919E-15
            2281            2795     18.7166E-15     20.2919E-15
            2300            2795     18.7166E-15     20.2919E-15
            2282            2796     30.1121E-15     25.1811E-15
            2283            2796     30.1121E-15     25.1811E-15
            2300            2796     30.1121E-15     25.1811E-15
            2301            2796     30.1121E-15     25.1811E-15
            2283            2797     23.1113E-15     22.0102E-15
            2301            2797     23.1113E-15     22.0102E-15
            2302            2797     23.1113E-15     22.0102E-15
            2284            2797     23.1113E-15     22.0102E-15
            2284            2798     14.0651E-15     16.9873E-15
            2285            2798     14.0651E-15     16.9873E-15
            2303            2798     14.0651E-15     16.9873E-15
            2302            2798     14.0651E-15     16.9873E-15
            2285            2799     16.5775E-15     21.5235E-15
            2303            2799     16.5775E-15     21.5235E-15
            2304            2799     16.5775E-15     21.5235E-15
            2286            2799     16.5775E-15     21.5235E-15
            2287            2800     15.7876E-15     23.6477E-15
            2305            2800     15.7876E-15     23.6477E-15
            2286            2800     15.7876E-15     23.6477E-15
            2304            2800     15.7876E-15     23.6477E-15
            2288            2801     12.0183E-15     17.5610E-15
            2305            2801     12.0183E-15     17.5610E-15
            2287            2801     12.0183E-15     17.5610E-15
            2306            2801     12.0183E-15     17.5610E-15
            2290            2802     28.8196E-15     28.6325E-15
            2308            2802     28.8196E-15     28.6325E-15
            2289            2802     28.8196E-15     28.6325E-15
            2307            2802     28.8196E-15     28.6325E-15
            2309            2803     34.9591E-15     34.7727E-15
            2291            2803     34.9591E-15     34.7727E-15
            2308            2803     34.9591E-15     34.7727E-15
            2290            2803     34.9591E-15     34.7727E-15
            2309            2804     33.2184E-15     32.8357E-15
            2292            2804     33.2184E-15     32.8357E-15
            2291            2804     33.2184E-15     32.8357E-15
            2310            2804     33.2184E-15     32.8357E-15
            2310            2805     34.0285E-15     34.6794E-15
            2293            2805     34.0285E-15     34.6794E-15
            2311            2805     34.0285E-15     34.6794E-15
            2292            2805     34.0285E-15     34.6794E-15
            2311            2806     32.8163E-15     32.2213E-15
            2312            2806     32.8163E-15     32.2213E-15
            2294            2806     32.8163E-15     32.2213E-15
            2293            2806     32.8163E-15     32.2213E-15
            2313            2807     27.0472E-15     26.3922E-15
            2294            2807     27.0472E-15     26.3922E-15
            2312            2807     27.0472E-15     26.3922E-15
            2295            2807     27.0472E-15     26.3922E-15
            2296            2808     30.2217E-15     31.7617E-15
            2313            2808     30.2217E-15     31.7617E-15
            2295            2808     30.2217E-15     31.7617E-15
            2314            2808     30.2217E-15     31.7617E-15
            2296            2809     25.7630E-15     26.0560E-15
            2315            2809     25.7630E-15     26.0560E-15
            2314            2809     25.7630E-15     26.0560E-15
            2297            2809     25.7630E-15     26.0560E-15
            2298            2810     25.8959E-15     21.7985E-15
            2315            2810     25.8959E-15     21.7985E-15
            2297            2810     25.8959E-15     21.7985E-15
            2316            2810     25.8959E-15     21.7985E-15
            2298            2811     19.9517E-15     15.6020E-15
            2299            2811     19.9517E-15     15.6020E-15
            2317            2811     19.9517E-15     15.6020E-15
            2316            2811     19.9517E-15     15.6020E-15
            2318            2812     16.7210E-15     15.6133E-15
            2317            2812     16.7210E-15     15.6133E-15
            2300            2812     16.7210E-15     15.6133E-15
            2299            2812     16.7210E-15     15.6133E-15
            2319            2813     21.1875E-15     21.7888E-15
            2301            2813     21.1875E-15     21.7888E-15
            2318            2813     21.1875E-15     21.7888E-15
            2300            2813     21.1875E-15     21.7888E-15
            2319            2814     18.8897E-15     16.4922E-15
            2320            2814     18.8897E-15     16.4922E-15
            2301            2814     18.8897E-15     16.4922E-15
            2302            2814     18.8897E-15     16.4922E-15
            2302            2815     21.1407E-15     13.4887E-15
            2321            2815     21.1407E-15     13.4887E-15
            2320            2815     21.1407E-15     13.4887E-15
            2303            2815     21.1407E-15     13.4887E-15
            2303            2816     27.1283E-15     31.6742E-15
            2322            2816     27.1283E-15     31.6742E-15
            2321            2816     27.1283E-15     31.6742E-15
            2304            2816     27.1283E-15     31.6742E-15
            2322            2817     22.9346E-15     37.4241E-15
            2305            2817     22.9346E-15     37.4241E-15
            2323            2817     22.9346E-15     37.4241E-15
            2304            2817     22.9346E-15     37.4241E-15
            2323            2818     15.3568E-15     22.0741E-15
            2305            2818     15.3568E-15     22.0741E-15
            2324            2818     15.3568E-15     22.0741E-15
            2306            2818     15.3568E-15     22.0741E-15
            2326            2819     28.4468E-15     28.7101E-15
            2307            2819     28.4468E-15     28.7101E-15
            2325            2819     28.4468E-15     28.7101E-15
            2308            2819     28.4468E-15     28.7101E-15
            2327            2820     35.4370E-15     35.2005E-15
            2309            2820     35.4370E-15     35.2005E-15
            2326            2820     35.4370E-15     35.2005E-15
            2308            2820     35.4370E-15     35.2005E-15
            2328            2821     35.6888E-15     35.0900E-15
            2309            2821     35.6888E-15     35.0900E-15
            2327            2821     35.6888E-15     35.0900E-15
            2310            2821     35.6888E-15     35.0900E-15
            2328            2822     23.9139E-15     23.9483E-15
            2311            2822     23.9139E-15     23.9483E-15
            2310            2822     23.9139E-15     23.9483E-15
            2329            2822     23.9139E-15     23.9483E-15
            2311            2823     19.7294E-15     20.3814E-15
            2330            2823     19.7294E-15     20.3814E-15
            2312            2823     19.7294E-15     20.3814E-15
            2329            2823     19.7294E-15     20.3814E-15
            2330            2824     23.9273E-15     25.7410E-15
            2312            2824     23.9273E-15     25.7410E-15
            2331            2824     23.9273E-15     25.7410E-15
            2313            2824     23.9273E-15     25.7410E-15
            2313            2825     32.6364E-15     36.3463E-15
            2314            2825     32.6364E-15     36.3463E-15
            2332            2825     32.6364E-15     36.3463E-15
            2331            2825     32.6364E-15     36.3463E-15
            2314            2826     30.0398E-15     30.4778E-15
            2315            2826     30.0398E-15     30.4778E-15
            2332            2826     30.0398E-15     30.4778E-15
            2333            2826     30.0398E-15     30.4778E-15
            2334            2827     19.4001E-15     16.8189E-15
            2316            2827     19.4001E-15     16.8189E-15
            2315            2827     19.4001E-15     16.8189E-15
            2333            2827     19.4001E-15     16.8189E-15
            2316            2828     14.3359E-15     8.34144E-15
            2335            2828     14.3359E-15     8.34144E-15
            2317            2828     14.3359E-15     8.34144E-15
            2334            2828     14.3359E-15     8.34144E-15
            2335            2829     22.3778E-15     12.4587E-15
            2317            2829     22.3778E-15     12.4587E-15
            2318            2829     22.3778E-15     12.4587E-15
            2336            2829     22.3778E-15     12.4587E-15
            2319            2830     26.8590E-15     18.6499E-15
            2336            2830     26.8590E-15     18.6499E-15
            2318            2830     26.8590E-15     18.6499E-15
            2337            2830     26.8590E-15     18.6499E-15
            2338            2831     25.3056E-15     19.3684E-15
            2320            2831     25.3056E-15     19.3684E-15
            2319            2831     25.3056E-15     19.3684E-15
            2337            2831     25.3056E-15     19.3684E-15
            2339            2832     27.8877E-15     20.0368E-15
            2320            2832     27.8877E-15     20.0368E-15
            2321            2832     27.8877E-15     20.0368E-15
            2338            2832     27.8877E-15     20.0368E-15
            2322            2833     27.8059E-15     25.7358E-15
            2339            2833     27.8059E-15     25.7358E-15
            2321            2833     27.8059E-15     25.7358E-15
            2340            2833     27.8059E-15     25.7358E-15
            2340            2834     21.8636E-15     26.8205E-15
            2323            2834     21.8636E-15     26.8205E-15
            2322            2834     21.8636E-15     26.8205E-15
            2341            2834     21.8636E-15     26.8205E-15
            2341            2835     21.7564E-15     32.4585E-15
            2342            2835     21.7564E-15     32.4585E-15
            2323            2835     21.7564E-15     32.4585E-15
            2324            2835     21.7564E-15     32.4585E-15
            3393            3784     3.47055E-03     5.12006E-03
            3394            3784     3.47055E-03     5.12006E-03
            3411            3784     3.47055E-03     5.12006E-03
            3412            3784     3.47055E-03     5.12006E-03
            3412            3785     7.13333E-03     8.93206E-03
            3395            3785     7.13333E-03     8.93206E-03
            3394            3785     7.13333E-03     8.93206E-03
            3413            3785     7.13333E-03     8.93206E-03
            3395            3786     10.9204E-03     12.9126E-03
            3396            3786     10.9204E-03     12.9126E-03
            3413            3786     10.9204E-03     12.9126E-03
            3414            3786     10.9204E-03     12.9126E-03
            3397            3787     14.7825E-03     16.8654E-03
            3396            3787     14.7825E-03     16.8654E-03
            3415            3787     14.7825E-03     16.8654E-03
            3414            3787     14.7825E-03     16.8654E-03
            3397            3788     18.6867E-03     20.7764E-03
            3398            3788     18.6867E-03     20.7764E-03
            3416            3788     18.6867E-03     20.7764E-03
            3415            3788     18.6867E-03     20.7764E-03
            3417            3789     22.6007E-03     24.6906E-03
            3416            3789     22.6007E-03     24.6906E-03
            3398            3789     22.6007E-03     24.6906E-03
            3399            3789     22.6007E-03     24.6906E-03
            3399            3790     26.5094E-03     28.5942E-03
            3417            3790     26.5094E-03     28.5942E-03
            3418            3790     26.5094E-03     28.5942E-03
            3400            3790     26.5094E-03     28.5942E-03
            3401            3791     30.4114E-03     32.4940E-03
            3400            3791     30.4114E-03     32.4940E-03
            3419            3791     30.4114E-03     32.4940E-03
            3418            3791     30.4114E-03     32.4940E-03
            3401            3792     34.2976E-03     36.3759E-03
            3419            3792     34.2976E-03     36.3759E-03
            3420            3792     34.2976E-03     36.3759E-03
            3402            3792     34.2976E-03     36.3759E-03
            3421            3793     38.1662E-03     40.2450E-03
            3403            3793     38.1662E-03     40.2450E-03
            3420            3793     38.1662E-03     40.2450E-03
            3402            3793     38.1662E-03     40.2450E-03
            3403            3794     42.0070E-03     44.0770E-03
            3404            3794     42.0070E-03     44.0770E-03
            3422            3794     42.0070E-03     44.0770E-03
            3421            3794     42.0070E-03     44.0770E-03
            3404            3795     45.8344E-03     47.8919E-03
            3422            3795     45.8344E-03     47.8919E-03
            3405            3795     45.8344E-03     47.8919E-03
            3423            3795     45.8344E-03     47.8919E-03
            3424            3796     49.6264E-03     51.6572E-03
            3423            3796     49.6264E-03     51.6572E-03
            3406            3796     49.6264E-03     51.6572E-03
            3405            3796     49.6264E-03     51.6572E-03
            3425            3797     53.5247E-03     55.4911E-03
            3407            3797     53.5247E-03     55.4911E-03
            3424            3797     53.5247E-03     55.4911E-03
            3406            3797     53.5247E-03     55.4911E-03
            3408            3798     57.4858E-03     59.4385E-03
            3426            3798     57.4858E-03     59.4385E-03
            3407            3798     57.4858E-03     59.4385E-03
            3425            3798     57.4858E-03     59.4385E-03
            3408            3799     62.3972E-03     64.2987E-03
            3426            3799     62.3972E-03     64.2987E-03
            3409            3799     62.3972E-03     64.2987E-03
            3427            3799     62.3972E-03     64.2987E-03
            3409            3800     69.6843E-03     71.0007E-03
            3427            3800     69.6843E-03     71.0007E-03
            3410            3800     69.6843E-03     71.0007E-03
            3428            3800     69.6843E-03     71.0007E-03
            3411            3801     3.81524E-03     5.29666E-03
            3430            3801     3.81524E-03     5.29666E-03
            3429            3801     3.81524E-03     5.29666E-03
            3412            3801     3.81524E-03     5.29666E-03
            3430            3802     7.42486E-03     8.86627E-03
            3412            3802     7.42486E-03     8.86627E-03
            3413            3802     7.42486E-03     8.86627E-03
            3431            3802     7.42486E-03     8.86627E-03
            3413            3803     11.2455E-03     12.7675E-03
            3431            3803     11.2455E-03     12.7675E-03
            3414            3803     11.2455E-03     12.7675E-03
            3432            3803     11.2455E-03     12.7675E-03
            3414            3804     15.1432E-03     16.6568E-03
            3415            3804     15.1432E-03     16.6568E-03
            3432            3804     15.1432E-03     16.6568E-03
            3433            3804     15.1432E-03     16.6568E-03
            3434            3805     19.0629E-03     20.5781E-03
            3415            3805     19.0629E-03     20.5781E-03
            3433            3805     19.0629E-03     20.5781E-03
            3416            3805     19.0629E-03     20.5781E-03
            3417            3806     22.9901E-03     24.5174E-03
            3435            3806     22.9901E-03     24.5174E-03
            3416            3806     22.9901E-03     24.5174E-03
            3434            3806     22.9901E-03     24.5174E-03
            3418            3807     26.9246E-03     28.4600E-03
            3435            3807     26.9246E-03     28.4600E-03
            3436            3807     26.9246E-03     28.4600E-03
            3417            3807     26.9246E-03     28.4600E-03
            3418            3808     30.8679E-03     32.4055E-03
            3436            3808     30.8679E-03     32.4055E-03
            3437            3808     30.8679E-03     32.4055E-03
            3419            3808     30.8679E-03     32.4055E-03
            3420            3809     34.8180E-03     36.3574E-03
            3419            3809     34.8180E-03     36.3574E-03
            3437            3809     34.8180E-03     36.3574E-03
            3438            3809     34.8180E-03     36.3574E-03
            3421            3810     38.7754E-03     40.3128E-03
            3438            3810     38.7754E-03     40.3128E-03
            3439            3810     38.7754E-03     40.3128E-03
            3420            3810     38.7754E-03     40.3128E-03
            3439            3811     42.7430E-03     44.2831E-03
            3421            3811     42.7430E-03     44.2831E-03
            3440            3811     42.7430E-03     44.2831E-03
            3422            3811     42.7430E-03     44.2831E-03
            3422            3812     46.7237E-03     48.2763E-03
            3441            3812     46.7237E-03     48.2763E-03
            3440            3812     46.7237E-03     48.2763E-03
            3423            3812     46.7237E-03     48.2763E-03
            3424            3813     50.7338E-03     52.3182E-03
            3423            3813     50.7338E-03     52.3182E-03
            3442            3813     50.7338E-03     52.3182E-03
            3441            3813     50.7338E-03     52.3182E-03
            3442            3814     54.8500E-03     56.5020E-03
            3443            3814     54.8500E-03     56.5020E-03
            3424            3814     54.8500E-03     56.5020E-03
            3425            3814     54.8500E-03     56.5020E-03
            3426            3815     59.1548E-03     60.8980E-03
            3444            3815     59.1548E-03     60.8980E-03
            3443            3815     59.1548E-03     60.8980E-03
            3425            3815     59.1548E-03     60.8980E-03
            3445            3816     64.5603E-03     66.0426E-03
            3426            3816     64.5603E-03     66.0426E-03
            3444            3816     64.5603E-03     66.0426E-03
            3427            3816     64.5603E-03     66.0426E-03
            3446            3817     70.0038E-03     70.4877E-03
            3428            3817     70.0038E-03     70.4877E-03
            3445            3817     70.0038E-03     70.4877E-03
            3427            3817     70.0038E-03     70.4877E-03
            3448            3818     5.42541E-03     6.15702E-03
            3429            3818     5.42541E-03     6.15702E-03
            3430            3818     5.42541E-03     6.15702E-03
            3447            3818     5.42541E-03     6.15702E-03
            3431            3819     8.33636E-03     9.54446E-03
            3430            3819     8.33636E-03     9.54446E-03
            3448            3819     8.33636E-03     9.54446E-03
            3449            3819     8.33636E-03     9.54446E-03
            3431            3820     11.9849E-03     13.0322E-03
            3449            3820     11.9849E-03     13.0322E-03
            3450            3820     11.9849E-03     13.0322E-03
            3432            3820     11.9849E-03     13.0322E-03
            3451            3821     15.8081E-03     16.7576E-03
            3450            3821     15.8081E-03     16.7576E-03
            3433            3821     15.8081E-03     16.7576E-03
            3432            3821     15.8081E-03     16.7576E-03
            3434            3822     19.6587E-03     20.6163E-03
            3452            3822     19.6587E-03     20.6163E-03
            3451            3822     19.6587E-03     20.6163E-03
            3433            3822     19.6587E-03     20.6163E-03
            3434            3823     23.5360E-03     24.5096E-03
            3435            3823     23.5360E-03     24.5096E-03
            3452            3823     23.5360E-03     24.5096E-03
            3453            3823     23.5360E-03     24.5096E-03
            3436            3824     27.4420E-03     28.4281E-03
            3435            3824     27.4420E-03     28.4281E-03
            3453            3824     27.4420E-03     28.4281E-03
            3454            3824     27.4420E-03     28.4281E-03
            3455            3825     31.3652E-03     32.3616E-03
            3437            3825     31.3652E-03     32.3616E-03
            3454            3825     31.3652E-03     32.3616E-03
            3436            3825     31.3652E-03     32.3616E-03
            3437            3826     35.3117E-03     36.3094E-03
            3456            3826     35.3117E-03     36.3094E-03
            3438            3826     35.3117E-03     36.3094E-03
            3455            3826     35.3117E-03     36.3094E-03
            3456            3827     39.2767E-03     40.2791E-03
            3438            3827     39.2767E-03     40.2791E-03
            3457            3827     39.2767E-03     40.2791E-03
            3439            3827     39.2767E-03     40.2791E-03
            3458            3828     43.2732E-03     44.2807E-03
            3439            3828     43.2732E-03     44.2807E-03
            3457            3828     43.2732E-03     44.2807E-03
            3440            3828     43.2732E-03     44.2807E-03
            3458            3829     47.2926E-03     48.3259E-03
            3459            3829     47.2926E-03     48.3259E-03
            3441            3829     47.2926E-03     48.3259E-03
            3440            3829     47.2926E-03     48.3259E-03
            3441            3830     51.3942E-03     52.4752E-03
            3459            3830     51.3942E-03     52.4752E-03
            3442            3830     51.3942E-03     52.4752E-03
            3460            3830     51.3942E-03     52.4752E-03
            3443            3831     55.5026E-03     56.7231E-03
            3442            3831     55.5026E-03     56.7231E-03
            3461            3831     55.5026E-03     56.7231E-03
            3460            3831     55.5026E-03     56.7231E-03
            3444            3832     60.0542E-03     61.2647E-03
            3443            3832     60.0542E-03     61.2647E-03
            3461            3832     60.0542E-03     61.2647E-03
            3462            3832     60.0542E-03     61.2647E-03
            3462            3833     64.5369E-03     65.7328E-03
            3445            3833     64.5369E-03     65.7328E-03
            3444            3833     64.5369E-03     65.7328E-03
            3463            3833     64.5369E-03     65.7328E-03
            3464            3834     67.8590E-03     69.4126E-03
            3463            3834     67.8590E-03     69.4126E-03
            3446            3834     67.8590E-03     69.4126E-03
            3445            3834     67.8590E-03     69.4126E-03
            3465            3835     7.28598E-03     8.07805E-03
            3466            3835     7.28598E-03     8.07805E-03
            3448            3835     7.28598E-03     8.07805E-03
            3447            3835     7.28598E-03     8.07805E-03
            3467            3836     9.71515E-03     10.5734E-03
            3466            3836     9.71515E-03     10.5734E-03
            3448            3836     9.71515E-03     10.5734E-03
            3449            3836     9.71515E-03     10.5734E-03
            3450            3837     13.1210E-03     13.6335E-03
            3467            3837     13.1210E-03     13.6335E-03
            3468            3837     13.1210E-03     13.6335E-03
            3449            3837     13.1210E-03     13.6335E-03
            3468            3838     16.7395E-03     17.1669E-03
            3469            3838     16.7395E-03     17.1669E-03
            3450            3838     16.7395E-03     17.1669E-03
            3451            3838     16.7395E-03     17.1669E-03
            3452            3839     20.4475E-03     20.8773E-03
            3469            3839     20.4475E-03     20.8773E-03
            3451            3839     20.4475E-03     20.8773E-03
            3470            3839     20.4475E-03     20.8773E-03
            3470            3840     24.2243E-03     24.6661E-03
            3453            3840     24.2243E-03     24.6661E-03
            3471            3840     24.2243E-03     24.6661E-03
            3452            3840     24.2243E-03     24.6661E-03
            3471            3841     28.0393E-03     28.4961E-03
            3453            3841     28.0393E-03     28.4961E-03
            3472            3841     28.0393E-03     28.4961E-03
            3454            3841     28.0393E-03     28.4961E-03
            3455            3842     31.8881E-03     32.3491E-03
            3472            3842     31.8881E-03     32.3491E-03
            3454            3842     31.8881E-03     32.3491E-03
            3473            3842     31.8881E-03     32.3491E-03
            3473            3843     35.7539E-03     36.2213E-03
            3455            3843     35.7539E-03     36.2213E-03
            3456            3843     35.7539E-03     36.2213E-03
            3474            3843     35.7539E-03     36.2213E-03
            3474            3844     39.6438E-03     40.1085E-03
            3456            3844     39.6438E-03     40.1085E-03
            3457            3844     39.6438E-03     40.1085E-03
            3475            3844     39.6438E-03     40.1085E-03
            3475            3845     43.5438E-03     44.0171E-03
            3476            3845     43.5438E-03     44.0171E-03
            3458            3845     43.5438E-03     44.0171E-03
            3457            3845     43.5438E-03     44.0171E-03
            3458            3846     47.4835E-03     47.9593E-03
            3476            3846     47.4835E-03     47.9593E-03
            3477            3846     47.4835E-03     47.9593E-03
            3459            3846     47.4835E-03     47.9593E-03
            3477            3847     51.4191E-03     51.9353E-03
            3459            3847     51.4191E-03     51.9353E-03
            3460            3847     51.4191E-03     51.9353E-03
            3478            3847     51.4191E-03     51.9353E-03
            3460            3848     55.4445E-03     55.9898E-03
            3478            3848     55.4445E-03     55.9898E-03
            3461            3848     55.4445E-03     55.9898E-03
            3479            3848     55.4445E-03     55.9898E-03
            3461            3849     59.3610E-03     60.0377E-03
            3480            3849     59.3610E-03     60.0377E-03
            3479            3849     59.3610E-03     60.0377E-03
            3462            3849     59.3610E-03     60.0377E-03
            3480            3850     62.9557E-03     63.8274E-03
            3462            3850     62.9557E-03     63.8274E-03
            3463            3850     62.9557E-03     63.8274E-03
            3481            3850     62.9557E-03     63.8274E-03
            3463            3851     65.7543E-03     66.1663E-03
            3481            3851     65.7543E-03     66.1663E-03
            3464            3851     65.7543E-03     66.1663E-03
            3482            3851     65.7543E-03     66.1663E-03
            3465            3852     9.10394E-03     10.1164E-03
            3466            3852     9.10394E-03     10.1164E-03
            3483            3852     9.10394E-03     10.1164E-03
            3484            3852     9.10394E-03     10.1164E-03
            3485            3853     11.5301E-03     11.7477E-03
            3466            3853     11.5301E-03     11.7477E-03
            3484            3853     11.5301E-03     11.7477E-03
            3467            3853     11.5301E-03     11.7477E-03
            3486            3854     14.5619E-03     14.5620E-03
            3468            3854     14.5619E-03     14.5620E-03
            3467            3854     14.5619E-03     14.5620E-03
            3485            3854     14.5619E-03     14.5620E-03
            3486            3855     17.9020E-03     17.8685E-03
            3469            3855     17.9020E-03     17.8685E-03
            3468            3855     17.9020E-03     17.8685E-03
            3487            3855     17.9020E-03     17.8685E-03
            3488            3856     21.4215E-03     21.3758E-03
            3469            3856     21.4215E-03     21.3758E-03
            3470            3856     21.4215E-03     21.3758E-03
            3487            3856     21.4215E-03     21.3758E-03
            3488            3857     25.0511E-03     25.0012E-03
            3471            3857     25.0511E-03     25.0012E-03
            3470            3857     25.0511E-03     25.0012E-03
            3489            3857     25.0511E-03     25.0012E-03
            3489            3858     28.7392E-03     28.6841E-03
            3472            3858     28.7392E-03     28.6841E-03
            3490            3858     28.7392E-03     28.6841E-03
            3471            3858     28.7392E-03     28.6841E-03
            3490            3859     32.4565E-03     32.4013E-03
            3491            3859     32.4565E-03     32.4013E-03
            3473            3859     32.4565E-03     32.4013E-03
            3472            3859     32.4565E-03     32.4013E-03
            3473            3860     36.1884E-03     36.1288E-03
            3491            3860     36.1884E-03     36.1288E-03
            3474            3860     36.1884E-03     36.1288E-03
            3492            3860     36.1884E-03     36.1288E-03
            3474            3861     39.9098E-03     39.8540E-03
            3492            3861     39.9098E-03     39.8540E-03
            3475            3861     39.9098E-03     39.8540E-03
            3493            3861     39.9098E-03     39.8540E-03
            3476            3862     43.6251E-03     43.5547E-03
            3494            3862     43.6251E-03     43.5547E-03
            3475            3862     43.6251E-03     43.5547E-03
            3493            3862     43.6251E-03     43.5547E-03
            3477            3863     47.2991E-03     47.2258E-03
            3476            3863     47.2991E-03     47.2258E-03
            3494            3863     47.2991E-03     47.2258E-03
            3495            3863     47.2991E-03     47.2258E-03
            3496            3864     50.9322E-03     50.8147E-03
            3478            3864     50.9322E-03     50.8147E-03
            3477            3864     50.9322E-03     50.8147E-03
            3495            3864     50.9322E-03     50.8147E-03
            3497            3865     54.4691E-03     54.2994E-03
            3496            3865     54.4691E-03     54.2994E-03
            3479            3865     54.4691E-03     54.2994E-03
            3478            3865     54.4691E-03     54.2994E-03
            3479            3866     57.6602E-03     57.4912E-03
            3498            3866     57.6602E-03     57.4912E-03
            3497            3866     57.6602E-03     57.4912E-03
            3480            3866     57.6602E-03     57.4912E-03
            3499            3867     60.4606E-03     60.2628E-03
            3480            3867     60.4606E-03     60.2628E-03
            3498            3867     60.4606E-03     60.2628E-03
            3481            3867     60.4606E-03     60.2628E-03
            3482            3868     62.4960E-03     62.1393E-03
            3499            3868     62.4960E-03     62.1393E-03
            3481            3868     62.4960E-03     62.1393E-03
            3500            3868     62.4960E-03     62.1393E-03
            3977            4243     5.80691E-03     6.58606E-03
            3959            4243     5.80691E-03     6.58606E-03
            3960            4243     5.80691E-03     6.58606E-03
            3978            4243     5.80691E-03     6.58606E-03
            3979            4244     8.99853E-03     9.40988E-03
            3978            4244     8.99853E-03     9.40988E-03
            3960            4244     8.99853E-03     9.40988E-03
            3961            4244     8.99853E-03     9.40988E-03
            3961            4245     12.3618E-03     12.7540E-03
            3980            4245     12.3618E-03     12.7540E-03
            3962            4245     12.3618E-03     12.7540E-03
            3979            4245     12.3618E-03     12.7540E-03
            3981            4246     15.9004E-03     16.2887E-03
            3980            4246     15.9004E-03     16.2887E-03
            3963            4246     15.9004E-03     16.2887E-03
            3962            4246     15.9004E-03     16.2887E-03
            3982            4247     19.5335E-03     19.9085E-03
            3963            4247     19.5335E-03     19.9085E-03
            3964            4247     19.5335E-03     19.9085E-03
            3981            4247     19.5335E-03     19.9085E-03
            3982            4248     23.2095E-03     23.5747E-03
            3983            4248     23.2095E-03     23.5747E-03
            3965            4248     23.2095E-03     23.5747E-03
            3964            4248     23.2095E-03     23.5747E-03
            3984            4249     26.9120E-03     27.2747E-03
            3966            4249     26.9120E-03     27.2747E-03
            3965            4249     26.9120E-03     27.2747E-03
            3983            4249     26.9120E-03     27.2747E-03
            3985            4250     30.6217E-03     30.9814E-03
            3966            4250     30.6217E-03     30.9814E-03
            3967            4250     30.6217E-03     30.9814E-03
            3984            4250     30.6217E-03     30.9814E-03
            3967            4251     34.3392E-03     34.7003E-03
            3985            4251     34.3392E-03     34.7003E-03
            3986            4251     34.3392E-03     34.7003E-03
            3968            4251     34.3392E-03     34.7003E-03
            3968            4252     38.0402E-03     38.4009E-03
            3986            4252     38.0402E-03     38.4009E-03
            3969            4252     38.0402E-03     38.4009E-03
            3987            4252     38.0402E-03     38.4009E-03
            3970            4253     41.7399E-03     42.0992E-03
            3987            4253     41.7399E-03     42.0992E-03
            3969            4253     41.7399E-03     42.0992E-03
            3988            4253     41.7399E-03     42.0992E-03
            3971            4254     45.3887E-03     45.7522E-03
            3970            4254     45.3887E-03     45.7522E-03
            3989            4254     45.3887E-03     45.7522E-03
            3988            4254     45.3887E-03     45.7522E-03
            3990            4255     49.0388E-03     49.3651E-03
            3971            4255     49.0388E-03     49.3651E-03
            3989            4255     49.0388E-03     49.3651E-03
            3972            4255     49.0388E-03     49.3651E-03
            3972            4256     52.5758E-03     52.9047E-03
            3990            4256     52.5758E-03     52.9047E-03
            3973            4256     52.5758E-03     52.9047E-03
            3991            4256     52.5758E-03     52.9047E-03
            3991            4257     56.0074E-03     56.2655E-03
            3973            4257     56.0074E-03     56.2655E-03
            3992            4257     56.0074E-03     56.2655E-03
            3974            4257     56.0074E-03     56.2655E-03
            3974            4258     59.1198E-03     59.3160E-03
            3993            4258     59.1198E-03     59.3160E-03
            3975            4258     59.1198E-03     59.3160E-03
            3992            4258     59.1198E-03     59.3160E-03
            3994            4259     61.8634E-03     62.4960E-03
            3976            4259     61.8634E-03     62.4960E-03
            3975            4259     61.8634E-03     62.4960E-03
            3993            4259     61.8634E-03     62.4960E-03
            3995            4260     7.58357E-03     8.41103E-03
            3996            4260     7.58357E-03     8.41103E-03
            3978            4260     7.58357E-03     8.41103E-03
            3977            4260     7.58357E-03     8.41103E-03
            3996            4261     10.3467E-03     10.5841E-03
            3997            4261     10.3467E-03     10.5841E-03
            3978            4261     10.3467E-03     10.5841E-03
            3979            4261     10.3467E-03     10.5841E-03
            3998            4262     13.6912E-03     13.8219E-03
            3979            4262     13.6912E-03     13.8219E-03
            3980            4262     13.6912E-03     13.8219E-03
            3997            4262     13.6912E-03     13.8219E-03
            3980            4263     17.3117E-03     17.4157E-03
            3998            4263     17.3117E-03     17.4157E-03
            3999            4263     17.3117E-03     17.4157E-03
            3981            4263     17.3117E-03     17.4157E-03
            4000            4264     21.0547E-03     21.1591E-03
            3982            4264     21.0547E-03     21.1591E-03
            3981            4264     21.0547E-03     21.1591E-03
            3999            4264     21.0547E-03     21.1591E-03
            3982            4265     24.8755E-03     24.9808E-03
            4000            4265     24.8755E-03     24.9808E-03
            3983            4265     24.8755E-03     24.9808E-03
            4001            4265     24.8755E-03     24.9808E-03
            4002            4266     28.7360E-03     28.8395E-03
            4001            4266     28.7360E-03     28.8395E-03
            3983            4266     28.7360E-03     28.8395E-03
            3984            4266     28.7360E-03     28.8395E-03
            4003            4267     32.6208E-03     32.7246E-03
            4002            4267     32.6208E-03     32.7246E-03
            3985            4267     32.6208E-03     32.7246E-03
            3984            4267     32.6208E-03     32.7246E-03
            4004            4268     36.5076E-03     36.6134E-03
            3985            4268     36.5076E-03     36.6134E-03
            3986            4268     36.5076E-03     36.6134E-03
            4003            4268     36.5076E-03     36.6134E-03
            3986            4269     40.4022E-03     40.5046E-03
            4005            4269     40.4022E-03     40.5046E-03
            4004            4269     40.4022E-03     40.5046E-03
            3987            4269     40.4022E-03     40.5046E-03
            4006            4270     44.2652E-03     44.3768E-03
            3988            4270     44.2652E-03     44.3768E-03
            3987            4270     44.2652E-03     44.3768E-03
            4005            4270     44.2652E-03     44.3768E-03
            4006            4271     48.1406E-03     48.2290E-03
            3988            4271     48.1406E-03     48.2290E-03
            3989            4271     48.1406E-03     48.2290E-03
            4007            4271     48.1406E-03     48.2290E-03
            3990            4272     51.9315E-03     52.0446E-03
            4008            4272     51.9315E-03     52.0446E-03
            3989            4272     51.9315E-03     52.0446E-03
            4007            4272     51.9315E-03     52.0446E-03
            4009            4273     55.7615E-03     55.8055E-03
            3991            4273     55.7615E-03     55.8055E-03
            4008            4273     55.7615E-03     55.8055E-03
            3990            4273     55.7615E-03     55.8055E-03
            4010            4274     59.3793E-03     59.4082E-03
            3991            4274     59.3793E-03     59.4082E-03
            3992            4274     59.3793E-03     59.4082E-03
            4009            4274     59.3793E-03     59.4082E-03
            4011            4275     62.5251E-03     62.7738E-03
            3992            4275     62.5251E-03     62.7738E-03
            4010            4275     62.5251E-03     62.7738E-03
            3993            4275     62.5251E-03     62.7738E-03
            4012            4276     65.2426E-03     65.0584E-03
            3993            4276     65.2426E-03     65.0584E-03
            3994            4276     65.2426E-03     65.0584E-03
            4011            4276     65.2426E-03     65.0584E-03
            4013            4277     5.74302E-03     6.67180E-03
            3996            4277     5.74302E-03     6.67180E-03
            3995            4277     5.74302E-03     6.67180E-03
            4014            4277     5.74302E-03     6.67180E-03
            4015            4278     8.69957E-03     9.66151E-03
            3997            4278     8.69957E-03     9.66151E-03
            4014            4278     8.69957E-03     9.66151E-03
            3996            4278     8.69957E-03     9.66151E-03
            4015            4279     12.4622E-03     13.1184E-03
            3997            4279     12.4622E-03     13.1184E-03
            3998            4279     12.4622E-03     13.1184E-03
            4016            4279     12.4622E-03     13.1184E-03
            4017            4280     16.2888E-03     16.9446E-03
            3998            4280     16.2888E-03     16.9446E-03
            3999            4280     16.2888E-03     16.9446E-03
            4016            4280     16.2888E-03     16.9446E-03
            4017            4281     20.1681E-03     20.8529E-03
            3999            4281     20.1681E-03     20.8529E-03
            4000            4281     20.1681E-03     20.8529E-03
            4018            4281     20.1681E-03     20.8529E-03
            4000            4282     24.0946E-03     24.7939E-03
            4019            4282     24.0946E-03     24.7939E-03
            4001            4282     24.0946E-03     24.7939E-03
            4018            4282     24.0946E-03     24.7939E-03
            4020            4283     28.0437E-03     28.7541E-03
            4002            4283     28.0437E-03     28.7541E-03
            4001            4283     28.0437E-03     28.7541E-03
            4019            4283     28.0437E-03     28.7541E-03
            4003            4284     32.0115E-03     32.7250E-03
            4020            4284     32.0115E-03     32.7250E-03
            4002            4284     32.0115E-03     32.7250E-03
            4021            4284     32.0115E-03     32.7250E-03
            4022            4285     35.9932E-03     36.7064E-03
            4021            4285     35.9932E-03     36.7064E-03
            4003            4285     35.9932E-03     36.7064E-03
            4004            4285     35.9932E-03     36.7064E-03
            4023            4286     39.9828E-03     40.6978E-03
            4005            4286     39.9828E-03     40.6978E-03
            4004            4286     39.9828E-03     40.6978E-03
            4022            4286     39.9828E-03     40.6978E-03
            4024            4287     43.9928E-03     44.7029E-03
            4023            4287     43.9928E-03     44.7029E-03
            4006            4287     43.9928E-03     44.7029E-03
            4005            4287     43.9928E-03     44.7029E-03
            4025            4288     48.0095E-03     48.7328E-03
            4006            4288     48.0095E-03     48.7328E-03
            4007            4288     48.0095E-03     48.7328E-03
            4024            4288     48.0095E-03     48.7328E-03
            4026            4289     52.0837E-03     52.8099E-03
            4025            4289     52.0837E-03     52.8099E-03
            4008            4289     52.0837E-03     52.8099E-03
            4007            4289     52.0837E-03     52.8099E-03
            4008            4290     56.1505E-03     56.9523E-03
            4009            4290     56.1505E-03     56.9523E-03
            4026            4290     56.1505E-03     56.9523E-03
            4027            4290     56.1505E-03     56.9523E-03
            4028            4291     60.4480E-03     61.2787E-03
            4027            4291     60.4480E-03     61.2787E-03
            4010            4291     60.4480E-03     61.2787E-03
            4009            4291     60.4480E-03     61.2787E-03
            4029            4292     64.8626E-03     65.6250E-03
            4011            4292     64.8626E-03     65.6250E-03
            4028            4292     64.8626E-03     65.6250E-03
            4010            4292     64.8626E-03     65.6250E-03
            4011            4293     67.9563E-03     68.7749E-03
            4030            4293     67.9563E-03     68.7749E-03
            4012            4293     67.9563E-03     68.7749E-03
            4029            4293     67.9563E-03     68.7749E-03
            4032            4294     4.06848E-03     5.31470E-03
            4013            4294     4.06848E-03     5.31470E-03
            4014            4294     4.06848E-03     5.31470E-03
            4031            4294     4.06848E-03     5.31470E-03
            4033            4295     7.66535E-03     9.06178E-03
            4032            4295     7.66535E-03     9.06178E-03
            4015            4295     7.66535E-03     9.06178E-03
            4014            4295     7.66535E-03     9.06178E-03
            4033            4296     11.5816E-03     12.8737E-03
            4034            4296     11.5816E-03     12.8737E-03
            4016            4296     11.5816E-03     12.8737E-03
            4015            4296     11.5816E-03     12.8737E-03
            4017            4297     15.5407E-03     16.8241E-03
            4034            4297     15.5407E-03     16.8241E-03
            4035            4297     15.5407E-03     16.8241E-03
            4016            4297     15.5407E-03     16.8241E-03
            4035            4298     19.5134E-03     20.8191E-03
            4018            4298     19.5134E-03     20.8191E-03
            4036            4298     19.5134E-03     20.8191E-03
            4017            4298     19.5134E-03     20.8191E-03
            4019            4299     23.4971E-03     24.8172E-03
            4037            4299     23.4971E-03     24.8172E-03
            4036            4299     23.4971E-03     24.8172E-03
            4018            4299     23.4971E-03     24.8172E-03
            4038            4300     27.4941E-03     28.8227E-03
            4019            4300     27.4941E-03     28.8227E-03
            4020            4300     27.4941E-03     28.8227E-03
            4037            4300     27.4941E-03     28.8227E-03
            4021            4301     31.4986E-03     32.8275E-03
            4039            4301     31.4986E-03     32.8275E-03
            4020            4301     31.4986E-03     32.8275E-03
            4038            4301     31.4986E-03     32.8275E-03
            4022            4302     35.5122E-03     36.8417E-03
            4021            4302     35.5122E-03     36.8417E-03
            4039            4302     35.5122E-03     36.8417E-03
            4040            4302     35.5122E-03     36.8417E-03
            4022            4303     39.5304E-03     40.8588E-03
            4040            4303     39.5304E-03     40.8588E-03
            4041            4303     39.5304E-03     40.8588E-03
            4023            4303     39.5304E-03     40.8588E-03
            4042            4304     43.5679E-03     44.8927E-03
            4024            4304     43.5679E-03     44.8927E-03
            4023            4304     43.5679E-03     44.8927E-03
            4041            4304     43.5679E-03     44.8927E-03
            4042            4305     47.6074E-03     48.9447E-03
            4025            4305     47.6074E-03     48.9447E-03
            4043            4305     47.6074E-03     48.9447E-03
            4024            4305     47.6074E-03     48.9447E-03
            4025            4306     51.6978E-03     53.0332E-03
            4026            4306     51.6978E-03     53.0332E-03
            4043            4306     51.6978E-03     53.0332E-03
            4044            4306     51.6978E-03     53.0332E-03
            4026            4307     55.7975E-03     57.2200E-03
            4044            4307     55.7975E-03     57.2200E-03
            4027            4307     55.7975E-03     57.2200E-03
            4045            4307     55.7975E-03     57.2200E-03
            4028            4308     60.0816E-03     61.5703E-03
            4027            4308     60.0816E-03     61.5703E-03
            4046            4308     60.0816E-03     61.5703E-03
            4045            4308     60.0816E-03     61.5703E-03
            4046            4309     65.1962E-03     66.4500E-03
            4029            4309     65.1962E-03     66.4500E-03
            4028            4309     65.1962E-03     66.4500E-03
            4047            4309     65.1962E-03     66.4500E-03
            4029            4310     69.8143E-03     70.5377E-03
            4030            4310     69.8143E-03     70.5377E-03
            4048            4310     69.8143E-03     70.5377E-03
            4047            4310     69.8143E-03     70.5377E-03
            4031            4311     3.52572E-03     5.14891E-03
            4049            4311     3.52572E-03     5.14891E-03
            4032            4311     3.52572E-03     5.14891E-03
            4050            4311     3.52572E-03     5.14891E-03
            4032            4312     7.29193E-03     9.02589E-03
            4051            4312     7.29193E-03     9.02589E-03
            4050            4312     7.29193E-03     9.02589E-03
            4033            4312     7.29193E-03     9.02589E-03
            4033            4313     11.1430E-03     13.0894E-03
            4051            4313     11.1430E-03     13.0894E-03
            4052            4313     11.1430E-03     13.0894E-03
            4034            4313     11.1430E-03     13.0894E-03
            4035            4314     15.1186E-03     17.0644E-03
            4052            4314     15.1186E-03     17.0644E-03
            4053            4314     15.1186E-03     17.0644E-03
            4034            4314     15.1186E-03     17.0644E-03
            4053            4315     19.1078E-03     21.0550E-03
            4035            4315     19.1078E-03     21.0550E-03
            4054            4315     19.1078E-03     21.0550E-03
            4036            4315     19.1078E-03     21.0550E-03
            4037            4316     23.0998E-03     25.0485E-03
            4055            4316     23.0998E-03     25.0485E-03
            4036            4316     23.0998E-03     25.0485E-03
            4054            4316     23.0998E-03     25.0485E-03
            4056            4317     27.0932E-03     29.0365E-03
            4055            4317     27.0932E-03     29.0365E-03
            4038            4317     27.0932E-03     29.0365E-03
            4037            4317     27.0932E-03     29.0365E-03
            4038            4318     31.0831E-03     33.0277E-03
            4056            4318     31.0831E-03     33.0277E-03
            4057            4318     31.0831E-03     33.0277E-03
            4039            4318     31.0831E-03     33.0277E-03
            4058            4319     35.0611E-03     37.0052E-03
            4040            4319     35.0611E-03     37.0052E-03
            4057            4319     35.0611E-03     37.0052E-03
            4039            4319     35.0611E-03     37.0052E-03
            4041            4320     39.0373E-03     40.9803E-03
            4059            4320     39.0373E-03     40.9803E-03
            4040            4320     39.0373E-03     40.9803E-03
            4058            4320     39.0373E-03     40.9803E-03
            4042            4321     42.9792E-03     44.9275E-03
            4059            4321     42.9792E-03     44.9275E-03
            4041            4321     42.9792E-03     44.9275E-03
            4060            4321     42.9792E-03     44.9275E-03
            4060            4322     46.9297E-03     48.8597E-03
            4061            4322     46.9297E-03     48.8597E-03
            4043            4322     46.9297E-03     48.8597E-03
            4042            4322     46.9297E-03     48.8597E-03
            4044            4323     50.7974E-03     52.7456E-03
            4061            4323     50.7974E-03     52.7456E-03
            4062            4323     50.7974E-03     52.7456E-03
            4043            4323     50.7974E-03     52.7456E-03
            4062            4324     54.7488E-03     56.6377E-03
            4045            4324     54.7488E-03     56.6377E-03
            4044            4324     54.7488E-03     56.6377E-03
            4063            4324     54.7488E-03     56.6377E-03
            4045            4325     58.6438E-03     60.5279E-03
            4046            4325     58.6438E-03     60.5279E-03
            4064            4325     58.6438E-03     60.5279E-03
            4063            4325     58.6438E-03     60.5279E-03
            4064            4326     63.0784E-03     65.0754E-03
            4047            4326     63.0784E-03     65.0754E-03
            4046            4326     63.0784E-03     65.0754E-03
            4065            4326     63.0784E-03     65.0754E-03
            4048            4327     69.5269E-03     70.7926E-03
            4047            4327     69.5269E-03     70.7926E-03
            4066            4327     69.5269E-03     70.7926E-03
            4065            4327     69.5269E-03     70.7926E-03
            5085            5225     19.8981E-15     19.4619E-15
            5086            5225     19.8981E-15     19.4619E-15
            5067            5225     19.8981E-15     19.4619E-15
            5068            5225     19.8981E-15     19.4619E-15
            5069            5226     15.6570E-15     16.7788E-15
            5086            5226     15.6570E-15     16.7788E-15
            5087            5226     15.6570E-15     16.7788E-15
            5068            5226     15.6570E-15     16.7788E-15
            5069            5227     21.8275E-15     22.0300E-15
            5070            5227     21.8275E-15     22.0300E-15
            5087            5227     21.8275E-15     22.0300E-15
            5088            5227     21.8275E-15     22.0300E-15
            5070            5228     25.5085E-15     25.3828E-15
            5089            5228     25.5085E-15     25.3828E-15
            5071            5228     25.5085E-15     25.3828E-15
            5088            5228     25.5085E-15     25.3828E-15
            5090            5229     17.3034E-15     19.3058E-15
            5089            5229     17.3034E-15     19.3058E-15
            5071            5229     17.3034E-15     19.3058E-15
            5072            5229     17.3034E-15     19.3058E-15
            5072            5230     12.1001E-15     14.0636E-15
            5090            5230     12.1001E-15     14.0636E-15
            5091            5230     12.1001E-15     14.0636E-15
            5073            5230     12.1001E-15     14.0636E-15
            5091            5231     13.1025E-15     13.8520E-15
            5092            5231     13.1025E-15     13.8520E-15
            5073            5231     13.1025E-15     13.8520E-15
            5074            5231     13.1025E-15     13.8520E-15
            5075            5232     17.3535E-15     16.5381E-15
            5093            5232     17.3535E-15     16.5381E-15
            5074            5232     17.3535E-15     16.5381E-15
            5092            5232     17.3535E-15     16.5381E-15
            5093            5233     23.4093E-15     23.0454E-15
            5076            5233     23.4093E-15     23.0454E-15
            5075            5233     23.4093E-15     23.0454E-15
            5094            5233     23.4093E-15     23.0454E-15
            5077            5234     24.8576E-15     26.2557E-15
            5095            5234     24.8576E-15     26.2557E-15
            5094            5234     24.8576E-15     26.2557E-15
            5076            5234     24.8576E-15     26.2557E-15
            5077            5235     19.0071E-15     18.7996E-15
            5096            5235     19.0071E-15     18.7996E-15
            5095            5235     19.0071E-15     18.7996E-15
            5078            5235     19.0071E-15     18.7996E-15
            5097            5236     13.1213E-15     11.3018E-15
            5079            5236     13.1213E-15     11.3018E-15
            5078            5236     13.1213E-15     11.3018E-15
            5096            5236     13.1213E-15     11.3018E-15
            5080            5237     20.4972E-15     20.7367E-15
            5079            5237     20.4972E-15     20.7367E-15
            5097            5237     20.4972E-15     20.7367E-15
            5098            5237     20.4972E-15     20.7367E-15
            5080            5238     27.4665E-15     27.6636E-15
            5099            5238     27.4665E-15     27.6636E-15
            5081            5238     27.4665E-15     27.6636E-15
            5098            5238     27.4665E-15     27.6636E-15
            5081            5239     21.0289E-15     20.6533E-15
            5100            5239     21.0289E-15     20.6533E-15
            5082            5239     21.0289E-15     20.6533E-15
            5099            5239     21.0289E-15     20.6533E-15
            5101            5240     15.2645E-15     15.1606E-15
            5083            5240     15.2645E-15     15.1606E-15
            5100            5240     15.2645E-15     15.1606E-15
            5082            5240     15.2645E-15     15.1606E-15
            5101            5241     12.5862E-15     12.8322E-15
            5102            5241     12.5862E-15     12.8322E-15
            5083            5241     12.5862E-15     12.8322E-15
            5084            5241     12.5862E-15     12.8322E-15
            5086            5242     22.9583E-15     22.7669E-15
            5103            5242     22.9583E-15     22.7669E-15
            5085            5242     22.9583E-15     22.7669E-15
            5104            5242     22.9583E-15     22.7669E-15
            5104            5243     22.5773E-15     25.4304E-15
            5105            5243     22.5773E-15     25.4304E-15
            5086            5243     22.5773E-15     25.4304E-15
            5087            5243     22.5773E-15     25.4304E-15
            5106            5244     26.5626E-15     30.4334E-15
            5087            5244     26.5626E-15     30.4334E-15
            5088            5244     26.5626E-15     30.4334E-15
            5105            5244     26.5626E-15     30.4334E-15
            5088            5245     29.2000E-15     30.7253E-15
            5089            5245     29.2000E-15     30.7253E-15
            5106            5245     29.2000E-15     30.7253E-15
            5107            5245     29.2000E-15     30.7253E-15
            5107            5246     15.5279E-15     16.3400E-15
            5089            5246     15.5279E-15     16.3400E-15
            5108            5246     15.5279E-15     16.3400E-15
            5090            5246     15.5279E-15     16.3400E-15
            5091            5247     10.0685E-15     9.81099E-15
            5108            5247     10.0685E-15     9.81099E-15
            5090            5247     10.0685E-15     9.81099E-15
            5109            5247     10.0685E-15     9.81099E-15
            5091            5248     12.5824E-15     12.4740E-15
            5092            5248     12.5824E-15     12.4740E-15
            5110            5248     12.5824E-15     12.4740E-15
            5109            5248     12.5824E-15     12.4740E-15
            5111            5249     14.5208E-15     15.9924E-15
            5110            5249     14.5208E-15     15.9924E-15
            5093            5249     14.5208E-15     15.9924E-15
            5092            5249     14.5208E-15     15.9924E-15
            5094            5250     16.9319E-15     18.2532E-15
            5093            5250     16.9319E-15     18.2532E-15
            5112            5250     16.9319E-15     18.2532E-15
            5111            5250     16.9319E-15     18.2532E-15
            5112            5251     17.0134E-15     17.7024E-15
            5113            5251     17.0134E-15     17.7024E-15
            5095            5251     17.0134E-15     17.7024E-15
            5094            5251     17.0134E-15     17.7024E-15
            5113            5252     16.7275E-15     15.1579E-15
            5096            5252     16.7275E-15     15.1579E-15
            5114            5252     16.7275E-15     15.1579E-15
            5095            5252     16.7275E-15     15.1579E-15
            5114            5253     18.4001E-15     16.6705E-15
            5096            5253     18.4001E-15     16.6705E-15
            5115            5253     18.4001E-15     16.6705E-15
            5097            5253     18.4001E-15     16.6705E-15
            5115            5254     25.8104E-15     26.3088E-15
            5116            5254     25.8104E-15     26.3088E-15
            5098            5254     25.8104E-15     26.3088E-15
            5097            5254     25.8104E-15     26.3088E-15
            5117            5255     27.3045E-15     27.7767E-15
            5116            5255     27.3045E-15     27.7767E-15
            5099            5255     27.3045E-15     27.7767E-15
            5098            5255     27.3045E-15     27.7767E-15
            5099            5256     17.5108E-15     17.4090E-15
            5100            5256     17.5108E-15     17.4090E-15
            5118            5256     17.5108E-15     17.4090E-15
            5117            5256     17.5108E-15     17.4090E-15
            5100            5257     13.2555E-15     12.6411E-15
            5118            5257     13.2555E-15     12.6411E-15
            5101            5257     13.2555E-15     12.6411E-15
            5119            5257     13.2555E-15     12.6411E-15
            5102            5258     17.8281E-15     18.0970E-15
            5119            5258     17.8281E-15     18.0970E-15
            5101            5258     17.8281E-15     18.0970E-15
            5120            5258     17.8281E-15     18.0970E-15
            5103            5259     17.4339E-15     15.7632E-15
            5121            5259     17.4339E-15     15.7632E-15
            5104            5259     17.4339E-15     15.7632E-15
            5122            5259     17.4339E-15     15.7632E-15
            5104            5260     17.7431E-15     17.7001E-15
            5123            5260     17.7431E-15     17.7001E-15
            5105            5260     17.7431E-15     17.7001E-15
            5122            5260     17.7431E-15     17.7001E-15
            5123            5261     20.5136E-15     21.8747E-15
            5105            5261     20.5136E-15     21.8747E-15
            5106            5261     20.5136E-15     21.8747E-15
            5124            5261     20.5136E-15     21.8747E-15
            5125            5262     20.7628E-15     22.0069E-15
            5107            5262     20.7628E-15     22.0069E-15
            5106            5262     20.7628E-15     22.0069E-15
            5124            5262     20.7628E-15     22.0069E-15
            5108            5263     13.9142E-15     15.7570E-15
            5126            5263     13.9142E-15     15.7570E-15
            5107            5263     13.9142E-15     15.7570E-15
            5125            5263     13.9142E-15     15.7570E-15
            5108            5264     14.6306E-15     15.4207E-15
            5109            5264     14.6306E-15     15.4207E-15
            5127            5264     14.6306E-15     15.4207E-15
            5126            5264     14.6306E-15     15.4207E-15
            5128            5265     16.9835E-15     16.3115E-15
            5127            5265     16.9835E-15     16.3115E-15
            5110            5265     16.9835E-15     16.3115E-15
            5109            5265     16.9835E-15     16.3115E-15
            5110            5266     16.4012E-15     16.0333E-15
            5129            5266     16.4012E-15     16.0333E-15
            5111            5266     16.4012E-15     16.0333E-15
            5128            5266     16.4012E-15     16.0333E-15
            5111            5267     12.9161E-15     13.4411E-15
            5112            5267     12.9161E-15     13.4411E-15
            5130            5267     12.9161E-15     13.4411E-15
            5129            5267     12.9161E-15     13.4411E-15
            5112            5268     16.3373E-15     15.9512E-15
            5113            5268     16.3373E-15     15.9512E-15
            5131            5268     16.3373E-15     15.9512E-15
            5130            5268     16.3373E-15     15.9512E-15
            5113            5269     17.4068E-15     15.2358E-15
            5131            5269     17.4068E-15     15.2358E-15
            5114            5269     17.4068E-15     15.2358E-15
            5132            5269     17.4068E-15     15.2358E-15
            5133            5270     15.0793E-15     14.1864E-15
            5115            5270     15.0793E-15     14.1864E-15
            5132            5270     15.0793E-15     14.1864E-15
            5114            5270     15.0793E-15     14.1864E-15
            5115            5271     20.4753E-15     21.1078E-15
            5134            5271     20.4753E-15     21.1078E-15
            5116            5271     20.4753E-15     21.1078E-15
            5133            5271     20.4753E-15     21.1078E-15
            5135            5272     19.1191E-15     19.3384E-15
            5117            5272     19.1191E-15     19.3384E-15
            5134            5272     19.1191E-15     19.3384E-15
            5116            5272     19.1191E-15     19.3384E-15
            5118            5273     15.6969E-15     16.4037E-15
            5136            5273     15.6969E-15     16.4037E-15
            5135            5273     15.6969E-15     16.4037E-15
            5117            5273     15.6969E-15     16.4037E-15
            5136            5274     12.7644E-15     13.4993E-15
            5118            5274     12.7644E-15     13.4993E-15
            5137            5274     12.7644E-15     13.4993E-15
            5119            5274     12.7644E-15     13.4993E-15
            5119            5275     19.4555E-15     19.3293E-15
            5120            5275     19.4555E-15     19.3293E-15
            5137            5275     19.4555E-15     19.3293E-15
            5138            5275     19.4555E-15     19.3293E-15
            5139            5276     12.4942E-15     9.64479E-15
            5121            5276     12.4942E-15     9.64479E-15
            5122            5276     12.4942E-15     9.64479E-15
            5140            5276     12.4942E-15     9.64479E-15
            5122            5277     16.7137E-15     14.3375E-15
            5123            5277     16.7137E-15     14.3375E-15
            5140            5277     16.7137E-15     14.3375E-15
            5141            5277     16.7137E-15     14.3375E-15
            5142            5278     21.8298E-15     19.2599E-15
            5141            5278     21.8298E-15     19.2599E-15
            5124            5278     21.8298E-15     19.2599E-15
            5123            5278     21.8298E-15     19.2599E-15
            5125            5279     17.9586E-15     20.1586E-15
            5124            5279     17.9586E-15     20.1586E-15
            5143            5279     17.9586E-15     20.1586E-15
            5142            5279     17.9586E-15     20.1586E-15
            5144            5280     18.5415E-15     22.2291E-15
            5143            5280     18.5415E-15     22.2291E-15
            5126            5280     18.5415E-15     22.2291E-15
            5125            5280     18.5415E-15     22.2291E-15
            5127            5281     18.5794E-15     18.2754E-15
            5126            5281     18.5794E-15     18.2754E-15
            5145            5281     18.5794E-15     18.2754E-15
            5144            5281     18.5794E-15     18.2754E-15
            5146            5282     18.6988E-15     17.6970E-15
            5128            5282     18.6988E-15     17.6970E-15
            5145            5282     18.6988E-15     17.6970E-15
            5127            5282     18.6988E-15     17.6970E-15
            5147            5283     23.3295E-15     22.6545E-15
            5128            5283     23.3295E-15     22.6545E-15
            5146            5283     23.3295E-15     22.6545E-15
            5129            5283     23.3295E-15     22.6545E-15
            5129            5284     17.5779E-15     17.5349E-15
            5130            5284     17.5779E-15     17.5349E-15
            5147            5284     17.5779E-15     17.5349E-15
            5148            5284     17.5779E-15     17.5349E-15
            5130            5285     19.5326E-15     19.7200E-15
            5149            5285     19.5326E-15     19.7200E-15
            5131            5285     19.5326E-15     19.7200E-15
            5148            5285     19.5326E-15     19.7200E-15
            5150            5286     26.4233E-15     25.9494E-15
            5149            5286     26.4233E-15     25.9494E-15
            5131            5286     26.4233E-15     25.9494E-15
            5132            5286     26.4233E-15     25.9494E-15
            5151            5287     15.9697E-15     15.5031E-15
            5132            5287     15.9697E-15     15.5031E-15
            5133            5287     15.9697E-15     15.5031E-15
            5150            5287     15.9697E-15     15.5031E-15
            5151            5288     11.0185E-15     11.4852E-15
            5152            5288     11.0185E-15     11.4852E-15
            5134            5288     11.0185E-15     11.4852E-15
            5133            5288     11.0185E-15     11.4852E-15
            5135            5289     14.2158E-15     14.4214E-15
            5152            5289     14.2158E-15     14.4214E-15
            5134            5289     14.2158E-15     14.4214E-15
            5153            5289     14.2158E-15     14.4214E-15
            5135            5290     18.9244E-15     19.3591E-15
            5136            5290     18.9244E-15     19.3591E-15
            5154            5290     18.9244E-15     19.3591E-15
            5153            5290     18.9244E-15     19.3591E-15
            5137            5291     24.5300E-15     25.3591E-15
            5155            5291     24.5300E-15     25.3591E-15
            5154            5291     24.5300E-15     25.3591E-15
            5136            5291     24.5300E-15     25.3591E-15
            5155            5292     29.6496E-15     29.8121E-15
            5156            5292     29.6496E-15     29.8121E-15
            5138            5292     29.6496E-15     29.8121E-15
            5137            5292     29.6496E-15     29.8121E-15
            5157            5293     19.4490E-15     18.2620E-15
            5140            5293     19.4490E-15     18.2620E-15
            5158            5293     19.4490E-15     18.2620E-15
            5139            5293     19.4490E-15     18.2620E-15
            5141            5294     27.3592E-15     24.7536E-15
            5159            5294     27.3592E-15     24.7536E-15
            5140            5294     27.3592E-15     24.7536E-15
            5158            5294     27.3592E-15     24.7536E-15
            5159            5295     35.9761E-15     34.5440E-15
            5142            5295     35.9761E-15     34.5440E-15
            5141            5295     35.9761E-15     34.5440E-15
            5160            5295     35.9761E-15     34.5440E-15
            5142            5296     29.9170E-15     32.2571E-15
            5161            5296     29.9170E-15     32.2571E-15
            5160            5296     29.9170E-15     32.2571E-15
            5143            5296     29.9170E-15     32.2571E-15
            5143            5297     20.4841E-15     24.8693E-15
            5162            5297     20.4841E-15     24.8693E-15
            5161            5297     20.4841E-15     24.8693E-15
            5144            5297     20.4841E-15     24.8693E-15
            5144            5298     14.3298E-15     15.5551E-15
            5145            5298     14.3298E-15     15.5551E-15
            5162            5298     14.3298E-15     15.5551E-15
            5163            5298     14.3298E-15     15.5551E-15
            5145            5299     18.3132E-15     19.1038E-15
            5164            5299     18.3132E-15     19.1038E-15
            5146            5299     18.3132E-15     19.1038E-15
            5163            5299     18.3132E-15     19.1038E-15
            5164            5300     21.7059E-15     23.1291E-15
            5146            5300     21.7059E-15     23.1291E-15
            5165            5300     21.7059E-15     23.1291E-15
            5147            5300     21.7059E-15     23.1291E-15
            5166            5301     13.1617E-15     13.2035E-15
            5147            5301     13.1617E-15     13.2035E-15
            5148            5301     13.1617E-15     13.2035E-15
            5165            5301     13.1617E-15     13.2035E-15
            5149            5302     13.5942E-15     14.8950E-15
            5148            5302     13.5942E-15     14.8950E-15
            5167            5302     13.5942E-15     14.8950E-15
            5166            5302     13.5942E-15     14.8950E-15
            5168            5303     23.5694E-15     24.2345E-15
            5149            5303     23.5694E-15     24.2345E-15
            5150            5303     23.5694E-15     24.2345E-15
            5167            5303     23.5694E-15     24.2345E-15
            5151            5304     21.0571E-15     19.4904E-15
            5168            5304     21.0571E-15     19.4904E-15
            5150            5304     21.0571E-15     19.4904E-15
            5169            5304     21.0571E-15     19.4904E-15
            5170            5305     13.4929E-15     13.2415E-15
            5152            5305     13.4929E-15     13.2415E-15
            5151            5305     13.4929E-15     13.2415E-15
            5169            5305     13.4929E-15     13.2415E-15
            5152            5306     19.4947E-15     19.1097E-15
            5171            5306     19.4947E-15     19.1097E-15
            5170            5306     19.4947E-15     19.1097E-15
            5153            5306     19.4947E-15     19.1097E-15
            5172            5307     24.0934E-15     23.1731E-15
            5171            5307     24.0934E-15     23.1731E-15
            5153            5307     24.0934E-15     23.1731E-15
            5154            5307     24.0934E-15     23.1731E-15
            5154            5308     26.7767E-15     26.5803E-15
            5173            5308     26.7767E-15     26.5803E-15
            5172            5308     26.7767E-15     26.5803E-15
            5155            5308     26.7767E-15     26.5803E-15
            5156            5309     29.1652E-15     29.0628E-15
            5174            5309     29.1652E-15     29.0628E-15
            5173            5309     29.1652E-15     29.0628E-15
            5155            5309     29.1652E-15     29.0628E-15
            5865            5862     3.59236E-03     4.45325E-03
            5866            5862     3.59236E-03     4.45325E-03
            5848            5862     3.59236E-03     4.45325E-03
            5847            5862     3.59236E-03     4.45325E-03
            5848            5863     6.41510E-03     7.34783E-03
            5867            5863     6.41510E-03     7.34783E-03
            5866            5863     6.41510E-03     7.34783E-03
            5849            5863     6.41510E-03     7.34783E-03
            5849            5864     9.39420E-03     10.4702E-03
            5868            5864     9.39420E-03     10.4702E-03
            5850            5864     9.39420E-03     10.4702E-03
            5867            5864     9.39420E-03     10.4702E-03
            5868            5865     12.4649E-03     13.6332E-03
            5851            5865     12.4649E-03     13.6332E-03
            5850            5865     12.4649E-03     13.6332E-03
            5869            5865     12.4649E-03     13.6332E-03
            5870            5866     15.5808E-03     16.8036E-03
            5852            5866     15.5808E-03     16.8036E-03
            5851            5866     15.5808E-03     16.8036E-03
            5869            5866     15.5808E-03     16.8036E-03
            5870            5867     18.7175E-03     19.9682E-03
            5852            5867     18.7175E-03     19.9682E-03
            5853            5867     18.7175E-03     19.9682E-03
            5871            5867     18.7175E-03     19.9682E-03
            5853            5868     21.8701E-03     23.1276E-03
            5872            5868     21.8701E-03     23.1276E-03
            5871            5868     21.8701E-03     23.1276E-03
            5854            5868     21.8701E-03     23.1276E-03
            5854            5869     25.0289E-03     26.2805E-03
            5872            5869     25.0289E-03     26.2805E-03
            5855            5869     25.0289E-03     26.2805E-03
            5873            5869     25.0289E-03     26.2805E-03
            5874            5870     28.2028E-03     29.4290E-03
            5855            5870     28.2028E-03     29.4290E-03
            5873            5870     28.2028E-03     29.4290E-03
            5856            5870     28.2028E-03     29.4290E-03
            5874            5871     31.3867E-03     32.5825E-03
            5875            5871     31.3867E-03     32.5825E-03
            5857            5871     31.3867E-03     32.5825E-03
            5856            5871     31.3867E-03     32.5825E-03
            5876            5872     34.6084E-03     35.7476E-03
            5875            5872     34.6084E-03     35.7476E-03
            5857            5872     34.6084E-03     35.7476E-03
            5858            5872     34.6084E-03     35.7476E-03
            5858            5873     37.8648E-03     38.9553E-03
            5877            5873     37.8648E-03     38.9553E-03
            5876            5873     37.8648E-03     38.9553E-03
            5859            5873     37.8648E-03     38.9553E-03
            5878            5874     41.2277E-03     42.2356E-03
            5860            5874     41.2277E-03     42.2356E-03
            5877            5874     41.2277E-03     42.2356E-03
            5859            5874     41.2277E-03     42.2356E-03
            5861            5875     44.6958E-03     45.6695E-03
            5878            5875     44.6958E-03     45.6695E-03
            5879            5875     44.6958E-03     45.6695E-03
            5860            5875     44.6958E-03     45.6695E-03
            5879            5876     48.4773E-03     49.4110E-03
            5880            5876     48.4773E-03     49.4110E-03
            5861            5876     48.4773E-03     49.4110E-03
            5862            5876     48.4773E-03     49.4110E-03
            5880            5877     52.5876E-03     53.6650E-03
            5862            5877     52.5876E-03     53.6650E-03
            5863            5877     52.5876E-03     53.6650E-03
            5881            5877     52.5876E-03     53.6650E-03
            5863            5878     58.3604E-03     60.2247E-03
            5881            5878     58.3604E-03     60.2247E-03
            5864            5878     58.3604E-03     60.2247E-03
            5882            5878     58.3604E-03     60.2247E-03
            5865            5879     3.57542E-03     4.74918E-03
            5883            5879     3.57542E-03     4.74918E-03
            5866            5879     3.57542E-03     4.74918E-03
            5884            5879     3.57542E-03     4.74918E-03
            5884            5880     6.08950E-03     7.17496E-03
            5866            5880     6.08950E-03     7.17496E-03
            5867            5880     6.08950E-03     7.17496E-03
            5885            5880     6.08950E-03     7.17496E-03
            5868            5881     8.82283E-03     10.0870E-03
            5867            5881     8.82283E-03     10.0870E-03
            5885            5881     8.82283E-03     10.0870E-03
            5886            5881     8.82283E-03     10.0870E-03
            5868            5882     11.6711E-03     13.0674E-03
            5886            5882     11.6711E-03     13.0674E-03
            5869            5882     11.6711E-03     13.0674E-03
            5887            5882     11.6711E-03     13.0674E-03
            5888            5883     14.5663E-03     16.0502E-03
            5869            5883     14.5663E-03     16.0502E-03
            5887            5883     14.5663E-03     16.0502E-03
            5870            5883     14.5663E-03     16.0502E-03
            5888            5884     17.4958E-03     19.0253E-03
            5870            5884     17.4958E-03     19.0253E-03
            5871            5884     17.4958E-03     19.0253E-03
            5889            5884     17.4958E-03     19.0253E-03
            5872            5885     20.4398E-03     21.9865E-03
            5889            5885     20.4398E-03     21.9865E-03
            5890            5885     20.4398E-03     21.9865E-03
            5871            5885     20.4398E-03     21.9865E-03
            5891            5886     23.4035E-03     24.9401E-03
            5873            5886     23.4035E-03     24.9401E-03
            5872            5886     23.4035E-03     24.9401E-03
            5890            5886     23.4035E-03     24.9401E-03
            5873            5887     26.3817E-03     27.8890E-03
            5874            5887     26.3817E-03     27.8890E-03
            5891            5887     26.3817E-03     27.8890E-03
            5892            5887     26.3817E-03     27.8890E-03
            5893            5888     29.3999E-03     30.8561E-03
            5874            5888     29.3999E-03     30.8561E-03
            5875            5888     29.3999E-03     30.8561E-03
            5892            5888     29.3999E-03     30.8561E-03
            5876            5889     32.4664E-03     33.8565E-03
            5875            5889     32.4664E-03     33.8565E-03
            5894            5889     32.4664E-03     33.8565E-03
            5893            5889     32.4664E-03     33.8565E-03
            5895            5890     35.6540E-03     36.9611E-03
            5876            5890     35.6540E-03     36.9611E-03
            5894            5890     35.6540E-03     36.9611E-03
            5877            5890     35.6540E-03     36.9611E-03
            5878            5891     38.9938E-03     40.2191E-03
            5877            5891     38.9938E-03     40.2191E-03
            5896            5891     38.9938E-03     40.2191E-03
            5895            5891     38.9938E-03     40.2191E-03
            5879            5892     42.7023E-03     43.8513E-03
            5897            5892     42.7023E-03     43.8513E-03
            5878            5892     42.7023E-03     43.8513E-03
            5896            5892     42.7023E-03     43.8513E-03
            5879            5893     46.8654E-03     48.0072E-03
            5898            5893     46.8654E-03     48.0072E-03
            5897            5893     46.8654E-03     48.0072E-03
            5880            5893     46.8654E-03     48.0072E-03
            5881            5894     52.3531E-03     53.5734E-03
            5899            5894     52.3531E-03     53.5734E-03
            5880            5894     52.3531E-03     53.5734E-03
            5898            5894     52.3531E-03     53.5734E-03
            5900            5895     60.3837E-03     61.2448E-03
            5899            5895     60.3837E-03     61.2448E-03
            5882            5895     60.3837E-03     61.2448E-03
            5881            5895     60.3837E-03     61.2448E-03
            5902            5896     2.73291E-03     4.13842E-03
            5883            5896     2.73291E-03     4.13842E-03
            5901            5896     2.73291E-03     4.13842E-03
            5884            5896     2.73291E-03     4.13842E-03
            5903            5897     5.66089E-03     6.94327E-03
            5884            5897     5.66089E-03     6.94327E-03
            5902            5897     5.66089E-03     6.94327E-03
            5885            5897     5.66089E-03     6.94327E-03
            5903            5898     8.72674E-03     9.94896E-03
            5885            5898     8.72674E-03     9.94896E-03
            5904            5898     8.72674E-03     9.94896E-03
            5886            5898     8.72674E-03     9.94896E-03
            5886            5899     11.7600E-03     13.0422E-03
            5904            5899     11.7600E-03     13.0422E-03
            5905            5899     11.7600E-03     13.0422E-03
            5887            5899     11.7600E-03     13.0422E-03
            5905            5900     14.8066E-03     16.1298E-03
            5888            5900     14.8066E-03     16.1298E-03
            5887            5900     14.8066E-03     16.1298E-03
            5906            5900     14.8066E-03     16.1298E-03
            5888            5901     17.8582E-03     19.2138E-03
            5906            5901     17.8582E-03     19.2138E-03
            5889            5901     17.8582E-03     19.2138E-03
            5907            5901     17.8582E-03     19.2138E-03
            5907            5902     20.9215E-03     22.2908E-03
            5890            5902     20.9215E-03     22.2908E-03
            5908            5902     20.9215E-03     22.2908E-03
            5889            5902     20.9215E-03     22.2908E-03
            5908            5903     23.9929E-03     25.3680E-03
            5890            5903     23.9929E-03     25.3680E-03
            5891            5903     23.9929E-03     25.3680E-03
            5909            5903     23.9929E-03     25.3680E-03
            5909            5904     27.0886E-03     28.4566E-03
            5892            5904     27.0886E-03     28.4566E-03
            5910            5904     27.0886E-03     28.4566E-03
            5891            5904     27.0886E-03     28.4566E-03
            5893            5905     30.2125E-03     31.5735E-03
            5910            5905     30.2125E-03     31.5735E-03
            5911            5905     30.2125E-03     31.5735E-03
            5892            5905     30.2125E-03     31.5735E-03
            5911            5906     33.4109E-03     34.7517E-03
            5893            5906     33.4109E-03     34.7517E-03
            5912            5906     33.4109E-03     34.7517E-03
            5894            5906     33.4109E-03     34.7517E-03
            5912            5907     36.7094E-03     38.0420E-03
            5913            5907     36.7094E-03     38.0420E-03
            5894            5907     36.7094E-03     38.0420E-03
            5895            5907     36.7094E-03     38.0420E-03
            5913            5908     40.2282E-03     41.5316E-03
            5896            5908     40.2282E-03     41.5316E-03
            5895            5908     40.2282E-03     41.5316E-03
            5914            5908     40.2282E-03     41.5316E-03
            5914            5909     44.0813E-03     45.3747E-03
            5915            5909     44.0813E-03     45.3747E-03
            5897            5909     44.0813E-03     45.3747E-03
            5896            5909     44.0813E-03     45.3747E-03
            5898            5910     48.5412E-03     49.7754E-03
            5897            5910     48.5412E-03     49.7754E-03
            5915            5910     48.5412E-03     49.7754E-03
            5916            5910     48.5412E-03     49.7754E-03
            5917            5911     54.4586E-03     55.2968E-03
            5916            5911     54.4586E-03     55.2968E-03
            5898            5911     54.4586E-03     55.2968E-03
            5899            5911     54.4586E-03     55.2968E-03
            5918            5912     60.5965E-03     60.8411E-03
            5917            5912     60.5965E-03     60.8411E-03
            5900            5912     60.5965E-03     60.8411E-03
            5899            5912     60.5965E-03     60.8411E-03
            5901            5913     2.89095E-03     3.94431E-03
            5919            5913     2.89095E-03     3.94431E-03
            5920            5913     2.89095E-03     3.94431E-03
            5902            5913     2.89095E-03     3.94431E-03
            5902            5914     5.79021E-03     7.03952E-03
            5903            5914     5.79021E-03     7.03952E-03
            5920            5914     5.79021E-03     7.03952E-03
            5921            5914     5.79021E-03     7.03952E-03
            5904            5915     8.90608E-03     10.0984E-03
            5903            5915     8.90608E-03     10.0984E-03
            5921            5915     8.90608E-03     10.0984E-03
            5922            5915     8.90608E-03     10.0984E-03
            5923            5916     12.0368E-03     13.2127E-03
            5922            5916     12.0368E-03     13.2127E-03
            5904            5916     12.0368E-03     13.2127E-03
            5905            5916     12.0368E-03     13.2127E-03
            5906            5917     15.1604E-03     16.3569E-03
            5905            5917     15.1604E-03     16.3569E-03
            5923            5917     15.1604E-03     16.3569E-03
            5924            5917     15.1604E-03     16.3569E-03
            5907            5918     18.2965E-03     19.5012E-03
            5906            5918     18.2965E-03     19.5012E-03
            5924            5918     18.2965E-03     19.5012E-03
            5925            5918     18.2965E-03     19.5012E-03
            5926            5919     21.4394E-03     22.6585E-03
            5925            5919     21.4394E-03     22.6585E-03
            5907            5919     21.4394E-03     22.6585E-03
            5908            5919     21.4394E-03     22.6585E-03
            5927            5920     24.5988E-03     25.8281E-03
            5908            5920     24.5988E-03     25.8281E-03
            5926            5920     24.5988E-03     25.8281E-03
            5909            5920     24.5988E-03     25.8281E-03
            5909            5921     27.7775E-03     29.0251E-03
            5927            5921     27.7775E-03     29.0251E-03
            5928            5921     27.7775E-03     29.0251E-03
            5910            5921     27.7775E-03     29.0251E-03
            5911            5922     30.9997E-03     32.2626E-03
            5910            5922     30.9997E-03     32.2626E-03
            5928            5922     30.9997E-03     32.2626E-03
            5929            5922     30.9997E-03     32.2626E-03
            5912            5923     34.2833E-03     35.5753E-03
            5930            5923     34.2833E-03     35.5753E-03
            5929            5923     34.2833E-03     35.5753E-03
            5911            5923     34.2833E-03     35.5753E-03
            5912            5924     37.6841E-03     38.9941E-03
            5930            5924     37.6841E-03     38.9941E-03
            5931            5924     37.6841E-03     38.9941E-03
            5913            5924     37.6841E-03     38.9941E-03
            5914            5925     41.2847E-03     42.6089E-03
            5932            5925     41.2847E-03     42.6089E-03
            5913            5925     41.2847E-03     42.6089E-03
            5931            5925     41.2847E-03     42.6089E-03
            5914            5926     45.1630E-03     46.4767E-03
            5932            5926     45.1630E-03     46.4767E-03
            5933            5926     45.1630E-03     46.4767E-03
            5915            5926     45.1630E-03     46.4767E-03
            5934            5927     49.7002E-03     50.8157E-03
            5916            5927     49.7002E-03     50.8157E-03
            5933            5927     49.7002E-03     50.8157E-03
            5915            5927     49.7002E-03     50.8157E-03
            5917            5928     54.5310E-03     55.4714E-03
            5934            5928     54.5310E-03     55.4714E-03
            5935            5928     54.5310E-03     55.4714E-03
            5916            5928     54.5310E-03     55.4714E-03
            5936            5929     58.8905E-03     59.9137E-03
            5918            5929     58.8905E-03     59.9137E-03
            5917            5929     58.8905E-03     59.9137E-03
            5935            5929     58.8905E-03     59.9137E-03
            5938            5930     3.79817E-03     4.50323E-03
            5920            5930     3.79817E-03     4.50323E-03
            5937            5930     3.79817E-03     4.50323E-03
            5919            5930     3.79817E-03     4.50323E-03
            5939            5931     6.33341E-03     7.37075E-03
            5921            5931     6.33341E-03     7.37075E-03
            5938            5931     6.33341E-03     7.37075E-03
            5920            5931     6.33341E-03     7.37075E-03
            5921            5932     9.31768E-03     10.4223E-03
            5940            5932     9.31768E-03     10.4223E-03
            5922            5932     9.31768E-03     10.4223E-03
            5939            5932     9.31768E-03     10.4223E-03
            5940            5933     12.4242E-03     13.5169E-03
            5922            5933     12.4242E-03     13.5169E-03
            5923            5933     12.4242E-03     13.5169E-03
            5941            5933     12.4242E-03     13.5169E-03
            5923            5934     15.5755E-03     16.6491E-03
            5941            5934     15.5755E-03     16.6491E-03
            5924            5934     15.5755E-03     16.6491E-03
            5942            5934     15.5755E-03     16.6491E-03
            5942            5935     18.7454E-03     19.8176E-03
            5925            5935     18.7454E-03     19.8176E-03
            5943            5935     18.7454E-03     19.8176E-03
            5924            5935     18.7454E-03     19.8176E-03
            5944            5936     21.9356E-03     23.0086E-03
            5926            5936     21.9356E-03     23.0086E-03
            5943            5936     21.9356E-03     23.0086E-03
            5925            5936     21.9356E-03     23.0086E-03
            5927            5937     25.1443E-03     26.2338E-03
            5944            5937     25.1443E-03     26.2338E-03
            5945            5937     25.1443E-03     26.2338E-03
            5926            5937     25.1443E-03     26.2338E-03
            5927            5938     28.3806E-03     29.4950E-03
            5945            5938     28.3806E-03     29.4950E-03
            5928            5938     28.3806E-03     29.4950E-03
            5946            5938     28.3806E-03     29.4950E-03
            5947            5939     31.6549E-03     32.8111E-03
            5929            5939     31.6549E-03     32.8111E-03
            5946            5939     31.6549E-03     32.8111E-03
            5928            5939     31.6549E-03     32.8111E-03
            5947            5940     34.9879E-03     36.1899E-03
            5929            5940     34.9879E-03     36.1899E-03
            5930            5940     34.9879E-03     36.1899E-03
            5948            5940     34.9879E-03     36.1899E-03
            5948            5941     38.4218E-03     39.6719E-03
            5931            5941     38.4218E-03     39.6719E-03
            5949            5941     38.4218E-03     39.6719E-03
            5930            5941     38.4218E-03     39.6719E-03
            5950            5942     41.9714E-03     43.2639E-03
            5932            5942     41.9714E-03     43.2639E-03
            5949            5942     41.9714E-03     43.2639E-03
            5931            5942     41.9714E-03     43.2639E-03
            5951            5943     45.7867E-03     47.0243E-03
            5933            5943     45.7867E-03     47.0243E-03
            5950            5943     45.7867E-03     47.0243E-03
            5932            5943     45.7867E-03     47.0243E-03
            5951            5944     49.7347E-03     50.9159E-03
            5933            5944     49.7347E-03     50.9159E-03
            5952            5944     49.7347E-03     50.9159E-03
            5934            5944     49.7347E-03     50.9159E-03
            5935            5945     53.6240E-03     54.7086E-03
            5952            5945     53.6240E-03     54.7086E-03
            5934            5945     53.6240E-03     54.7086E-03
            5953            5945     53.6240E-03     54.7086E-03
            5936            5946     57.3676E-03     58.0616E-03
            5935            5946     57.3676E-03     58.0616E-03
            5953            5946     57.3676E-03     58.0616E-03
            5954            5946     57.3676E-03     58.0616E-03
            5956            5947     4.91721E-03     5.42731E-03
            5938            5947     4.91721E-03     5.42731E-03
            5937            5947     4.91721E-03     5.42731E-03
            5955            5947     4.91721E-03     5.42731E-03
            5939            5948     7.08458E-03     7.96615E-03
            5957            5948     7.08458E-03     7.96615E-03
            5938            5948     7.08458E-03     7.96615E-03
            5956            5948     7.08458E-03     7.96615E-03
            5957            5949     9.87556E-03     10.8673E-03
            5958            5949     9.87556E-03     10.8673E-03
            5939            5949     9.87556E-03     10.8673E-03
            5940            5949     9.87556E-03     10.8673E-03
            5958            5950     12.8910E-03     13.8786E-03
            5959            5950     12.8910E-03     13.8786E-03
            5940            5950     12.8910E-03     13.8786E-03
            5941            5950     12.8910E-03     13.8786E-03
            5960            5951     16.0046E-03     16.9628E-03
            5959            5951     16.0046E-03     16.9628E-03
            5941            5951     16.0046E-03     16.9628E-03
            5942            5951     16.0046E-03     16.9628E-03
            5960            5952     19.1666E-03     20.0967E-03
            5961            5952     19.1666E-03     20.0967E-03
            5943            5952     19.1666E-03     20.0967E-03
            5942            5952     19.1666E-03     20.0967E-03
            5962            5953     22.3602E-03     23.2816E-03
            5943            5953     22.3602E-03     23.2816E-03
            5961            5953     22.3602E-03     23.2816E-03
            5944            5953     22.3602E-03     23.2816E-03
            5962            5954     25.5794E-03     26.5120E-03
            5945            5954     25.5794E-03     26.5120E-03
            5963            5954     25.5794E-03     26.5120E-03
            5944            5954     25.5794E-03     26.5120E-03
            5963            5955     28.8279E-03     29.7922E-03
            5946            5955     28.8279E-03     29.7922E-03
            5964            5955     28.8279E-03     29.7922E-03
            5945            5955     28.8279E-03     29.7922E-03
            5964            5956     32.1087E-03     33.1213E-03
            5946            5956     32.1087E-03     33.1213E-03
            5947            5956     32.1087E-03     33.1213E-03
            5965            5956     32.1087E-03     33.1213E-03
            5947            5957     35.4383E-03     36.5126E-03
            5948            5957     35.4383E-03     36.5126E-03
            5966            5957     35.4383E-03     36.5126E-03
            5965            5957     35.4383E-03     36.5126E-03
            5949            5958     38.8099E-03     39.9569E-03
            5966            5958     38.8099E-03     39.9569E-03
            5967            5958     38.8099E-03     39.9569E-03
            5948            5958     38.8099E-03     39.9569E-03
            5968            5959     42.2666E-03     43.4558E-03
            5949            5959     42.2666E-03     43.4558E-03
            5950            5959     42.2666E-03     43.4558E-03
            5967            5959     42.2666E-03     43.4558E-03
            5969            5960     45.7422E-03     46.9634E-03
            5951            5960     45.7422E-03     46.9634E-03
            5968            5960     45.7422E-03     46.9634E-03
            5950            5960     45.7422E-03     46.9634E-03
            5969            5961     49.1787E-03     50.3483E-03
            5970            5961     49.1787E-03     50.3483E-03
            5952            5961     49.1787E-03     50.3483E-03
            5951            5961     49.1787E-03     50.3483E-03
            5971            5962     52.5021E-03     53.4677E-03
            5952            5962     52.5021E-03     53.4677E-03
            5953            5962     52.5021E-03     53.4677E-03
            5970            5962     52.5021E-03     53.4677E-03
            5953            5963     55.5570E-03     56.3260E-03
            5972            5963     55.5570E-03     56.3260E-03
            5971            5963     55.5570E-03     56.3260E-03
            5954            5963     55.5570E-03     56.3260E-03
            5973            5964     6.14310E-03     6.50053E-03
            5955            5964     6.14310E-03     6.50053E-03
            5974            5964     6.14310E-03     6.50053E-03
            5956            5964     6.14310E-03     6.50053E-03
            5974            5965     7.96596E-03     8.76079E-03
            5956            5965     7.96596E-03     8.76079E-03
            5975            5965     7.96596E-03     8.76079E-03
            5957            5965     7.96596E-03     8.76079E-03
            5957            5966     10.5253E-03     11.4127E-03
            5975            5966     10.5253E-03     11.4127E-03
            5958            5966     10.5253E-03     11.4127E-03
            5976            5966     10.5253E-03     11.4127E-03
            5977            5967     13.4057E-03     14.2842E-03
            5959            5967     13.4057E-03     14.2842E-03
            5958            5967     13.4057E-03     14.2842E-03
            5976            5967     13.4057E-03     14.2842E-03
            5959            5968     16.4318E-03     17.2531E-03
            5960            5968     16.4318E-03     17.2531E-03
            5977            5968     16.4318E-03     17.2531E-03
            5978            5968     16.4318E-03     17.2531E-03
            5979            5969     19.5395E-03     20.3070E-03
            5960            5969     19.5395E-03     20.3070E-03
            5978            5969     19.5395E-03     20.3070E-03
            5961            5969     19.5395E-03     20.3070E-03
            5961            5970     22.6868E-03     23.4358E-03
            5980            5970     22.6868E-03     23.4358E-03
            5979            5970     22.6868E-03     23.4358E-03
            5962            5970     22.6868E-03     23.4358E-03
            5962            5971     25.8685E-03     26.6226E-03
            5980            5971     25.8685E-03     26.6226E-03
            5981            5971     25.8685E-03     26.6226E-03
            5963            5971     25.8685E-03     26.6226E-03
            5981            5972     29.0770E-03     29.8608E-03
            5982            5972     29.0770E-03     29.8608E-03
            5964            5972     29.0770E-03     29.8608E-03
            5963            5972     29.0770E-03     29.8608E-03
            5964            5973     32.3162E-03     33.1475E-03
            5982            5973     32.3162E-03     33.1475E-03
            5983            5973     32.3162E-03     33.1475E-03
            5965            5973     32.3162E-03     33.1475E-03
            5965            5974     35.5710E-03     36.4726E-03
            5966            5974     35.5710E-03     36.4726E-03
            5984            5974     35.5710E-03     36.4726E-03
            5983            5974     35.5710E-03     36.4726E-03
            5967            5975     38.8450E-03     39.8224E-03
            5985            5975     38.8450E-03     39.8224E-03
            5966            5975     38.8450E-03     39.8224E-03
            5984            5975     38.8450E-03     39.8224E-03
            5967            5976     42.0930E-03     43.1565E-03
            5986            5976     42.0930E-03     43.1565E-03
            5985            5976     42.0930E-03     43.1565E-03
            5968            5976     42.0930E-03     43.1565E-03
            5986            5977     45.2588E-03     46.3853E-03
            5968            5977     45.2588E-03     46.3853E-03
            5969            5977     45.2588E-03     46.3853E-03
            5987            5977     45.2588E-03     46.3853E-03
            5987            5978     48.2863E-03     49.3836E-03
            5988            5978     48.2863E-03     49.3836E-03
            5969            5978     48.2863E-03     49.3836E-03
            5970            5978     48.2863E-03     49.3836E-03
            5989            5979     51.0811E-03     52.0504E-03
            5988            5979     51.0811E-03     52.0504E-03
            5971            5979     51.0811E-03     52.0504E-03
            5970            5979     51.0811E-03     52.0504E-03
            5972            5980     53.7324E-03     54.4055E-03
            5990            5980     53.7324E-03     54.4055E-03
            5989            5980     53.7324E-03     54.4055E-03
            5971            5980     53.7324E-03     54.4055E-03
            5974            5981     7.37734E-03     7.78395E-03
            5973            5981     7.37734E-03     7.78395E-03
            5992            5981     7.37734E-03     7.78395E-03
            5991            5981     7.37734E-03     7.78395E-03
            5993            5982     8.94853E-03     9.66002E-03
            5975            5982     8.94853E-03     9.66002E-03
            5974            5982     8.94853E-03     9.66002E-03
            5992            5982     8.94853E-03     9.66002E-03
            5993            5983     11.2599E-03     12.0919E-03
            5994            5983     11.2599E-03     12.0919E-03
            5976            5983     11.2599E-03     12.0919E-03
            5975            5983     11.2599E-03     12.0919E-03
            5977            5984     13.9609E-03     14.7184E-03
            5994            5984     13.9609E-03     14.7184E-03
            5995            5984     13.9609E-03     14.7184E-03
            5976            5984     13.9609E-03     14.7184E-03
            5977            5985     16.8705E-03     17.5099E-03
            5978            5985     16.8705E-03     17.5099E-03
            5995            5985     16.8705E-03     17.5099E-03
            5996            5985     16.8705E-03     17.5099E-03
            5978            5986     19.8630E-03     20.4443E-03
            5996            5986     19.8630E-03     20.4443E-03
            5997            5986     19.8630E-03     20.4443E-03
            5979            5986     19.8630E-03     20.4443E-03
            5979            5987     22.9121E-03     23.4644E-03
            5980            5987     22.9121E-03     23.4644E-03
            5998            5987     22.9121E-03     23.4644E-03
            5997            5987     22.9121E-03     23.4644E-03
            5998            5988     25.9987E-03     26.5525E-03
            5981            5988     25.9987E-03     26.5525E-03
            5999            5988     25.9987E-03     26.5525E-03
            5980            5988     25.9987E-03     26.5525E-03
            6000            5989     29.1169E-03     29.6897E-03
            5999            5989     29.1169E-03     29.6897E-03
            5981            5989     29.1169E-03     29.6897E-03
            5982            5989     29.1169E-03     29.6897E-03
            5983            5990     32.2492E-03     32.8643E-03
            5982            5990     32.2492E-03     32.8643E-03
            6001            5990     32.2492E-03     32.8643E-03
            6000            5990     32.2492E-03     32.8643E-03
            6001            5991     35.3890E-03     36.0589E-03
            5983            5991     35.3890E-03     36.0589E-03
            6002            5991     35.3890E-03     36.0589E-03
            5984            5991     35.3890E-03     36.0589E-03
            5985            5992     38.4978E-03     39.2497E-03
            5984            5992     38.4978E-03     39.2497E-03
            6002            5992     38.4978E-03     39.2497E-03
            6003            5992     38.4978E-03     39.2497E-03
            6003            5993     41.5283E-03     42.3795E-03
            5985            5993     41.5283E-03     42.3795E-03
            5986            5993     41.5283E-03     42.3795E-03
            6004            5993     41.5283E-03     42.3795E-03
            5987            5994     44.4290E-03     45.3638E-03
            6004            5994     44.4290E-03     45.3638E-03
            5986            5994     44.4290E-03     45.3638E-03
            6005            5994     44.4290E-03     45.3638E-03
            6005            5995     47.0705E-03     48.0820E-03
            5988            5995     47.0705E-03     48.0820E-03
            6006            5995     47.0705E-03     48.0820E-03
            5987            5995     47.0705E-03     48.0820E-03
            6006            5996     49.4845E-03     50.4052E-03
            5988            5996     49.4845E-03     50.4052E-03
            5989            5996     49.4845E-03     50.4052E-03
            6007            5996     49.4845E-03     50.4052E-03
            6008            5997     51.7323E-03     52.3305E-03
            6007            5997     51.7323E-03     52.3305E-03
            5989            5997     51.7323E-03     52.3305E-03
            5990            5997     51.7323E-03     52.3305E-03
            6010            5998     8.70733E-03     9.09065E-03
            5991            5998     8.70733E-03     9.09065E-03
            5992            5998     8.70733E-03     9.09065E-03
            6009            5998     8.70733E-03     9.09065E-03
            6011            5999     10.0173E-03     10.8322E-03
            6010            5999     10.0173E-03     10.8322E-03
            5992            5999     10.0173E-03     10.8322E-03
            5993            5999     10.0173E-03     10.8322E-03
            6012            6000     12.0739E-03     12.8626E-03
            6011            6000     12.0739E-03     12.8626E-03
            5993            6000     12.0739E-03     12.8626E-03
            5994            6000     12.0739E-03     12.8626E-03
            6013            6001     14.6179E-03     15.1703E-03
            6012            6001     14.6179E-03     15.1703E-03
            5994            6001     14.6179E-03     15.1703E-03
            5995            6001     14.6179E-03     15.1703E-03
            5995            6002     17.3409E-03     17.7718E-03
            6014            6002     17.3409E-03     17.7718E-03
            5996            6002     17.3409E-03     17.7718E-03
            6013            6002     17.3409E-03     17.7718E-03
            5996            6003     20.1636E-03     20.5331E-03
            6014            6003     20.1636E-03     20.5331E-03
            6015            6003     20.1636E-03     20.5331E-03
            5997            6003     20.1636E-03     20.5331E-03
            5998            6004     23.0541E-03     23.3994E-03
            6016            6004     23.0541E-03     23.3994E-03
            5997            6004     23.0541E-03     23.3994E-03
            6015            6004     23.0541E-03     23.3994E-03
            6017            6005     25.9910E-03     26.3298E-03
            6016            6005     25.9910E-03     26.3298E-03
            5998            6005     25.9910E-03     26.3298E-03
            5999            6005     25.9910E-03     26.3298E-03
            6017            6006     28.9543E-03     29.3022E-03
            5999            6006     28.9543E-03     29.3022E-03
            6000            6006     28.9543E-03     29.3022E-03
            6018            6006     28.9543E-03     29.3022E-03
            6019            6007     31.9325E-03     32.2948E-03
            6000            6007     31.9325E-03     32.2948E-03
            6018            6007     31.9325E-03     32.2948E-03
            6001            6007     31.9325E-03     32.2948E-03
            6020            6008     34.8918E-03     35.2902E-03
            6019            6008     34.8918E-03     35.2902E-03
            6002            6008     34.8918E-03     35.2902E-03
            6001            6008     34.8918E-03     35.2902E-03
            6020            6009     37.8045E-03     38.2510E-03
            6002            6009     37.8045E-03     38.2510E-03
            6021            6009     37.8045E-03     38.2510E-03
            6003            6009     37.8045E-03     38.2510E-03
            6021            6010     40.6146E-03     41.1392E-03
            6022            6010     40.6146E-03     41.1392E-03
            6003            6010     40.6146E-03     41.1392E-03
            6004            6010     40.6146E-03     41.1392E-03
            6004            6011     43.2311E-03     43.8759E-03
            6022            6011     43.2311E-03     43.8759E-03
            6023            6011     43.2311E-03     43.8759E-03
            6005            6011     43.2311E-03     43.8759E-03
            6024            6012     45.6204E-03     46.3496E-03
            6023            6012     45.6204E-03     46.3496E-03
            6006            6012     45.6204E-03     46.3496E-03
            6005            6012     45.6204E-03     46.3496E-03
            6024            6013     47.6358E-03     48.4222E-03
            6025            6013     47.6358E-03     48.4222E-03
            6006            6013     47.6358E-03     48.4222E-03
            6007            6013     47.6358E-03     48.4222E-03
            6025            6014     49.4790E-03     50.1052E-03
            6008            6014     49.4790E-03     50.1052E-03
            6026            6014     49.4790E-03     50.1052E-03
            6007            6014     49.4790E-03     50.1052E-03
            6009            6015     10.0750E-03     10.9423E-03
            6027            6015     10.0750E-03     10.9423E-03
            6028            6015     10.0750E-03     10.9423E-03
            6010            6015     10.0750E-03     10.9423E-03
            6010            6016     11.1222E-03     12.1357E-03
            6029            6016     11.1222E-03     12.1357E-03
            6028            6016     11.1222E-03     12.1357E-03
            6011            6016     11.1222E-03     12.1357E-03
            6029            6017     13.1053E-03     13.6420E-03
            6030            6017     13.1053E-03     13.6420E-03
            6012            6017     13.1053E-03     13.6420E-03
            6011            6017     13.1053E-03     13.6420E-03
            6012            6018     15.4183E-03     15.7052E-03
            6030            6018     15.4183E-03     15.7052E-03
            6031            6018     15.4183E-03     15.7052E-03
            6013            6018     15.4183E-03     15.7052E-03
            6032            6019     17.8905E-03     18.0899E-03
            6031            6019     17.8905E-03     18.0899E-03
            6014            6019     17.8905E-03     18.0899E-03
            6013            6019     17.8905E-03     18.0899E-03
            6014            6020     20.4863E-03     20.6479E-03
            6032            6020     20.4863E-03     20.6479E-03
            6033            6020     20.4863E-03     20.6479E-03
            6015            6020     20.4863E-03     20.6479E-03
            6015            6021     23.1632E-03     23.3091E-03
            6033            6021     23.1632E-03     23.3091E-03
            6034            6021     23.1632E-03     23.3091E-03
            6016            6021     23.1632E-03     23.3091E-03
            6017            6022     25.8907E-03     26.0264E-03
            6016            6022     25.8907E-03     26.0264E-03
            6035            6022     25.8907E-03     26.0264E-03
            6034            6022     25.8907E-03     26.0264E-03
            6035            6023     28.6487E-03     28.7686E-03
            6036            6023     28.6487E-03     28.7686E-03
            6017            6023     28.6487E-03     28.7686E-03
            6018            6023     28.6487E-03     28.7686E-03
            6019            6024     31.4049E-03     31.5128E-03
            6018            6024     31.4049E-03     31.5128E-03
            6037            6024     31.4049E-03     31.5128E-03
            6036            6024     31.4049E-03     31.5128E-03
            6020            6025     34.1396E-03     34.2284E-03
            6019            6025     34.1396E-03     34.2284E-03
            6037            6025     34.1396E-03     34.2284E-03
            6038            6025     34.1396E-03     34.2284E-03
            6021            6026     36.8056E-03     36.8906E-03
            6020            6026     36.8056E-03     36.8906E-03
            6039            6026     36.8056E-03     36.8906E-03
            6038            6026     36.8056E-03     36.8906E-03
            6040            6027     39.3604E-03     39.4529E-03
            6021            6027     39.3604E-03     39.4529E-03
            6022            6027     39.3604E-03     39.4529E-03
            6039            6027     39.3604E-03     39.4529E-03
            6041            6028     41.7314E-03     41.8708E-03
            6040            6028     41.7314E-03     41.8708E-03
            6023            6028     41.7314E-03     41.8708E-03
            6022            6028     41.7314E-03     41.8708E-03
            6041            6029     43.8175E-03     44.0677E-03
            6024            6029     43.8175E-03     44.0677E-03
            6023            6029     43.8175E-03     44.0677E-03
            6042            6029     43.8175E-03     44.0677E-03
            6043            6030     45.5784E-03     45.9031E-03
            6042            6030     45.5784E-03     45.9031E-03
            6024            6030     45.5784E-03     45.9031E-03
            6025            6030     45.5784E-03     45.9031E-03
            6026            6031     46.9946E-03     47.1874E-03
            6025            6031     46.9946E-03     47.1874E-03
            6044            6031     46.9946E-03     47.1874E-03
            6043            6031     46.9946E-03     47.1874E-03
            6046            6032     11.3118E-03     12.7389E-03
            6045            6032     11.3118E-03     12.7389E-03
            6028            6032     11.3118E-03     12.7389E-03
            6027            6032     11.3118E-03     12.7389E-03
            6047            6033     12.6562E-03     13.1860E-03
            6028            6033     12.6562E-03     13.1860E-03
            6029            6033     12.6562E-03     13.1860E-03
            6046            6033     12.6562E-03     13.1860E-03
            6047            6034     14.4165E-03     14.5062E-03
            6048            6034     14.4165E-03     14.5062E-03
            6030            6034     14.4165E-03     14.5062E-03
            6029            6034     14.4165E-03     14.5062E-03
            6048            6035     16.3983E-03     16.3988E-03
            6049            6035     16.3983E-03     16.3988E-03
            6031            6035     16.3983E-03     16.3988E-03
            6030            6035     16.3983E-03     16.3988E-03
            6050            6036     18.5708E-03     18.5614E-03
            6049            6036     18.5708E-03     18.5614E-03
            6032            6036     18.5708E-03     18.5614E-03
            6031            6036     18.5708E-03     18.5614E-03
            6033            6037     20.8979E-03     20.8877E-03
            6051            6037     20.8979E-03     20.8877E-03
            6050            6037     20.8979E-03     20.8877E-03
            6032            6037     20.8979E-03     20.8877E-03
            6051            6038     23.3148E-03     23.3017E-03
            6033            6038     23.3148E-03     23.3017E-03
            6034            6038     23.3148E-03     23.3017E-03
            6052            6038     23.3148E-03     23.3017E-03
            6053            6039     25.7927E-03     25.7560E-03
            6052            6039     25.7927E-03     25.7560E-03
            6034            6039     25.7927E-03     25.7560E-03
            6035            6039     25.7927E-03     25.7560E-03
            6053            6040     28.2870E-03     28.2160E-03
            6036            6040     28.2870E-03     28.2160E-03
            6054            6040     28.2870E-03     28.2160E-03
            6035            6040     28.2870E-03     28.2160E-03
            6054            6041     30.7762E-03     30.6461E-03
            6036            6041     30.7762E-03     30.6461E-03
            6055            6041     30.7762E-03     30.6461E-03
            6037            6041     30.7762E-03     30.6461E-03
            6055            6042     33.2203E-03     33.0176E-03
            6056            6042     33.2203E-03     33.0176E-03
            6037            6042     33.2203E-03     33.0176E-03
            6038            6042     33.2203E-03     33.0176E-03
            6039            6043     35.5925E-03     35.2938E-03
            6057            6043     35.5925E-03     35.2938E-03
            6056            6043     35.5925E-03     35.2938E-03
            6038            6043     35.5925E-03     35.2938E-03
            6057            6044     37.8426E-03     37.4344E-03
            6058            6044     37.8426E-03     37.4344E-03
            6039            6044     37.8426E-03     37.4344E-03
            6040            6044     37.8426E-03     37.4344E-03
            6059            6045     39.9283E-03     39.4087E-03
            6040            6045     39.9283E-03     39.4087E-03
            6058            6045     39.9283E-03     39.4087E-03
            6041            6045     39.9283E-03     39.4087E-03
            6059            6046     41.7528E-03     41.1404E-03
            6042            6046     41.7528E-03     41.1404E-03
            6060            6046     41.7528E-03     41.1404E-03
            6041            6046     41.7528E-03     41.1404E-03
            6060            6047     43.2330E-03     42.6241E-03
            6061            6047     43.2330E-03     42.6241E-03
            6043            6047     43.2330E-03     42.6241E-03
            6042            6047     43.2330E-03     42.6241E-03
            6061            6048     44.1969E-03     43.4466E-03
            6062            6048     44.1969E-03     43.4466E-03
            6044            6048     44.1969E-03     43.4466E-03
            6043            6048     44.1969E-03     43.4466E-03
            6063            6049     6.83967E-03     7.90069E-03
            6045            6049     6.83967E-03     7.90069E-03
            6046            6049     6.83967E-03     7.90069E-03
            6064            6049     6.83967E-03     7.90069E-03
            6065            6050     8.56084E-03     9.07323E-03
            6046            6050     8.56084E-03     9.07323E-03
            6064            6050     8.56084E-03     9.07323E-03
            6047            6050     8.56084E-03     9.07323E-03
            6065            6051     10.2497E-03     10.7360E-03
            6066            6051     10.2497E-03     10.7360E-03
            6047            6051     10.2497E-03     10.7360E-03
            6048            6051     10.2497E-03     10.7360E-03
            6049            6052     12.0944E-03     12.6445E-03
            6067            6052     12.0944E-03     12.6445E-03
            6066            6052     12.0944E-03     12.6445E-03
            6048            6052     12.0944E-03     12.6445E-03
            6068            6053     14.0624E-03     14.6538E-03
            6067            6053     14.0624E-03     14.6538E-03
            6049            6053     14.0624E-03     14.6538E-03
            6050            6053     14.0624E-03     14.6538E-03
            6068            6054     16.1152E-03     16.7336E-03
            6051            6054     16.1152E-03     16.7336E-03
            6050            6054     16.1152E-03     16.7336E-03
            6069            6054     16.1152E-03     16.7336E-03
            6051            6055     18.2302E-03     18.8480E-03
            6069            6055     18.2302E-03     18.8480E-03
            6070            6055     18.2302E-03     18.8480E-03
            6052            6055     18.2302E-03     18.8480E-03
            6070            6056     20.3773E-03     20.9777E-03
            6071            6056     20.3773E-03     20.9777E-03
            6052            6056     20.3773E-03     20.9777E-03
            6053            6056     20.3773E-03     20.9777E-03
            6071            6057     22.5523E-03     23.1069E-03
            6054            6057     22.5523E-03     23.1069E-03
            6072            6057     22.5523E-03     23.1069E-03
            6053            6057     22.5523E-03     23.1069E-03
            6055            6058     24.7330E-03     25.2314E-03
            6073            6058     24.7330E-03     25.2314E-03
            6054            6058     24.7330E-03     25.2314E-03
            6072            6058     24.7330E-03     25.2314E-03
            6056            6059     26.9350E-03     27.3387E-03
            6055            6059     26.9350E-03     27.3387E-03
            6073            6059     26.9350E-03     27.3387E-03
            6074            6059     26.9350E-03     27.3387E-03
            6074            6060     29.1378E-03     29.4482E-03
            6056            6060     29.1378E-03     29.4482E-03
            6075            6060     29.1378E-03     29.4482E-03
            6057            6060     29.1378E-03     29.4482E-03
            6075            6061     31.3941E-03     31.5608E-03
            6076            6061     31.3941E-03     31.5608E-03
            6057            6061     31.3941E-03     31.5608E-03
            6058            6061     31.3941E-03     31.5608E-03
            6058            6062     33.6781E-03     33.7404E-03
            6077            6062     33.6781E-03     33.7404E-03
            6059            6062     33.6781E-03     33.7404E-03
            6076            6062     33.6781E-03     33.7404E-03
            6060            6063     36.1544E-03     36.0911E-03
            6077            6063     36.1544E-03     36.0911E-03
            6059            6063     36.1544E-03     36.0911E-03
            6078            6063     36.1544E-03     36.0911E-03
            6079            6064     38.7741E-03     38.7638E-03
            6061            6064     38.7741E-03     38.7638E-03
            6078            6064     38.7741E-03     38.7638E-03
            6060            6064     38.7741E-03     38.7638E-03
            6061            6065     42.5098E-03     43.2846E-03
            6079            6065     42.5098E-03     43.2846E-03
            6080            6065     42.5098E-03     43.2846E-03
            6062            6065     42.5098E-03     43.2846E-03
            6081            6066     1.72199E-03     2.51361E-03
            6082            6066     1.72199E-03     2.51361E-03
            6064            6066     1.72199E-03     2.51361E-03
            6063            6066     1.72199E-03     2.51361E-03
            6082            6067     3.56042E-03     4.48204E-03
            6064            6067     3.56042E-03     4.48204E-03
            6083            6067     3.56042E-03     4.48204E-03
            6065            6067     3.56042E-03     4.48204E-03
            6083            6068     5.45122E-03     6.51694E-03
            6065            6068     5.45122E-03     6.51694E-03
            6084            6068     5.45122E-03     6.51694E-03
            6066            6068     5.45122E-03     6.51694E-03
            6084            6069     7.38030E-03     8.52792E-03
            6066            6069     7.38030E-03     8.52792E-03
            6067            6069     7.38030E-03     8.52792E-03
            6085            6069     7.38030E-03     8.52792E-03
            6086            6070     9.32458E-03     10.5245E-03
            6067            6070     9.32458E-03     10.5245E-03
            6068            6070     9.32458E-03     10.5245E-03
            6085            6070     9.32458E-03     10.5245E-03
            6086            6071     11.2813E-03     12.5098E-03
            6087            6071     11.2813E-03     12.5098E-03
            6068            6071     11.2813E-03     12.5098E-03
            6069            6071     11.2813E-03     12.5098E-03
            6088            6072     13.2495E-03     14.4864E-03
            6069            6072     13.2495E-03     14.4864E-03
            6070            6072     13.2495E-03     14.4864E-03
            6087            6072     13.2495E-03     14.4864E-03
            6089            6073     15.2363E-03     16.4662E-03
            6088            6073     15.2363E-03     16.4662E-03
            6071            6073     15.2363E-03     16.4662E-03
            6070            6073     15.2363E-03     16.4662E-03
            6071            6074     17.2467E-03     18.4548E-03
            6072            6074     17.2467E-03     18.4548E-03
            6089            6074     17.2467E-03     18.4548E-03
            6090            6074     17.2467E-03     18.4548E-03
            6091            6075     19.3065E-03     20.4806E-03
            6072            6075     19.3065E-03     20.4806E-03
            6073            6075     19.3065E-03     20.4806E-03
            6090            6075     19.3065E-03     20.4806E-03
            6092            6076     21.4310E-03     22.5620E-03
            6073            6076     21.4310E-03     22.5620E-03
            6074            6076     21.4310E-03     22.5620E-03
            6091            6076     21.4310E-03     22.5620E-03
            6093            6077     23.6891E-03     24.7694E-03
            6075            6077     23.6891E-03     24.7694E-03
            6092            6077     23.6891E-03     24.7694E-03
            6074            6077     23.6891E-03     24.7694E-03
            6076            6078     26.1169E-03     27.1547E-03
            6075            6078     26.1169E-03     27.1547E-03
            6093            6078     26.1169E-03     27.1547E-03
            6094            6078     26.1169E-03     27.1547E-03
            6095            6079     28.9077E-03     29.9115E-03
            6077            6079     28.9077E-03     29.9115E-03
            6076            6079     28.9077E-03     29.9115E-03
            6094            6079     28.9077E-03     29.9115E-03
            6077            6080     32.1522E-03     33.1841E-03
            6096            6080     32.1522E-03     33.1841E-03
            6078            6080     32.1522E-03     33.1841E-03
            6095            6080     32.1522E-03     33.1841E-03
            6096            6081     36.5977E-03     37.7171E-03
            6097            6081     36.5977E-03     37.7171E-03
            6078            6081     36.5977E-03     37.7171E-03
            6079            6081     36.5977E-03     37.7171E-03
            6079            6082     43.3686E-03     44.2268E-03
            6097            6082     43.3686E-03     44.2268E-03
            6080            6082     43.3686E-03     44.2268E-03
            6098            6082     43.3686E-03     44.2268E-03
            6081            6083     2.03465E-03     2.69487E-03
            6082            6083     2.03465E-03     2.69487E-03
            6100            6083     2.03465E-03     2.69487E-03
            6099            6083     2.03465E-03     2.69487E-03
            6083            6084     3.80723E-03     4.61274E-03
            6100            6084     3.80723E-03     4.61274E-03
            6101            6084     3.80723E-03     4.61274E-03
            6082            6084     3.80723E-03     4.61274E-03
            6102            6085     5.73035E-03     6.63547E-03
            6083            6085     5.73035E-03     6.63547E-03
            6084            6085     5.73035E-03     6.63547E-03
            6101            6085     5.73035E-03     6.63547E-03
            6085            6086     7.69196E-03     8.67771E-03
            6102            6086     7.69196E-03     8.67771E-03
            6103            6086     7.69196E-03     8.67771E-03
            6084            6086     7.69196E-03     8.67771E-03
            6104            6087     9.67759E-03     10.7129E-03
            6086            6087     9.67759E-03     10.7129E-03
            6103            6087     9.67759E-03     10.7129E-03
            6085            6087     9.67759E-03     10.7129E-03
            6105            6088     11.6776E-03     12.7436E-03
            6087            6088     11.6776E-03     12.7436E-03
            6086            6088     11.6776E-03     12.7436E-03
            6104            6088     11.6776E-03     12.7436E-03
            6105            6089     13.6925E-03     14.7753E-03
            6087            6089     13.6925E-03     14.7753E-03
            6088            6089     13.6925E-03     14.7753E-03
            6106            6089     13.6925E-03     14.7753E-03
            6088            6090     15.7233E-03     16.8124E-03
            6089            6090     15.7233E-03     16.8124E-03
            6107            6090     15.7233E-03     16.8124E-03
            6106            6090     15.7233E-03     16.8124E-03
            6089            6091     17.7851E-03     18.8712E-03
            6108            6091     17.7851E-03     18.8712E-03
            6090            6091     17.7851E-03     18.8712E-03
            6107            6091     17.7851E-03     18.8712E-03
            6091            6092     19.8875E-03     20.9679E-03
            6108            6092     19.8875E-03     20.9679E-03
            6109            6092     19.8875E-03     20.9679E-03
            6090            6092     19.8875E-03     20.9679E-03
            6092            6093     22.0747E-03     23.1394E-03
            6091            6093     22.0747E-03     23.1394E-03
            6110            6093     22.0747E-03     23.1394E-03
            6109            6093     22.0747E-03     23.1394E-03
            6110            6094     24.3779E-03     25.4340E-03
            6093            6094     24.3779E-03     25.4340E-03
            6111            6094     24.3779E-03     25.4340E-03
            6092            6094     24.3779E-03     25.4340E-03
            6111            6095     26.9097E-03     27.9378E-03
            6094            6095     26.9097E-03     27.9378E-03
            6093            6095     26.9097E-03     27.9378E-03
            6112            6095     26.9097E-03     27.9378E-03
            6094            6096     29.7762E-03     30.7920E-03
            6112            6096     29.7762E-03     30.7920E-03
            6113            6096     29.7762E-03     30.7920E-03
            6095            6096     29.7762E-03     30.7920E-03
            6113            6097     33.2305E-03     34.1842E-03
            6096            6097     33.2305E-03     34.1842E-03
            6095            6097     33.2305E-03     34.1842E-03
            6114            6097     33.2305E-03     34.1842E-03
            6096            6098     38.0030E-03     38.6288E-03
            6115            6098     38.0030E-03     38.6288E-03
            6097            6098     38.0030E-03     38.6288E-03
            6114            6098     38.0030E-03     38.6288E-03
            6115            6099     43.1442E-03     43.2985E-03
            6098            6099     43.1442E-03     43.2985E-03
            6116            6099     43.1442E-03     43.2985E-03
            6097            6099     43.1442E-03     43.2985E-03
            6099            6100     2.81775E-03     3.16004E-03
            6117            6100     2.81775E-03     3.16004E-03
            6118            6100     2.81775E-03     3.16004E-03
            6100            6100     2.81775E-03     3.16004E-03
            6119            6101     4.29767E-03     4.96515E-03
            6118            6101     4.29767E-03     4.96515E-03
            6100            6101     4.29767E-03     4.96515E-03
            6101            6101     4.29767E-03     4.96515E-03
            6102            6102     6.14955E-03     6.92144E-03
            6119            6102     6.14955E-03     6.92144E-03
            6120            6102     6.14955E-03     6.92144E-03
            6101            6102     6.14955E-03     6.92144E-03
            6102            6103     8.09937E-03     8.94416E-03
            6120            6103     8.09937E-03     8.94416E-03
            6121            6103     8.09937E-03     8.94416E-03
            6103            6103     8.09937E-03     8.94416E-03
            6103            6104     10.0950E-03     10.9886E-03
            6122            6104     10.0950E-03     10.9886E-03
            6121            6104     10.0950E-03     10.9886E-03
            6104            6104     10.0950E-03     10.9886E-03
            6123            6105     12.1199E-03     13.0449E-03
            6104            6105     12.1199E-03     13.0449E-03
            6105            6105     12.1199E-03     13.0449E-03
            6122            6105     12.1199E-03     13.0449E-03
            6106            6106     14.1652E-03     15.1117E-03
            6123            6106     14.1652E-03     15.1117E-03
            6105            6106     14.1652E-03     15.1117E-03
            6124            6106     14.1652E-03     15.1117E-03
            6106            6107     16.2351E-03     17.1961E-03
            6124            6107     16.2351E-03     17.1961E-03
            6107            6107     16.2351E-03     17.1961E-03
            6125            6107     16.2351E-03     17.1961E-03
            6108            6108     18.3327E-03     19.3080E-03
            6125            6108     18.3327E-03     19.3080E-03
            6107            6108     18.3327E-03     19.3080E-03
            6126            6108     18.3327E-03     19.3080E-03
            6108            6109     20.4806E-03     21.4644E-03
            6126            6109     20.4806E-03     21.4644E-03
            6109            6109     20.4806E-03     21.4644E-03
            6127            6109     20.4806E-03     21.4644E-03
            6109            6110     22.7004E-03     23.6970E-03
            6127            6110     22.7004E-03     23.6970E-03
            6110            6110     22.7004E-03     23.6970E-03
            6128            6110     22.7004E-03     23.6970E-03
            6110            6111     25.0466E-03     26.0420E-03
            6128            6111     25.0466E-03     26.0420E-03
            6111            6111     25.0466E-03     26.0420E-03
            6129            6111     25.0466E-03     26.0420E-03
            6111            6112     27.5984E-03     28.5855E-03
            6112            6112     27.5984E-03     28.5855E-03
            6129            6112     27.5984E-03     28.5855E-03
            6130            6112     27.5984E-03     28.5855E-03
            6130            6113     30.4426E-03     31.3929E-03
            6131            6113     30.4426E-03     31.3929E-03
            6112            6113     30.4426E-03     31.3929E-03
            6113            6113     30.4426E-03     31.3929E-03
            6113            6114     33.9065E-03     34.6814E-03
            6132            6114     33.9065E-03     34.6814E-03
            6131            6114     33.9065E-03     34.6814E-03
            6114            6114     33.9065E-03     34.6814E-03
            6114            6115     37.7384E-03     38.3664E-03
            6133            6115     37.7384E-03     38.3664E-03
            6115            6115     37.7384E-03     38.3664E-03
            6132            6115     37.7384E-03     38.3664E-03
            6134            6116     41.3407E-03     42.0816E-03
            6133            6116     41.3407E-03     42.0816E-03
            6115            6116     41.3407E-03     42.0816E-03
            6116            6116     41.3407E-03     42.0816E-03
            6118            6117     3.63654E-03     3.80989E-03
            6117            6117     3.63654E-03     3.80989E-03
            6136            6117     3.63654E-03     3.80989E-03
            6135            6117     3.63654E-03     3.80989E-03
            6136            6118     4.92433E-03     5.42501E-03
            6118            6118     4.92433E-03     5.42501E-03
            6119            6118     4.92433E-03     5.42501E-03
            6137            6118     4.92433E-03     5.42501E-03
            6120            6119     6.64457E-03     7.30571E-03
            6119            6119     6.64457E-03     7.30571E-03
            6138            6119     6.64457E-03     7.30571E-03
            6137            6119     6.64457E-03     7.30571E-03
            6139            6120     8.54967E-03     9.27792E-03
            6138            6120     8.54967E-03     9.27792E-03
            6120            6120     8.54967E-03     9.27792E-03
            6121            6120     8.54967E-03     9.27792E-03
            6140            6121     10.5337E-03     11.3066E-03
            6121            6121     10.5337E-03     11.3066E-03
            6122            6121     10.5337E-03     11.3066E-03
            6139            6121     10.5337E-03     11.3066E-03
            6122            6122     12.5638E-03     13.3633E-03
            6141            6122     12.5638E-03     13.3633E-03
            6140            6122     12.5638E-03     13.3633E-03
            6123            6122     12.5638E-03     13.3633E-03
            6141            6123     14.6276E-03     15.4468E-03
            6123            6123     14.6276E-03     15.4468E-03
            6142            6123     14.6276E-03     15.4468E-03
            6124            6123     14.6276E-03     15.4468E-03
            6125            6124     16.7185E-03     17.5574E-03
            6142            6124     16.7185E-03     17.5574E-03
            6124            6124     16.7185E-03     17.5574E-03
            6143            6124     16.7185E-03     17.5574E-03
            6144            6125     18.8422E-03     19.7008E-03
            6126            6125     18.8422E-03     19.7008E-03
            6143            6125     18.8422E-03     19.7008E-03
            6125            6125     18.8422E-03     19.7008E-03
            6145            6126     21.0089E-03     21.8922E-03
            6127            6126     21.0089E-03     21.8922E-03
            6126            6126     21.0089E-03     21.8922E-03
            6144            6126     21.0089E-03     21.8922E-03
            6127            6127     23.2371E-03     24.1427E-03
            6145            6127     23.2371E-03     24.1427E-03
            6128            6127     23.2371E-03     24.1427E-03
            6146            6127     23.2371E-03     24.1427E-03
            6128            6128     25.5721E-03     26.4917E-03
            6146            6128     25.5721E-03     26.4917E-03
            6129            6128     25.5721E-03     26.4917E-03
            6147            6128     25.5721E-03     26.4917E-03
            6148            6129     28.0359E-03     28.9590E-03
            6130            6129     28.0359E-03     28.9590E-03
            6129            6129     28.0359E-03     28.9590E-03
            6147            6129     28.0359E-03     28.9590E-03
            6148            6130     30.7707E-03     31.6209E-03
            6130            6130     30.7707E-03     31.6209E-03
            6131            6130     30.7707E-03     31.6209E-03
            6149            6130     30.7707E-03     31.6209E-03
            6149            6131     33.6996E-03     34.4809E-03
            6150            6131     33.6996E-03     34.4809E-03
            6131            6131     33.6996E-03     34.4809E-03
            6132            6131     33.6996E-03     34.4809E-03
            6133            6132     36.6897E-03     37.4160E-03
            6132            6132     36.6897E-03     37.4160E-03
            6150            6132     36.6897E-03     37.4160E-03
            6151            6132     36.6897E-03     37.4160E-03
            6151            6133     39.7348E-03     40.1994E-03
            6152            6133     39.7348E-03     40.1994E-03
            6134            6133     39.7348E-03     40.1994E-03
            6133            6133     39.7348E-03     40.1994E-03
            6136            6134     4.44904E-03     4.53371E-03
            6153            6134     4.44904E-03     4.53371E-03
            6135            6134     4.44904E-03     4.53371E-03
            6154            6134     4.44904E-03     4.53371E-03
            6136            6135     5.57199E-03     5.97221E-03
            6154            6135     5.57199E-03     5.97221E-03
            6137            6135     5.57199E-03     5.97221E-03
            6155            6135     5.57199E-03     5.97221E-03
            6138            6136     7.17809E-03     7.73112E-03
            6156            6136     7.17809E-03     7.73112E-03
            6155            6136     7.17809E-03     7.73112E-03
            6137            6136     7.17809E-03     7.73112E-03
            6139            6137     9.00842E-03     9.64395E-03
            6157            6137     9.00842E-03     9.64395E-03
            6138            6137     9.00842E-03     9.64395E-03
            6156            6137     9.00842E-03     9.64395E-03
            6140            6138     10.9600E-03     11.6240E-03
            6158            6138     10.9600E-03     11.6240E-03
            6157            6138     10.9600E-03     11.6240E-03
            6139            6138     10.9600E-03     11.6240E-03
            6140            6139     12.9787E-03     13.6594E-03
            6158            6139     12.9787E-03     13.6594E-03
            6159            6139     12.9787E-03     13.6594E-03
            6141            6139     12.9787E-03     13.6594E-03
            6159            6140     15.0398E-03     15.7335E-03
            6160            6140     15.0398E-03     15.7335E-03
            6141            6140     15.0398E-03     15.7335E-03
            6142            6140     15.0398E-03     15.7335E-03
            6160            6141     17.1347E-03     17.8442E-03
            6142            6141     17.1347E-03     17.8442E-03
            6161            6141     17.1347E-03     17.8442E-03
            6143            6141     17.1347E-03     17.8442E-03
            6143            6142     19.2608E-03     19.9944E-03
            6144            6142     19.2608E-03     19.9944E-03
            6162            6142     19.2608E-03     19.9944E-03
            6161            6142     19.2608E-03     19.9944E-03
            6145            6143     21.4174E-03     22.1820E-03
            6144            6143     21.4174E-03     22.1820E-03
            6162            6143     21.4174E-03     22.1820E-03
            6163            6143     21.4174E-03     22.1820E-03
            6145            6144     23.6227E-03     24.4186E-03
            6146            6144     23.6227E-03     24.4186E-03
            6163            6144     23.6227E-03     24.4186E-03
            6164            6144     23.6227E-03     24.4186E-03
            6165            6145     25.8687E-03     26.7003E-03
            6164            6145     25.8687E-03     26.7003E-03
            6147            6145     25.8687E-03     26.7003E-03
            6146            6145     25.8687E-03     26.7003E-03
            6147            6146     28.2110E-03     29.0403E-03
            6165            6146     28.2110E-03     29.0403E-03
            6148            6146     28.2110E-03     29.0403E-03
            6166            6146     28.2110E-03     29.0403E-03
            6148            6147     30.6077E-03     31.4280E-03
            6167            6147     30.6077E-03     31.4280E-03
            6149            6147     30.6077E-03     31.4280E-03
            6166            6147     30.6077E-03     31.4280E-03
            6149            6148     33.0480E-03     33.8115E-03
            6167            6148     33.0480E-03     33.8115E-03
            6150            6148     33.0480E-03     33.8115E-03
            6168            6148     33.0480E-03     33.8115E-03
            6151            6149     35.5286E-03     36.1303E-03
            6150            6149     35.5286E-03     36.1303E-03
            6168            6149     35.5286E-03     36.1303E-03
            6169            6149     35.5286E-03     36.1303E-03
            6169            6150     37.9326E-03     38.4545E-03
            6170            6150     37.9326E-03     38.4545E-03
            6151            6150     37.9326E-03     38.4545E-03
            6152            6150     37.9326E-03     38.4545E-03
            6171            6151     5.23730E-03     5.28286E-03
            6153            6151     5.23730E-03     5.28286E-03
            6154            6151     5.23730E-03     5.28286E-03
            6172            6151     5.23730E-03     5.28286E-03
            6154            6152     6.23666E-03     6.55936E-03
            6172            6152     6.23666E-03     6.55936E-03
            6155            6152     6.23666E-03     6.55936E-03
            6173            6152     6.23666E-03     6.55936E-03
            6174            6153     7.70968E-03     8.20087E-03
            6155            6153     7.70968E-03     8.20087E-03
            6156            6153     7.70968E-03     8.20087E-03
            6173            6153     7.70968E-03     8.20087E-03
            6175            6154     9.45934E-03     10.0048E-03
            6174            6154     9.45934E-03     10.0048E-03
            6157            6154     9.45934E-03     10.0048E-03
            6156            6154     9.45934E-03     10.0048E-03
            6158            6155     11.3571E-03     11.9200E-03
            6175            6155     11.3571E-03     11.9200E-03
            6157            6155     11.3571E-03     11.9200E-03
            6176            6155     11.3571E-03     11.9200E-03
            6159            6156     13.3406E-03     13.9001E-03
            6158            6156     13.3406E-03     13.9001E-03
            6177            6156     13.3406E-03     13.9001E-03
            6176            6156     13.3406E-03     13.9001E-03
            6159            6157     15.3781E-03     15.9362E-03
            6160            6157     15.3781E-03     15.9362E-03
            6177            6157     15.3781E-03     15.9362E-03
            6178            6157     15.3781E-03     15.9362E-03
            6178            6158     17.4517E-03     18.0203E-03
            6161            6158     17.4517E-03     18.0203E-03
            6179            6158     17.4517E-03     18.0203E-03
            6160            6158     17.4517E-03     18.0203E-03
            6161            6159     19.5498E-03     20.1412E-03
            6179            6159     19.5498E-03     20.1412E-03
            6180            6159     19.5498E-03     20.1412E-03
            6162            6159     19.5498E-03     20.1412E-03
            6162            6160     21.6738E-03     22.2965E-03
            6180            6160     21.6738E-03     22.2965E-03
            6181            6160     21.6738E-03     22.2965E-03
            6163            6160     21.6738E-03     22.2965E-03
            6163            6161     23.8033E-03     24.4725E-03
            6182            6161     23.8033E-03     24.4725E-03
            6181            6161     23.8033E-03     24.4725E-03
            6164            6161     23.8033E-03     24.4725E-03
            6164            6162     25.9500E-03     26.6561E-03
            6182            6162     25.9500E-03     26.6561E-03
            6183            6162     25.9500E-03     26.6561E-03
            6165            6162     25.9500E-03     26.6561E-03
            6166            6163     28.0684E-03     28.8200E-03
            6183            6163     28.0684E-03     28.8200E-03
            6184            6163     28.0684E-03     28.8200E-03
            6165            6163     28.0684E-03     28.8200E-03
            6185            6164     30.1541E-03     30.9116E-03
            6166            6164     30.1541E-03     30.9116E-03
            6184            6164     30.1541E-03     30.9116E-03
            6167            6164     30.1541E-03     30.9116E-03
            6185            6165     32.1892E-03     32.8866E-03
            6186            6165     32.1892E-03     32.8866E-03
            6167            6165     32.1892E-03     32.8866E-03
            6168            6165     32.1892E-03     32.8866E-03
            6169            6166     34.1501E-03     34.7643E-03
            6187            6166     34.1501E-03     34.7643E-03
            6168            6166     34.1501E-03     34.7643E-03
            6186            6166     34.1501E-03     34.7643E-03
            6169            6167     36.1931E-03     36.5980E-03
            6188            6167     36.1931E-03     36.5980E-03
            6187            6167     36.1931E-03     36.5980E-03
            6170            6167     36.1931E-03     36.5980E-03
            6189            6168     6.02963E-03     6.05461E-03
            6172            6168     6.02963E-03     6.05461E-03
            6171            6168     6.02963E-03     6.05461E-03
            6190            6168     6.02963E-03     6.05461E-03
            6173            6169     6.89339E-03     7.20910E-03
            6190            6169     6.89339E-03     7.20910E-03
            6191            6169     6.89339E-03     7.20910E-03
            6172            6169     6.89339E-03     7.20910E-03
            6174            6170     8.24575E-03     8.68221E-03
            6173            6170     8.24575E-03     8.68221E-03
            6191            6170     8.24575E-03     8.68221E-03
            6192            6170     8.24575E-03     8.68221E-03
            6193            6171     9.89584E-03     10.3721E-03
            6174            6171     9.89584E-03     10.3721E-03
            6192            6171     9.89584E-03     10.3721E-03
            6175            6171     9.89584E-03     10.3721E-03
            6194            6172     11.7192E-03     12.1742E-03
            6176            6172     11.7192E-03     12.1742E-03
            6193            6172     11.7192E-03     12.1742E-03
            6175            6172     11.7192E-03     12.1742E-03
            6194            6173     13.6457E-03     14.0687E-03
            6177            6173     13.6457E-03     14.0687E-03
            6195            6173     13.6457E-03     14.0687E-03
            6176            6173     13.6457E-03     14.0687E-03
            6178            6174     15.6299E-03     16.0384E-03
            6195            6174     15.6299E-03     16.0384E-03
            6196            6174     15.6299E-03     16.0384E-03
            6177            6174     15.6299E-03     16.0384E-03
            6196            6175     17.6493E-03     18.0598E-03
            6179            6175     17.6493E-03     18.0598E-03
            6178            6175     17.6493E-03     18.0598E-03
            6197            6175     17.6493E-03     18.0598E-03
            6179            6176     19.6949E-03     20.1215E-03
            6180            6176     19.6949E-03     20.1215E-03
            6198            6176     19.6949E-03     20.1215E-03
            6197            6176     19.6949E-03     20.1215E-03
            6180            6177     21.7435E-03     22.2045E-03
            6181            6177     21.7435E-03     22.2045E-03
            6198            6177     21.7435E-03     22.2045E-03
            6199            6177     21.7435E-03     22.2045E-03
            6181            6178     23.7884E-03     24.2905E-03
            6200            6178     23.7884E-03     24.2905E-03
            6199            6178     23.7884E-03     24.2905E-03
            6182            6178     23.7884E-03     24.2905E-03
            6183            6179     25.7845E-03     26.3489E-03
            6200            6179     25.7845E-03     26.3489E-03
            6201            6179     25.7845E-03     26.3489E-03
            6182            6179     25.7845E-03     26.3489E-03
            6202            6180     27.7043E-03     28.3256E-03
            6183            6180     27.7043E-03     28.3256E-03
            6201            6180     27.7043E-03     28.3256E-03
            6184            6180     27.7043E-03     28.3256E-03
            6185            6181     29.4933E-03     30.1612E-03
            6203            6181     29.4933E-03     30.1612E-03
            6202            6181     29.4933E-03     30.1612E-03
            6184            6181     29.4933E-03     30.1612E-03
            6203            6182     31.1334E-03     31.8041E-03
            6204            6182     31.1334E-03     31.8041E-03
            6186            6182     31.1334E-03     31.8041E-03
            6185            6182     31.1334E-03     31.8041E-03
            6186            6183     32.7081E-03     33.2527E-03
            6205            6183     32.7081E-03     33.2527E-03
            6204            6183     32.7081E-03     33.2527E-03
            6187            6183     32.7081E-03     33.2527E-03
            6187            6184     34.3000E-03     34.6920E-03
            6206            6184     34.3000E-03     34.6920E-03
            6205            6184     34.3000E-03     34.6920E-03
            6188            6184     34.3000E-03     34.6920E-03
            6190            6185     6.80532E-03     6.91613E-03
            6208            6185     6.80532E-03     6.91613E-03
            6189            6185     6.80532E-03     6.91613E-03
            6207            6185     6.80532E-03     6.91613E-03
            6209            6186     7.56765E-03     7.88269E-03
            6191            6186     7.56765E-03     7.88269E-03
            6190            6186     7.56765E-03     7.88269E-03
            6208            6186     7.56765E-03     7.88269E-03
            6192            6187     8.79189E-03     9.22583E-03
            6191            6187     8.79189E-03     9.22583E-03
            6209            6187     8.79189E-03     9.22583E-03
            6210            6187     8.79189E-03     9.22583E-03
            6193            6188     10.3283E-03     10.7345E-03
            6192            6188     10.3283E-03     10.7345E-03
            6210            6188     10.3283E-03     10.7345E-03
            6211            6188     10.3283E-03     10.7345E-03
            6212            6189     12.0656E-03     12.3868E-03
            6211            6189     12.0656E-03     12.3868E-03
            6193            6189     12.0656E-03     12.3868E-03
            6194            6189     12.0656E-03     12.3868E-03
            6194            6190     13.9017E-03     14.1708E-03
            6195            6190     13.9017E-03     14.1708E-03
            6212            6190     13.9017E-03     14.1708E-03
            6213            6190     13.9017E-03     14.1708E-03
            6196            6191     15.7958E-03     16.0383E-03
            6213            6191     15.7958E-03     16.0383E-03
            6214            6191     15.7958E-03     16.0383E-03
            6195            6191     15.7958E-03     16.0383E-03
            6197            6192     17.7309E-03     17.9657E-03
            6214            6192     17.7309E-03     17.9657E-03
            6196            6192     17.7309E-03     17.9657E-03
            6215            6192     17.7309E-03     17.9657E-03
            6215            6193     19.6815E-03     19.9276E-03
            6216            6193     19.6815E-03     19.9276E-03
            6197            6193     19.6815E-03     19.9276E-03
            6198            6193     19.6815E-03     19.9276E-03
            6217            6194     21.6358E-03     21.9033E-03
            6199            6194     21.6358E-03     21.9033E-03
            6198            6194     21.6358E-03     21.9033E-03
            6216            6194     21.6358E-03     21.9033E-03
            6200            6195     23.5563E-03     23.8660E-03
            6217            6195     23.5563E-03     23.8660E-03
            6218            6195     23.5563E-03     23.8660E-03
            6199            6195     23.5563E-03     23.8660E-03
            6201            6196     25.4112E-03     25.7746E-03
            6218            6196     25.4112E-03     25.7746E-03
            6200            6196     25.4112E-03     25.7746E-03
            6219            6196     25.4112E-03     25.7746E-03
            6202            6197     27.1378E-03     27.5781E-03
            6220            6197     27.1378E-03     27.5781E-03
            6201            6197     27.1378E-03     27.5781E-03
            6219            6197     27.1378E-03     27.5781E-03
            6221            6198     28.6670E-03     29.1928E-03
            6220            6198     28.6670E-03     29.1928E-03
            6203            6198     28.6670E-03     29.1928E-03
            6202            6198     28.6670E-03     29.1928E-03
            6222            6199     29.9658E-03     30.5433E-03
            6221            6199     29.9658E-03     30.5433E-03
            6203            6199     29.9658E-03     30.5433E-03
            6204            6199     29.9658E-03     30.5433E-03
            6222            6200     31.1070E-03     31.6487E-03
            6204            6200     31.1070E-03     31.6487E-03
            6205            6200     31.1070E-03     31.6487E-03
            6223            6200     31.1070E-03     31.6487E-03
            6224            6201     32.3451E-03     32.6543E-03
            6206            6201     32.3451E-03     32.6543E-03
            6223            6201     32.3451E-03     32.6543E-03
            6205            6201     32.3451E-03     32.6543E-03
            6207            6202     7.63216E-03     7.76857E-03
            6208            6202     7.63216E-03     7.76857E-03
            6226            6202     7.63216E-03     7.76857E-03
            6225            6202     7.63216E-03     7.76857E-03
            6226            6203     8.27075E-03     8.72003E-03
            6208            6203     8.27075E-03     8.72003E-03
            6227            6203     8.27075E-03     8.72003E-03
            6209            6203     8.27075E-03     8.72003E-03
            6209            6204     9.35465E-03     9.81770E-03
            6227            6204     9.35465E-03     9.81770E-03
            6228            6204     9.35465E-03     9.81770E-03
            6210            6204     9.35465E-03     9.81770E-03
            6228            6205     10.8094E-03     11.0860E-03
            6210            6205     10.8094E-03     11.0860E-03
            6211            6205     10.8094E-03     11.0860E-03
            6229            6205     10.8094E-03     11.0860E-03
            6211            6206     12.4254E-03     12.5858E-03
            6212            6206     12.4254E-03     12.5858E-03
            6230            6206     12.4254E-03     12.5858E-03
            6229            6206     12.4254E-03     12.5858E-03
            6212            6207     14.1293E-03     14.2288E-03
            6231            6207     14.1293E-03     14.2288E-03
            6213            6207     14.1293E-03     14.2288E-03
            6230            6207     14.1293E-03     14.2288E-03
            6213            6208     15.8999E-03     15.9658E-03
            6231            6208     15.8999E-03     15.9658E-03
            6214            6208     15.8999E-03     15.9658E-03
            6232            6208     15.8999E-03     15.9658E-03
            6215            6209     17.7053E-03     17.7599E-03
            6232            6209     17.7053E-03     17.7599E-03
            6233            6209     17.7053E-03     17.7599E-03
            6214            6209     17.7053E-03     17.7599E-03
            6234            6210     19.5318E-03     19.5826E-03
            6233            6210     19.5318E-03     19.5826E-03
            6215            6210     19.5318E-03     19.5826E-03
            6216            6210     19.5318E-03     19.5826E-03
            6216            6211     21.3487E-03     21.4089E-03
            6235            6211     21.3487E-03     21.4089E-03
            6217            6211     21.3487E-03     21.4089E-03
            6234            6211     21.3487E-03     21.4089E-03
            6218            6212     23.1294E-03     23.2077E-03
            6217            6212     23.1294E-03     23.2077E-03
            6235            6212     23.1294E-03     23.2077E-03
            6236            6212     23.1294E-03     23.2077E-03
            6219            6213     24.8267E-03     24.9417E-03
            6236            6213     24.8267E-03     24.9417E-03
            6218            6213     24.8267E-03     24.9417E-03
            6237            6213     24.8267E-03     24.9417E-03
            6219            6214     26.3773E-03     26.5544E-03
            6237            6214     26.3773E-03     26.5544E-03
            6220            6214     26.3773E-03     26.5544E-03
            6238            6214     26.3773E-03     26.5544E-03
            6238            6215     27.7063E-03     27.9743E-03
            6220            6215     27.7063E-03     27.9743E-03
            6221            6215     27.7063E-03     27.9743E-03
            6239            6215     27.7063E-03     27.9743E-03
            6221            6216     28.7018E-03     29.0893E-03
            6239            6216     28.7018E-03     29.0893E-03
            6240            6216     28.7018E-03     29.0893E-03
            6222            6216     28.7018E-03     29.0893E-03
            6241            6217     29.4013E-03     29.8441E-03
            6222            6217     29.4013E-03     29.8441E-03
            6240            6217     29.4013E-03     29.8441E-03
            6223            6217     29.4013E-03     29.8441E-03
            6242            6218     30.2104E-03     30.5122E-03
            6223            6218     30.2104E-03     30.5122E-03
            6224            6218     30.2104E-03     30.5122E-03
            6241            6218     30.2104E-03     30.5122E-03
            6244            6219     8.47160E-03     9.03605E-03
            6226            6219     8.47160E-03     9.03605E-03
            6243            6219     8.47160E-03     9.03605E-03
            6225            6219     8.47160E-03     9.03605E-03
            6227            6220     8.95057E-03     9.65575E-03
            6226            6220     8.95057E-03     9.65575E-03
            6244            6220     8.95057E-03     9.65575E-03
            6245            6220     8.95057E-03     9.65575E-03
            6245            6221     10.0557E-03     10.3781E-03
            6228            6221     10.0557E-03     10.3781E-03
            6227            6221     10.0557E-03     10.3781E-03
            6246            6221     10.0557E-03     10.3781E-03
            6229            6222     11.3901E-03     11.4718E-03
            6247            6222     11.3901E-03     11.4718E-03
            6228            6222     11.3901E-03     11.4718E-03
            6246            6222     11.3901E-03     11.4718E-03
            6248            6223     12.8324E-03     12.8145E-03
            6229            6223     12.8324E-03     12.8145E-03
            6247            6223     12.8324E-03     12.8145E-03
            6230            6223     12.8324E-03     12.8145E-03
            6249            6224     14.3730E-03     14.2996E-03
            6230            6224     14.3730E-03     14.2996E-03
            6231            6224     14.3730E-03     14.2996E-03
            6248            6224     14.3730E-03     14.2996E-03
            6231            6225     15.9747E-03     15.8756E-03
            6232            6225     15.9747E-03     15.8756E-03
            6250            6225     15.9747E-03     15.8756E-03
            6249            6225     15.9747E-03     15.8756E-03
            6250            6226     17.6184E-03     17.4982E-03
            6251            6226     17.6184E-03     17.4982E-03
            6232            6226     17.6184E-03     17.4982E-03
            6233            6226     17.6184E-03     17.4982E-03
            6251            6227     19.2758E-03     19.1396E-03
            6252            6227     19.2758E-03     19.1396E-03
            6233            6227     19.2758E-03     19.1396E-03
            6234            6227     19.2758E-03     19.1396E-03
            6234            6228     20.9231E-03     20.7691E-03
            6235            6228     20.9231E-03     20.7691E-03
            6253            6228     20.9231E-03     20.7691E-03
            6252            6228     20.9231E-03     20.7691E-03
            6253            6229     22.5270E-03     22.3582E-03
            6236            6229     22.5270E-03     22.3582E-03
            6235            6229     22.5270E-03     22.3582E-03
            6254            6229     22.5270E-03     22.3582E-03
            6237            6230     24.0441E-03     23.8682E-03
            6254            6230     24.0441E-03     23.8682E-03
            6255            6230     24.0441E-03     23.8682E-03
            6236            6230     24.0441E-03     23.8682E-03
            6255            6231     25.4225E-03     25.2513E-03
            6237            6231     25.4225E-03     25.2513E-03
            6238            6231     25.4225E-03     25.2513E-03
            6256            6231     25.4225E-03     25.2513E-03
            6238            6232     26.5700E-03     26.4436E-03
            6256            6232     26.5700E-03     26.4436E-03
            6239            6232     26.5700E-03     26.4436E-03
            6257            6232     26.5700E-03     26.4436E-03
            6257            6233     27.3869E-03     27.3488E-03
            6258            6233     27.3869E-03     27.3488E-03
            6240            6233     27.3869E-03     27.3488E-03
            6239            6233     27.3869E-03     27.3488E-03
            6258            6234     27.6874E-03     27.7940E-03
            6241            6234     27.6874E-03     27.7940E-03
            6259            6234     27.6874E-03     27.7940E-03
            6240            6234     27.6874E-03     27.7940E-03
            6242            6235     27.8690E-03     27.9456E-03
            6260            6235     27.8690E-03     27.9456E-03
            6241            6235     27.8690E-03     27.9456E-03
            6259            6235     27.8690E-03     27.9456E-03
            6261            6236     9.16934E-03     10.2858E-03
            6262            6236     9.16934E-03     10.2858E-03
            6244            6236     9.16934E-03     10.2858E-03
            6243            6236     9.16934E-03     10.2858E-03
            6244            6237     9.95461E-03     10.3524E-03
            6245            6237     9.95461E-03     10.3524E-03
            6262            6237     9.95461E-03     10.3524E-03
            6263            6237     9.95461E-03     10.3524E-03
            6245            6238     10.9719E-03     10.9546E-03
            6246            6238     10.9719E-03     10.9546E-03
            6263            6238     10.9719E-03     10.9546E-03
            6264            6238     10.9719E-03     10.9546E-03
            6247            6239     12.0948E-03     11.9527E-03
            6246            6239     12.0948E-03     11.9527E-03
            6264            6239     12.0948E-03     11.9527E-03
            6265            6239     12.0948E-03     11.9527E-03
            6265            6240     13.3346E-03     13.1447E-03
            6266            6240     13.3346E-03     13.1447E-03
            6247            6240     13.3346E-03     13.1447E-03
            6248            6240     13.3346E-03     13.1447E-03
            6266            6241     14.6779E-03     14.4624E-03
            6249            6241     14.6779E-03     14.4624E-03
            6267            6241     14.6779E-03     14.4624E-03
            6248            6241     14.6779E-03     14.4624E-03
            6250            6242     16.0857E-03     15.8500E-03
            6267            6242     16.0857E-03     15.8500E-03
            6249            6242     16.0857E-03     15.8500E-03
            6268            6242     16.0857E-03     15.8500E-03
            6251            6243     17.5333E-03     17.2708E-03
            6268            6243     17.5333E-03     17.2708E-03
            6250            6243     17.5333E-03     17.2708E-03
            6269            6243     17.5333E-03     17.2708E-03
            6252            6244     18.9890E-03     18.6904E-03
            6251            6244     18.9890E-03     18.6904E-03
            6270            6244     18.9890E-03     18.6904E-03
            6269            6244     18.9890E-03     18.6904E-03
            6271            6245     20.4265E-03     20.0812E-03
            6253            6245     20.4265E-03     20.0812E-03
            6270            6245     20.4265E-03     20.0812E-03
            6252            6245     20.4265E-03     20.0812E-03
            6272            6246     21.8121E-03     21.4076E-03
            6254            6246     21.8121E-03     21.4076E-03
            6271            6246     21.8121E-03     21.4076E-03
            6253            6246     21.8121E-03     21.4076E-03
            6273            6247     23.1137E-03     22.6368E-03
            6255            6247     23.1137E-03     22.6368E-03
            6254            6247     23.1137E-03     22.6368E-03
            6272            6247     23.1137E-03     22.6368E-03
            6256            6248     24.2793E-03     23.7224E-03
            6274            6248     24.2793E-03     23.7224E-03
            6273            6248     24.2793E-03     23.7224E-03
            6255            6248     24.2793E-03     23.7224E-03
            6256            6249     25.2529E-03     24.6076E-03
            6275            6249     25.2529E-03     24.6076E-03
            6257            6249     25.2529E-03     24.6076E-03
            6274            6249     25.2529E-03     24.6076E-03
            6276            6250     25.9317E-03     25.2178E-03
            6275            6250     25.9317E-03     25.2178E-03
            6258            6250     25.9317E-03     25.2178E-03
            6257            6250     25.9317E-03     25.2178E-03
            6277            6251     26.1174E-03     25.3920E-03
            6258            6251     26.1174E-03     25.3920E-03
            6259            6251     26.1174E-03     25.3920E-03
            6276            6251     26.1174E-03     25.3920E-03
            6259            6252     25.6021E-03     24.8375E-03
            6260            6252     25.6021E-03     24.8375E-03
            6278            6252     25.6021E-03     24.8375E-03
            6277            6252     25.6021E-03     24.8375E-03
            6279            6253     5.72354E-03     6.62497E-03
            6261            6253     5.72354E-03     6.62497E-03
            6262            6253     5.72354E-03     6.62497E-03
            6280            6253     5.72354E-03     6.62497E-03
            6281            6254     6.52323E-03     6.91085E-03
            6262            6254     6.52323E-03     6.91085E-03
            6280            6254     6.52323E-03     6.91085E-03
            6263            6254     6.52323E-03     6.91085E-03
            6264            6255     7.28320E-03     7.60396E-03
            6282            6255     7.28320E-03     7.60396E-03
            6263            6255     7.28320E-03     7.60396E-03
            6281            6255     7.28320E-03     7.60396E-03
            6264            6256     8.17381E-03     8.52206E-03
            6283            6256     8.17381E-03     8.52206E-03
            6265            6256     8.17381E-03     8.52206E-03
            6282            6256     8.17381E-03     8.52206E-03
            6283            6257     9.15934E-03     9.52110E-03
            6284            6257     9.15934E-03     9.52110E-03
            6265            6257     9.15934E-03     9.52110E-03
            6266            6257     9.15934E-03     9.52110E-03
            6285            6258     10.2150E-03     10.5928E-03
            6284            6258     10.2150E-03     10.5928E-03
            6266            6258     10.2150E-03     10.5928E-03
            6267            6258     10.2150E-03     10.5928E-03
            6286            6259     11.3172E-03     11.6929E-03
            6285            6259     11.3172E-03     11.6929E-03
            6267            6259     11.3172E-03     11.6929E-03
            6268            6259     11.3172E-03     11.6929E-03
            6286            6260     12.4475E-03     12.8121E-03
            6268            6260     12.4475E-03     12.8121E-03
            6269            6260     12.4475E-03     12.8121E-03
            6287            6260     12.4475E-03     12.8121E-03
            6269            6261     13.5941E-03     13.9316E-03
            6287            6261     13.5941E-03     13.9316E-03
            6270            6261     13.5941E-03     13.9316E-03
            6288            6261     13.5941E-03     13.9316E-03
            6270            6262     14.7430E-03     15.0447E-03
            6289            6262     14.7430E-03     15.0447E-03
            6271            6262     14.7430E-03     15.0447E-03
            6288            6262     14.7430E-03     15.0447E-03
            6272            6263     15.8997E-03     16.1449E-03
            6271            6263     15.8997E-03     16.1449E-03
            6290            6263     15.8997E-03     16.1449E-03
            6289            6263     15.8997E-03     16.1449E-03
            6272            6264     17.0504E-03     17.2363E-03
            6290            6264     17.0504E-03     17.2363E-03
            6273            6264     17.0504E-03     17.2363E-03
            6291            6264     17.0504E-03     17.2363E-03
            6273            6265     18.2324E-03     18.3301E-03
            6291            6265     18.2324E-03     18.3301E-03
            6292            6265     18.2324E-03     18.3301E-03
            6274            6265     18.2324E-03     18.3301E-03
            6274            6266     19.4294E-03     19.4623E-03
            6292            6266     19.4294E-03     19.4623E-03
            6275            6266     19.4294E-03     19.4623E-03
            6293            6266     19.4294E-03     19.4623E-03
            6276            6267     20.7571E-03     20.7102E-03
            6275            6267     20.7571E-03     20.7102E-03
            6293            6267     20.7571E-03     20.7102E-03
            6294            6267     20.7571E-03     20.7102E-03
            6295            6268     22.1826E-03     22.1790E-03
            6277            6268     22.1826E-03     22.1790E-03
            6276            6268     22.1826E-03     22.1790E-03
            6294            6268     22.1826E-03     22.1790E-03
            6277            6269     24.3793E-03     24.8581E-03
            6278            6269     24.3793E-03     24.8581E-03
            6296            6269     24.3793E-03     24.8581E-03
            6295            6269     24.3793E-03     24.8581E-03
            6298            6270     2.33561E-03     2.74784E-03
            6279            6270     2.33561E-03     2.74784E-03
            6297            6270     2.33561E-03     2.74784E-03
            6280            6270     2.33561E-03     2.74784E-03
            6280            6271     2.71314E-03     3.35374E-03
            6281            6271     2.71314E-03     3.35374E-03
            6298            6271     2.71314E-03     3.35374E-03
            6299            6271     2.71314E-03     3.35374E-03
            6281            6272     3.34577E-03     4.09419E-03
            6299            6272     3.34577E-03     4.09419E-03
            6300            6272     3.34577E-03     4.09419E-03
            6282            6272     3.34577E-03     4.09419E-03
            6300            6273     4.09877E-03     4.93153E-03
            6283            6273     4.09877E-03     4.93153E-03
            6282            6273     4.09877E-03     4.93153E-03
            6301            6273     4.09877E-03     4.93153E-03
            6301            6274     4.91897E-03     5.80972E-03
            6283            6274     4.91897E-03     5.80972E-03
            6284            6274     4.91897E-03     5.80972E-03
            6302            6274     4.91897E-03     5.80972E-03
            6284            6275     5.78302E-03     6.71056E-03
            6285            6275     5.78302E-03     6.71056E-03
            6303            6275     5.78302E-03     6.71056E-03
            6302            6275     5.78302E-03     6.71056E-03
            6303            6276     6.67354E-03     7.62373E-03
            6304            6276     6.67354E-03     7.62373E-03
            6286            6276     6.67354E-03     7.62373E-03
            6285            6276     6.67354E-03     7.62373E-03
            6305            6277     7.58913E-03     8.55009E-03
            6304            6277     7.58913E-03     8.55009E-03
            6287            6277     7.58913E-03     8.55009E-03
            6286            6277     7.58913E-03     8.55009E-03
            6287            6278     8.52815E-03     9.48981E-03
            6288            6278     8.52815E-03     9.48981E-03
            6305            6278     8.52815E-03     9.48981E-03
            6306            6278     8.52815E-03     9.48981E-03
            6307            6279     9.50657E-03     10.4622E-03
            6289            6279     9.50657E-03     10.4622E-03
            6288            6279     9.50657E-03     10.4622E-03
            6306            6279     9.50657E-03     10.4622E-03
            6290            6280     10.5376E-03     11.4802E-03
            6289            6280     10.5376E-03     11.4802E-03
            6308            6280     10.5376E-03     11.4802E-03
            6307            6280     10.5376E-03     11.4802E-03
            6290            6281     11.6756E-03     12.6015E-03
            6291            6281     11.6756E-03     12.6015E-03
            6308            6281     11.6756E-03     12.6015E-03
            6309            6281     11.6756E-03     12.6015E-03
            6309            6282     12.9597E-03     13.8724E-03
            6310            6282     12.9597E-03     13.8724E-03
            6291            6282     12.9597E-03     13.8724E-03
            6292            6282     12.9597E-03     13.8724E-03
            6311            6283     14.5506E-03     15.4558E-03
            6292            6283     14.5506E-03     15.4558E-03
            6293            6283     14.5506E-03     15.4558E-03
            6310            6283     14.5506E-03     15.4558E-03
            6294            6284     16.5491E-03     17.4884E-03
            6293            6284     16.5491E-03     17.4884E-03
            6312            6284     16.5491E-03     17.4884E-03
            6311            6284     16.5491E-03     17.4884E-03
            6313            6285     19.5701E-03     20.5787E-03
            6294            6285     19.5701E-03     20.5787E-03
            6295            6285     19.5701E-03     20.5787E-03
            6312            6285     19.5701E-03     20.5787E-03
            6314            6286     24.6581E-03     25.4927E-03
            6295            6286     24.6581E-03     25.4927E-03
            6313            6286     24.6581E-03     25.4927E-03
            6296            6286     24.6581E-03     25.4927E-03
            6297            6287     3.04110E-03     3.04442E-03
            6316            6287     3.04110E-03     3.04442E-03
            6315            6287     3.04110E-03     3.04442E-03
            6298            6287     3.04110E-03     3.04442E-03
            6298            6288     3.31797E-03     3.65213E-03
            6316            6288     3.31797E-03     3.65213E-03
            6299            6288     3.31797E-03     3.65213E-03
            6317            6288     3.31797E-03     3.65213E-03
            6317            6289     3.86117E-03     4.37735E-03
            6299            6289     3.86117E-03     4.37735E-03
            6318            6289     3.86117E-03     4.37735E-03
            6300            6289     3.86117E-03     4.37735E-03
            6318            6290     4.56331E-03     5.18108E-03
            6319            6290     4.56331E-03     5.18108E-03
            6301            6290     4.56331E-03     5.18108E-03
            6300            6290     4.56331E-03     5.18108E-03
            6301            6291     5.35157E-03     6.04182E-03
            6319            6291     5.35157E-03     6.04182E-03
            6320            6291     5.35157E-03     6.04182E-03
            6302            6291     5.35157E-03     6.04182E-03
            6303            6292     6.19517E-03     6.93207E-03
            6302            6292     6.19517E-03     6.93207E-03
            6320            6292     6.19517E-03     6.93207E-03
            6321            6292     6.19517E-03     6.93207E-03
            6322            6293     7.07711E-03     7.84387E-03
            6321            6293     7.07711E-03     7.84387E-03
            6303            6293     7.07711E-03     7.84387E-03
            6304            6293     7.07711E-03     7.84387E-03
            6322            6294     7.98592E-03     8.77208E-03
            6304            6294     7.98592E-03     8.77208E-03
            6323            6294     7.98592E-03     8.77208E-03
            6305            6294     7.98592E-03     8.77208E-03
            6323            6295     8.92521E-03     9.72247E-03
            6324            6295     8.92521E-03     9.72247E-03
            6306            6295     8.92521E-03     9.72247E-03
            6305            6295     8.92521E-03     9.72247E-03
            6325            6296     9.89672E-03     10.7015E-03
            6307            6296     9.89672E-03     10.7015E-03
            6306            6296     9.89672E-03     10.7015E-03
            6324            6296     9.89672E-03     10.7015E-03
            6308            6297     10.9309E-03     11.7357E-03
            6326            6297     10.9309E-03     11.7357E-03
            6325            6297     10.9309E-03     11.7357E-03
            6307            6297     10.9309E-03     11.7357E-03
            6327            6298     12.0514E-03     12.8575E-03
            6308            6298     12.0514E-03     12.8575E-03
            6326            6298     12.0514E-03     12.8575E-03
            6309            6298     12.0514E-03     12.8575E-03
            6327            6299     13.3508E-03     14.1396E-03
            6310            6299     13.3508E-03     14.1396E-03
            6328            6299     13.3508E-03     14.1396E-03
            6309            6299     13.3508E-03     14.1396E-03
            6310            6300     14.9203E-03     15.6940E-03
            6328            6300     14.9203E-03     15.6940E-03
            6311            6300     14.9203E-03     15.6940E-03
            6329            6300     14.9203E-03     15.6940E-03
            6312            6301     16.9899E-03     17.6947E-03
            6311            6301     16.9899E-03     17.6947E-03
            6330            6301     16.9899E-03     17.6947E-03
            6329            6301     16.9899E-03     17.6947E-03
            6331            6302     20.1722E-03     20.6004E-03
            6330            6302     20.1722E-03     20.6004E-03
            6312            6302     20.1722E-03     20.6004E-03
            6313            6302     20.1722E-03     20.6004E-03
            6331            6303     23.9119E-03     23.9725E-03
            6313            6303     23.9119E-03     23.9725E-03
            6314            6303     23.9119E-03     23.9725E-03
            6332            6303     23.9119E-03     23.9725E-03
            6316            6304     3.59094E-03     3.43532E-03
            6334            6304     3.59094E-03     3.43532E-03
            6315            6304     3.59094E-03     3.43532E-03
            6333            6304     3.59094E-03     3.43532E-03
            6316            6305     3.88676E-03     3.96419E-03
            6334            6305     3.88676E-03     3.96419E-03
            6317            6305     3.88676E-03     3.96419E-03
            6335            6305     3.88676E-03     3.96419E-03
            6317            6306     4.36697E-03     4.66826E-03
            6318            6306     4.36697E-03     4.66826E-03
            6335            6306     4.36697E-03     4.66826E-03
            6336            6306     4.36697E-03     4.66826E-03
            6337            6307     5.01771E-03     5.45040E-03
            6318            6307     5.01771E-03     5.45040E-03
            6319            6307     5.01771E-03     5.45040E-03
            6336            6307     5.01771E-03     5.45040E-03
            6319            6308     5.77697E-03     6.29030E-03
            6338            6308     5.77697E-03     6.29030E-03
            6320            6308     5.77697E-03     6.29030E-03
            6337            6308     5.77697E-03     6.29030E-03
            6321            6309     6.60406E-03     7.16972E-03
            6339            6309     6.60406E-03     7.16972E-03
            6338            6309     6.60406E-03     7.16972E-03
            6320            6309     6.60406E-03     7.16972E-03
            6322            6310     7.47812E-03     8.07740E-03
            6340            6310     7.47812E-03     8.07740E-03
            6339            6310     7.47812E-03     8.07740E-03
            6321            6310     7.47812E-03     8.07740E-03
            6341            6311     8.38786E-03     9.01008E-03
            6340            6311     8.38786E-03     9.01008E-03
            6323            6311     8.38786E-03     9.01008E-03
            6322            6311     8.38786E-03     9.01008E-03
            6342            6312     9.32643E-03     9.96767E-03
            6341            6312     9.32643E-03     9.96767E-03
            6323            6312     9.32643E-03     9.96767E-03
            6324            6312     9.32643E-03     9.96767E-03
            6324            6313     10.3029E-03     10.9574E-03
            6325            6313     10.3029E-03     10.9574E-03
            6343            6313     10.3029E-03     10.9574E-03
            6342            6313     10.3029E-03     10.9574E-03
            6325            6314     11.3251E-03     11.9947E-03
            6326            6314     11.3251E-03     11.9947E-03
            6343            6314     11.3251E-03     11.9947E-03
            6344            6314     11.3251E-03     11.9947E-03
            6345            6315     12.4332E-03     13.1042E-03
            6326            6315     12.4332E-03     13.1042E-03
            6327            6315     12.4332E-03     13.1042E-03
            6344            6315     12.4332E-03     13.1042E-03
            6345            6316     13.6812E-03     14.3466E-03
            6346            6316     13.6812E-03     14.3466E-03
            6328            6316     13.6812E-03     14.3466E-03
            6327            6316     13.6812E-03     14.3466E-03
            6329            6317     15.1554E-03     15.7812E-03
            6328            6317     15.1554E-03     15.7812E-03
            6347            6317     15.1554E-03     15.7812E-03
            6346            6317     15.1554E-03     15.7812E-03
            6348            6318     17.1307E-03     17.6085E-03
            6347            6318     17.1307E-03     17.6085E-03
            6329            6318     17.1307E-03     17.6085E-03
            6330            6318     17.1307E-03     17.6085E-03
            6331            6319     19.5071E-03     19.8526E-03
            6348            6319     19.5071E-03     19.8526E-03
            6349            6319     19.5071E-03     19.8526E-03
            6330            6319     19.5071E-03     19.8526E-03
            6350            6320     21.9847E-03     22.4102E-03
            6349            6320     21.9847E-03     22.4102E-03
            6332            6320     21.9847E-03     22.4102E-03
            6331            6320     21.9847E-03     22.4102E-03
            6351            6321     4.08606E-03     3.87913E-03
            6333            6321     4.08606E-03     3.87913E-03
            6334            6321     4.08606E-03     3.87913E-03
            6352            6321     4.08606E-03     3.87913E-03
            6352            6322     4.36088E-03     4.33923E-03
            6353            6322     4.36088E-03     4.33923E-03
            6334            6322     4.36088E-03     4.33923E-03
            6335            6322     4.36088E-03     4.33923E-03
            6335            6323     4.83125E-03     4.97589E-03
            6353            6323     4.83125E-03     4.97589E-03
            6336            6323     4.83125E-03     4.97589E-03
            6354            6323     4.83125E-03     4.97589E-03
            6336            6324     5.44552E-03     5.72938E-03
            6355            6324     5.44552E-03     5.72938E-03
            6354            6324     5.44552E-03     5.72938E-03
            6337            6324     5.44552E-03     5.72938E-03
            6356            6325     6.17692E-03     6.54129E-03
            6355            6325     6.17692E-03     6.54129E-03
            6338            6325     6.17692E-03     6.54129E-03
            6337            6325     6.17692E-03     6.54129E-03
            6356            6326     6.98945E-03     7.40209E-03
            6338            6326     6.98945E-03     7.40209E-03
            6339            6326     6.98945E-03     7.40209E-03
            6357            6326     6.98945E-03     7.40209E-03
            6339            6327     7.85603E-03     8.29968E-03
            6340            6327     7.85603E-03     8.29968E-03
            6358            6327     7.85603E-03     8.29968E-03
            6357            6327     7.85603E-03     8.29968E-03
            6358            6328     8.76277E-03     9.22891E-03
            6340            6328     8.76277E-03     9.22891E-03
            6359            6328     8.76277E-03     9.22891E-03
            6341            6328     8.76277E-03     9.22891E-03
            6341            6329     9.70165E-03     10.1871E-03
            6342            6329     9.70165E-03     10.1871E-03
            6360            6329     9.70165E-03     10.1871E-03
            6359            6329     9.70165E-03     10.1871E-03
            6361            6330     10.6700E-03     11.1764E-03
            6342            6330     10.6700E-03     11.1764E-03
            6343            6330     10.6700E-03     11.1764E-03
            6360            6330     10.6700E-03     11.1764E-03
            6362            6331     11.6725E-03     12.1974E-03
            6344            6331     11.6725E-03     12.1974E-03
            6361            6331     11.6725E-03     12.1974E-03
            6343            6331     11.6725E-03     12.1974E-03
            6345            6332     12.7284E-03     13.2687E-03
            6363            6332     12.7284E-03     13.2687E-03
            6362            6332     12.7284E-03     13.2687E-03
            6344            6332     12.7284E-03     13.2687E-03
            6363            6333     13.8534E-03     14.3986E-03
            6364            6333     13.8534E-03     14.3986E-03
            6346            6333     13.8534E-03     14.3986E-03
            6345            6333     13.8534E-03     14.3986E-03
            6346            6334     15.1564E-03     15.6522E-03
            6365            6334     15.1564E-03     15.6522E-03
            6364            6334     15.1564E-03     15.6522E-03
            6347            6334     15.1564E-03     15.6522E-03
            6347            6335     16.6263E-03     17.0689E-03
            6365            6335     16.6263E-03     17.0689E-03
            6348            6335     16.6263E-03     17.0689E-03
            6366            6335     16.6263E-03     17.0689E-03
            6348            6336     18.2773E-03     18.6692E-03
            6349            6336     18.2773E-03     18.6692E-03
            6367            6336     18.2773E-03     18.6692E-03
            6366            6336     18.2773E-03     18.6692E-03
            6367            6337     20.2606E-03     20.4806E-03
            6349            6337     20.2606E-03     20.4806E-03
            6350            6337     20.2606E-03     20.4806E-03
            6368            6337     20.2606E-03     20.4806E-03
            6370            6338     4.54306E-03     4.30895E-03
            6351            6338     4.54306E-03     4.30895E-03
            6369            6338     4.54306E-03     4.30895E-03
            6352            6338     4.54306E-03     4.30895E-03
            6353            6339     4.80513E-03     4.72616E-03
            6370            6339     4.80513E-03     4.72616E-03
            6352            6339     4.80513E-03     4.72616E-03
            6371            6339     4.80513E-03     4.72616E-03
            6371            6340     5.24100E-03     5.31646E-03
            6353            6340     5.24100E-03     5.31646E-03
            6354            6340     5.24100E-03     5.31646E-03
            6372            6340     5.24100E-03     5.31646E-03
            6355            6341     5.83328E-03     6.00908E-03
            6372            6341     5.83328E-03     6.00908E-03
            6373            6341     5.83328E-03     6.00908E-03
            6354            6341     5.83328E-03     6.00908E-03
            6355            6342     6.54176E-03     6.78390E-03
            6374            6342     6.54176E-03     6.78390E-03
            6373            6342     6.54176E-03     6.78390E-03
            6356            6342     6.54176E-03     6.78390E-03
            6374            6343     7.33489E-03     7.61137E-03
            6375            6343     7.33489E-03     7.61137E-03
            6356            6343     7.33489E-03     7.61137E-03
            6357            6343     7.33489E-03     7.61137E-03
            6375            6344     8.18989E-03     8.48521E-03
            6357            6344     8.18989E-03     8.48521E-03
            6376            6344     8.18989E-03     8.48521E-03
            6358            6344     8.18989E-03     8.48521E-03
            6377            6345     9.08605E-03     9.39778E-03
            6358            6345     9.08605E-03     9.39778E-03
            6359            6345     9.08605E-03     9.39778E-03
            6376            6345     9.08605E-03     9.39778E-03
            6377            6346     10.0137E-03     10.3431E-03
            6378            6346     10.0137E-03     10.3431E-03
            6360            6346     10.0137E-03     10.3431E-03
            6359            6346     10.0137E-03     10.3431E-03
            6379            6347     10.9608E-03     11.3114E-03
            6360            6347     10.9608E-03     11.3114E-03
            6378            6347     10.9608E-03     11.3114E-03
            6361            6347     10.9608E-03     11.3114E-03
            6362            6348     11.9258E-03     12.3005E-03
            6380            6348     11.9258E-03     12.3005E-03
            6379            6348     11.9258E-03     12.3005E-03
            6361            6348     11.9258E-03     12.3005E-03
            6363            6349     12.8872E-03     13.2925E-03
            6380            6349     12.8872E-03     13.2925E-03
            6362            6349     12.8872E-03     13.2925E-03
            6381            6349     12.8872E-03     13.2925E-03
            6381            6350     13.8659E-03     14.2850E-03
            6364            6350     13.8659E-03     14.2850E-03
            6382            6350     13.8659E-03     14.2850E-03
            6363            6350     13.8659E-03     14.2850E-03
            6382            6351     14.8350E-03     15.2676E-03
            6383            6351     14.8350E-03     15.2676E-03
            6364            6351     14.8350E-03     15.2676E-03
            6365            6351     14.8350E-03     15.2676E-03
            6366            6352     15.8351E-03     16.2425E-03
            6384            6352     15.8351E-03     16.2425E-03
            6365            6352     15.8351E-03     16.2425E-03
            6383            6352     15.8351E-03     16.2425E-03
            6367            6353     16.9982E-03     17.2947E-03
            6384            6353     16.9982E-03     17.2947E-03
            6366            6353     16.9982E-03     17.2947E-03
            6385            6353     16.9982E-03     17.2947E-03
            6367            6354     18.4309E-03     18.6724E-03
            6386            6354     18.4309E-03     18.6724E-03
            6368            6354     18.4309E-03     18.6724E-03
            6385            6354     18.4309E-03     18.6724E-03
            6369            6355     4.98053E-03     4.74653E-03
            6387            6355     4.98053E-03     4.74653E-03
            6388            6355     4.98053E-03     4.74653E-03
            6370            6355     4.98053E-03     4.74653E-03
            6371            6356     5.21037E-03     5.13747E-03
            6389            6356     5.21037E-03     5.13747E-03
            6370            6356     5.21037E-03     5.13747E-03
            6388            6356     5.21037E-03     5.13747E-03
            6372            6357     5.61957E-03     5.65916E-03
            6390            6357     5.61957E-03     5.65916E-03
            6389            6357     5.61957E-03     5.65916E-03
            6371            6357     5.61957E-03     5.65916E-03
            6390            6358     6.18306E-03     6.29725E-03
            6372            6358     6.18306E-03     6.29725E-03
            6391            6358     6.18306E-03     6.29725E-03
            6373            6358     6.18306E-03     6.29725E-03
            6391            6359     6.86481E-03     7.00788E-03
            6373            6359     6.86481E-03     7.00788E-03
            6392            6359     6.86481E-03     7.00788E-03
            6374            6359     6.86481E-03     7.00788E-03
            6393            6360     7.63629E-03     7.78359E-03
            6392            6360     7.63629E-03     7.78359E-03
            6374            6360     7.63629E-03     7.78359E-03
            6375            6360     7.63629E-03     7.78359E-03
            6393            6361     8.46628E-03     8.61683E-03
            6375            6361     8.46628E-03     8.61683E-03
            6376            6361     8.46628E-03     8.61683E-03
            6394            6361     8.46628E-03     8.61683E-03
            6377            6362     9.33888E-03     9.49505E-03
            6394            6362     9.33888E-03     9.49505E-03
            6395            6362     9.33888E-03     9.49505E-03
            6376            6362     9.33888E-03     9.49505E-03
            6395            6363     10.2368E-03     10.4047E-03
            6377            6363     10.2368E-03     10.4047E-03
            6396            6363     10.2368E-03     10.4047E-03
            6378            6363     10.2368E-03     10.4047E-03
            6396            6364     11.1502E-03     11.3352E-03
            6397            6364     11.1502E-03     11.3352E-03
            6378            6364     11.1502E-03     11.3352E-03
            6379            6364     11.1502E-03     11.3352E-03
            6379            6365     12.0487E-03     12.2630E-03
            6380            6365     12.0487E-03     12.2630E-03
            6398            6365     12.0487E-03     12.2630E-03
            6397            6365     12.0487E-03     12.2630E-03
            6399            6366     12.9200E-03     13.1651E-03
            6380            6366     12.9200E-03     13.1651E-03
            6398            6366     12.9200E-03     13.1651E-03
            6381            6366     12.9200E-03     13.1651E-03
            6382            6367     13.6983E-03     13.9969E-03
            6381            6367     13.6983E-03     13.9969E-03
            6400            6367     13.6983E-03     13.9969E-03
            6399            6367     13.6983E-03     13.9969E-03
            6383            6368     14.3615E-03     14.7022E-03
            6401            6368     14.3615E-03     14.7022E-03
            6400            6368     14.3615E-03     14.7022E-03
            6382            6368     14.3615E-03     14.7022E-03
            6383            6369     14.9479E-03     15.2847E-03
            6401            6369     14.9479E-03     15.2847E-03
            6384            6369     14.9479E-03     15.2847E-03
            6402            6369     14.9479E-03     15.2847E-03
            6384            6370     15.5835E-03     15.8819E-03
            6403            6370     15.5835E-03     15.8819E-03
            6385            6370     15.5835E-03     15.8819E-03
            6402            6370     15.5835E-03     15.8819E-03
            6385            6371     16.6514E-03     16.7962E-03
            6403            6371     16.6514E-03     16.7962E-03
            6404            6371     16.6514E-03     16.7962E-03
            6386            6371     16.6514E-03     16.7962E-03
            6405            6372     5.38575E-03     5.23112E-03
            6406            6372     5.38575E-03     5.23112E-03
            6388            6372     5.38575E-03     5.23112E-03
            6387            6372     5.38575E-03     5.23112E-03
            6388            6373     5.59526E-03     5.55229E-03
            6389            6373     5.59526E-03     5.55229E-03
            6407            6373     5.59526E-03     5.55229E-03
            6406            6373     5.59526E-03     5.55229E-03
            6389            6374     5.97484E-03     6.03268E-03
            6407            6374     5.97484E-03     6.03268E-03
            6408            6374     5.97484E-03     6.03268E-03
            6390            6374     5.97484E-03     6.03268E-03
            6409            6375     6.50272E-03     6.58397E-03
            6391            6375     6.50272E-03     6.58397E-03
            6390            6375     6.50272E-03     6.58397E-03
            6408            6375     6.50272E-03     6.58397E-03
            6409            6376     7.16050E-03     7.20716E-03
            6392            6376     7.16050E-03     7.20716E-03
            6410            6376     7.16050E-03     7.20716E-03
            6391            6376     7.16050E-03     7.20716E-03
            6410            6377     7.89587E-03     7.91600E-03
            6393            6377     7.89587E-03     7.91600E-03
            6392            6377     7.89587E-03     7.91600E-03
            6411            6377     7.89587E-03     7.91600E-03
            6411            6378     8.68466E-03     8.68920E-03
            6394            6378     8.68466E-03     8.68920E-03
            6412            6378     8.68466E-03     8.68920E-03
            6393            6378     8.68466E-03     8.68920E-03
            6412            6379     9.51140E-03     9.50959E-03
            6394            6379     9.51140E-03     9.50959E-03
            6395            6379     9.51140E-03     9.50959E-03
            6413            6379     9.51140E-03     9.50959E-03
            6396            6380     10.3625E-03     10.3623E-03
            6413            6380     10.3625E-03     10.3623E-03
            6395            6380     10.3625E-03     10.3623E-03
            6414            6380     10.3625E-03     10.3623E-03
            6397            6381     11.2132E-03     11.2248E-03
            6415            6381     11.2132E-03     11.2248E-03
            6414            6381     11.2132E-03     11.2248E-03
            6396            6381     11.2132E-03     11.2248E-03
            6416            6382     12.0449E-03     12.0745E-03
            6415            6382     12.0449E-03     12.0745E-03
            6398            6382     12.0449E-03     12.0745E-03
            6397            6382     12.0449E-03     12.0745E-03
            6399            6383     12.7985E-03     12.8679E-03
            6398            6383     12.7985E-03     12.8679E-03
            6417            6383     12.7985E-03     12.8679E-03
            6416            6383     12.7985E-03     12.8679E-03
            6417            6384     13.4262E-03     13.5471E-03
            6418            6384     13.4262E-03     13.5471E-03
            6400            6384     13.4262E-03     13.5471E-03
            6399            6384     13.4262E-03     13.5471E-03
            6419            6385     13.8278E-03     14.0289E-03
            6401            6385     13.8278E-03     14.0289E-03
            6418            6385     13.8278E-03     14.0289E-03
            6400            6385     13.8278E-03     14.0289E-03
            6420            6386     13.9818E-03     14.2584E-03
            6402            6386     13.9818E-03     14.2584E-03
            6401            6386     13.9818E-03     14.2584E-03
            6419            6386     13.9818E-03     14.2584E-03
            6402            6387     14.1521E-03     14.3794E-03
            6421            6387     14.1521E-03     14.3794E-03
            6420            6387     14.1521E-03     14.3794E-03
            6403            6387     14.1521E-03     14.3794E-03
            6403            6388     14.7670E-03     14.8802E-03
            6421            6388     14.7670E-03     14.8802E-03
            6404            6388     14.7670E-03     14.8802E-03
            6422            6388     14.7670E-03     14.8802E-03
            6406            6389     5.80129E-03     5.69010E-03
            6424            6389     5.80129E-03     5.69010E-03
            6423            6389     5.80129E-03     5.69010E-03
            6405            6389     5.80129E-03     5.69010E-03
            6425            6390     5.97141E-03     6.05826E-03
            6407            6390     5.97141E-03     6.05826E-03
            6424            6390     5.97141E-03     6.05826E-03
            6406            6390     5.97141E-03     6.05826E-03
            6408            6391     6.30145E-03     6.43623E-03
            6426            6391     6.30145E-03     6.43623E-03
            6407            6391     6.30145E-03     6.43623E-03
            6425            6391     6.30145E-03     6.43623E-03
            6408            6392     6.82857E-03     6.85262E-03
            6409            6392     6.82857E-03     6.85262E-03
            6427            6392     6.82857E-03     6.85262E-03
            6426            6392     6.82857E-03     6.85262E-03
            6427            6393     7.45027E-03     7.38988E-03
            6428            6393     7.45027E-03     7.38988E-03
            6409            6393     7.45027E-03     7.38988E-03
            6410            6393     7.45027E-03     7.38988E-03
            6428            6394     8.12829E-03     8.01833E-03
            6429            6394     8.12829E-03     8.01833E-03
            6411            6394     8.12829E-03     8.01833E-03
            6410            6394     8.12829E-03     8.01833E-03
            6411            6395     8.85461E-03     8.71230E-03
            6430            6395     8.85461E-03     8.71230E-03
            6429            6395     8.85461E-03     8.71230E-03
            6412            6395     8.85461E-03     8.71230E-03
            6430            6396     9.61286E-03     9.45289E-03
            6412            6396     9.61286E-03     9.45289E-03
            6413            6396     9.61286E-03     9.45289E-03
            6431            6396     9.61286E-03     9.45289E-03
            6414            6397     10.3868E-03     10.2176E-03
            6432            6397     10.3868E-03     10.2176E-03
            6431            6397     10.3868E-03     10.2176E-03
            6413            6397     10.3868E-03     10.2176E-03
            6415            6398     11.1593E-03     10.9860E-03
            6414            6398     11.1593E-03     10.9860E-03
            6432            6398     11.1593E-03     10.9860E-03
            6433            6398     11.1593E-03     10.9860E-03
            6416            6399     11.8920E-03     11.7264E-03
            6433            6399     11.8920E-03     11.7264E-03
            6415            6399     11.8920E-03     11.7264E-03
            6434            6399     11.8920E-03     11.7264E-03
            6417            6400     12.5454E-03     12.3968E-03
            6434            6400     12.5454E-03     12.3968E-03
            6435            6400     12.5454E-03     12.3968E-03
            6416            6400     12.5454E-03     12.3968E-03
            6435            6401     13.0338E-03     12.9292E-03
            6418            6401     13.0338E-03     12.9292E-03
            6436            6401     13.0338E-03     12.9292E-03
            6417            6401     13.0338E-03     12.9292E-03
            6436            6402     13.2675E-03     13.2390E-03
            6419            6402     13.2675E-03     13.2390E-03
            6437            6402     13.2675E-03     13.2390E-03
            6418            6402     13.2675E-03     13.2390E-03
            6438            6403     13.0894E-03     13.1857E-03
            6420            6403     13.0894E-03     13.1857E-03
            6437            6403     13.0894E-03     13.1857E-03
            6419            6403     13.0894E-03     13.1857E-03
            6439            6404     12.6389E-03     12.8272E-03
            6420            6404     12.6389E-03     12.8272E-03
            6438            6404     12.6389E-03     12.8272E-03
            6421            6404     12.6389E-03     12.8272E-03
            6440            6405     12.8101E-03     12.8277E-03
            6439            6405     12.8101E-03     12.8277E-03
            6421            6405     12.8101E-03     12.8277E-03
            6422            6405     12.8101E-03     12.8277E-03
            6442            6406     6.19087E-03     6.41926E-03
            6423            6406     6.19087E-03     6.41926E-03
            6424            6406     6.19087E-03     6.41926E-03
            6441            6406     6.19087E-03     6.41926E-03
            6442            6407     6.27789E-03     6.63380E-03
            6443            6407     6.27789E-03     6.63380E-03
            6425            6407     6.27789E-03     6.63380E-03
            6424            6407     6.27789E-03     6.63380E-03
            6425            6408     6.68658E-03     6.79405E-03
            6426            6408     6.68658E-03     6.79405E-03
            6444            6408     6.68658E-03     6.79405E-03
            6443            6408     6.68658E-03     6.79405E-03
            6445            6409     7.20128E-03     7.11773E-03
            6426            6409     7.20128E-03     7.11773E-03
            6444            6409     7.20128E-03     7.11773E-03
            6427            6409     7.20128E-03     7.11773E-03
            6445            6410     7.75570E-03     7.57676E-03
            6428            6410     7.75570E-03     7.57676E-03
            6427            6410     7.75570E-03     7.57676E-03
            6446            6410     7.75570E-03     7.57676E-03
            6429            6411     8.36043E-03     8.11772E-03
            6428            6411     8.36043E-03     8.11772E-03
            6446            6411     8.36043E-03     8.11772E-03
            6447            6411     8.36043E-03     8.11772E-03
            6430            6412     9.00052E-03     8.71935E-03
            6429            6412     9.00052E-03     8.71935E-03
            6447            6412     9.00052E-03     8.71935E-03
            6448            6412     9.00052E-03     8.71935E-03
            6448            6413     9.66482E-03     9.35498E-03
            6431            6413     9.66482E-03     9.35498E-03
            6449            6413     9.66482E-03     9.35498E-03
            6430            6413     9.66482E-03     9.35498E-03
            6431            6414     10.3384E-03     10.0044E-03
            6449            6414     10.3384E-03     10.0044E-03
            6450            6414     10.3384E-03     10.0044E-03
            6432            6414     10.3384E-03     10.0044E-03
            6433            6415     10.9972E-03     10.6436E-03
            6450            6415     10.9972E-03     10.6436E-03
            6451            6415     10.9972E-03     10.6436E-03
            6432            6415     10.9972E-03     10.6436E-03
            6433            6416     11.6134E-03     11.2412E-03
            6451            6416     11.6134E-03     11.2412E-03
            6452            6416     11.6134E-03     11.2412E-03
            6434            6416     11.6134E-03     11.2412E-03
            6434            6417     12.1404E-03     11.7561E-03
            6435            6417     12.1404E-03     11.7561E-03
            6453            6417     12.1404E-03     11.7561E-03
            6452            6417     12.1404E-03     11.7561E-03
            6453            6418     12.5101E-03     12.1272E-03
            6436            6418     12.5101E-03     12.1272E-03
            6454            6418     12.5101E-03     12.1272E-03
            6435            6418     12.5101E-03     12.1272E-03
            6454            6419     12.6196E-03     12.2608E-03
            6436            6419     12.6196E-03     12.2608E-03
            6455            6419     12.6196E-03     12.2608E-03
            6437            6419     12.6196E-03     12.2608E-03
            6437            6420     12.3169E-03     12.0433E-03
            6438            6420     12.3169E-03     12.0433E-03
            6456            6420     12.3169E-03     12.0433E-03
            6455            6420     12.3169E-03     12.0433E-03
            6457            6421     11.3238E-03     11.2354E-03
            6439            6421     11.3238E-03     11.2354E-03
            6456            6421     11.3238E-03     11.2354E-03
            6438            6421     11.3238E-03     11.2354E-03
            6457            6422     10.6899E-03     10.6447E-03
            6458            6422     10.6899E-03     10.6447E-03
            6439            6422     10.6899E-03     10.6447E-03
            6440            6422     10.6899E-03     10.6447E-03
            6460            6423     6.42729E-03     7.15143E-03
            6459            6423     6.42729E-03     7.15143E-03
            6442            6423     6.42729E-03     7.15143E-03
            6441            6423     6.42729E-03     7.15143E-03
            6460            6424     6.77076E-03     7.01490E-03
            6442            6424     6.77076E-03     7.01490E-03
            6461            6424     6.77076E-03     7.01490E-03
            6443            6424     6.77076E-03     7.01490E-03
            6461            6425     7.19867E-03     7.11131E-03
            6443            6425     7.19867E-03     7.11131E-03
            6444            6425     7.19867E-03     7.11131E-03
            6462            6425     7.19867E-03     7.11131E-03
            6445            6426     7.63392E-03     7.41044E-03
            6463            6426     7.63392E-03     7.41044E-03
            6462            6426     7.63392E-03     7.41044E-03
            6444            6426     7.63392E-03     7.41044E-03
            6445            6427     8.10547E-03     7.80236E-03
            6446            6427     8.10547E-03     7.80236E-03
            6463            6427     8.10547E-03     7.80236E-03
            6464            6427     8.10547E-03     7.80236E-03
            6465            6428     8.62011E-03     8.26089E-03
            6464            6428     8.62011E-03     8.26089E-03
            6446            6428     8.62011E-03     8.26089E-03
            6447            6428     8.62011E-03     8.26089E-03
            6466            6429     9.15983E-03     8.75932E-03
            6465            6429     9.15983E-03     8.75932E-03
            6448            6429     9.15983E-03     8.75932E-03
            6447            6429     9.15983E-03     8.75932E-03
            6448            6430     9.71496E-03     9.27436E-03
            6466            6430     9.71496E-03     9.27436E-03
            6467            6430     9.71496E-03     9.27436E-03
            6449            6430     9.71496E-03     9.27436E-03
            6468            6431     10.2630E-03     9.78567E-03
            6449            6431     10.2630E-03     9.78567E-03
            6450            6431     10.2630E-03     9.78567E-03
            6467            6431     10.2630E-03     9.78567E-03
            6451            6432     10.7835E-03     10.2644E-03
            6468            6432     10.7835E-03     10.2644E-03
            6450            6432     10.7835E-03     10.2644E-03
            6469            6432     10.7835E-03     10.2644E-03
            6470            6433     11.2474E-03     10.6840E-03
            6452            6433     11.2474E-03     10.6840E-03
            6469            6433     11.2474E-03     10.6840E-03
            6451            6433     11.2474E-03     10.6840E-03
            6453            6434     11.6131E-03     10.9978E-03
            6452            6434     11.6131E-03     10.9978E-03
            6470            6434     11.6131E-03     10.9978E-03
            6471            6434     11.6131E-03     10.9978E-03
            6453            6435     11.8373E-03     11.1597E-03
            6471            6435     11.8373E-03     11.1597E-03
            6454            6435     11.8373E-03     11.1597E-03
            6472            6435     11.8373E-03     11.1597E-03
            6473            6436     11.8203E-03     11.0804E-03
            6455            6436     11.8203E-03     11.0804E-03
            6472            6436     11.8203E-03     11.0804E-03
            6454            6436     11.8203E-03     11.0804E-03
            6455            6437     11.4762E-03     10.6662E-03
            6474            6437     11.4762E-03     10.6662E-03
            6473            6437     11.4762E-03     10.6662E-03
            6456            6437     11.4762E-03     10.6662E-03
            6474            6438     10.4663E-03     9.65768E-03
            6475            6438     10.4663E-03     9.65768E-03
            6456            6438     10.4663E-03     9.65768E-03
            6457            6438     10.4663E-03     9.65768E-03
            6458            6439     8.92650E-03     8.31440E-03
            6457            6439     8.92650E-03     8.31440E-03
            6475            6439     8.92650E-03     8.31440E-03
            6476            6439     8.92650E-03     8.31440E-03
            6460            6440     4.89347E-03     5.50289E-03
            6459            6440     4.89347E-03     5.50289E-03
            6478            6440     4.89347E-03     5.50289E-03
            6477            6440     4.89347E-03     5.50289E-03
            6478            6441     5.26967E-03     5.39683E-03
            6479            6441     5.26967E-03     5.39683E-03
            6460            6441     5.26967E-03     5.39683E-03
            6461            6441     5.26967E-03     5.39683E-03
            6461            6442     5.45394E-03     5.47968E-03
            6462            6442     5.45394E-03     5.47968E-03
            6479            6442     5.45394E-03     5.47968E-03
            6480            6442     5.45394E-03     5.47968E-03
            6480            6443     5.65481E-03     5.69693E-03
            6463            6443     5.65481E-03     5.69693E-03
            6481            6443     5.65481E-03     5.69693E-03
            6462            6443     5.65481E-03     5.69693E-03
            6464            6444     5.87399E-03     5.92789E-03
            6463            6444     5.87399E-03     5.92789E-03
            6481            6444     5.87399E-03     5.92789E-03
            6482            6444     5.87399E-03     5.92789E-03
            6465            6445     6.12664E-03     6.19782E-03
            6464            6445     6.12664E-03     6.19782E-03
            6483            6445     6.12664E-03     6.19782E-03
            6482            6445     6.12664E-03     6.19782E-03
            6465            6446     6.39731E-03     6.48317E-03
            6466            6446     6.39731E-03     6.48317E-03
            6483            6446     6.39731E-03     6.48317E-03
            6484            6446     6.39731E-03     6.48317E-03
            6466            6447     6.68065E-03     6.77976E-03
            6467            6447     6.68065E-03     6.77976E-03
            6484            6447     6.68065E-03     6.77976E-03
            6485            6447     6.68065E-03     6.77976E-03
            6485            6448     6.96378E-03     7.07115E-03
            6486            6448     6.96378E-03     7.07115E-03
            6468            6448     6.96378E-03     7.07115E-03
            6467            6448     6.96378E-03     7.07115E-03
            6468            6449     7.23842E-03     7.34863E-03
            6487            6449     7.23842E-03     7.34863E-03
            6469            6449     7.23842E-03     7.34863E-03
            6486            6449     7.23842E-03     7.34863E-03
            6469            6450     7.48319E-03     7.58770E-03
            6487            6450     7.48319E-03     7.58770E-03
            6470            6450     7.48319E-03     7.58770E-03
            6488            6450     7.48319E-03     7.58770E-03
            6471            6451     7.68615E-03     7.77515E-03
            6489            6451     7.68615E-03     7.77515E-03
            6470            6451     7.68615E-03     7.77515E-03
            6488            6451     7.68615E-03     7.77515E-03
            6489            6452     7.80321E-03     7.86610E-03
            6490            6452     7.80321E-03     7.86610E-03
            6471            6452     7.80321E-03     7.86610E-03
            6472            6452     7.80321E-03     7.86610E-03
            6473            6453     7.80992E-03     7.83971E-03
            6491            6453     7.80992E-03     7.83971E-03
            6490            6453     7.80992E-03     7.83971E-03
            6472            6453     7.80992E-03     7.83971E-03
            6473            6454     7.64937E-03     7.64582E-03
            6492            6454     7.64937E-03     7.64582E-03
            6474            6454     7.64937E-03     7.64582E-03
            6491            6454     7.64937E-03     7.64582E-03
            6493            6455     7.43780E-03     7.44152E-03
            6475            6455     7.43780E-03     7.44152E-03
            6492            6455     7.43780E-03     7.44152E-03
            6474            6455     7.43780E-03     7.44152E-03
            6494            6456     7.80251E-03     8.12875E-03
            6493            6456     7.80251E-03     8.12875E-03
            6476            6456     7.80251E-03     8.12875E-03
            6475            6456     7.80251E-03     8.12875E-03
            6477            6457     3.49060E-03     3.67517E-03
            6496            6457     3.49060E-03     3.67517E-03
            6478            6457     3.49060E-03     3.67517E-03
            6495            6457     3.49060E-03     3.67517E-03
            6479            6458     3.50060E-03     3.66508E-03
            6497            6458     3.50060E-03     3.66508E-03
            6478            6458     3.50060E-03     3.66508E-03
            6496            6458     3.50060E-03     3.66508E-03
            6480            6459     3.52012E-03     3.72689E-03
            6479            6459     3.52012E-03     3.72689E-03
            6498            6459     3.52012E-03     3.72689E-03
            6497            6459     3.52012E-03     3.72689E-03
            6480            6460     3.53084E-03     3.82150E-03
            6499            6460     3.53084E-03     3.82150E-03
            6498            6460     3.53084E-03     3.82150E-03
            6481            6460     3.53084E-03     3.82150E-03
            6500            6461     3.55701E-03     3.91241E-03
            6481            6461     3.55701E-03     3.91241E-03
            6482            6461     3.55701E-03     3.91241E-03
            6499            6461     3.55701E-03     3.91241E-03
            6500            6462     3.60358E-03     4.02152E-03
            6482            6462     3.60358E-03     4.02152E-03
            6501            6462     3.60358E-03     4.02152E-03
            6483            6462     3.60358E-03     4.02152E-03
            6502            6463     3.66530E-03     4.13817E-03
            6501            6463     3.66530E-03     4.13817E-03
            6484            6463     3.66530E-03     4.13817E-03
            6483            6463     3.66530E-03     4.13817E-03
            6485            6464     3.74167E-03     4.26904E-03
            6484            6464     3.74167E-03     4.26904E-03
            6502            6464     3.74167E-03     4.26904E-03
            6503            6464     3.74167E-03     4.26904E-03
            6503            6465     3.83501E-03     4.40756E-03
            6485            6465     3.83501E-03     4.40756E-03
            6486            6465     3.83501E-03     4.40756E-03
            6504            6465     3.83501E-03     4.40756E-03
            6504            6466     3.94156E-03     4.55954E-03
            6487            6466     3.94156E-03     4.55954E-03
            6505            6466     3.94156E-03     4.55954E-03
            6486            6466     3.94156E-03     4.55954E-03
            6488            6467     4.06514E-03     4.71716E-03
            6487            6467     4.06514E-03     4.71716E-03
            6505            6467     4.06514E-03     4.71716E-03
            6506            6467     4.06514E-03     4.71716E-03
            6506            6468     4.20023E-03     4.88586E-03
            6488            6468     4.20023E-03     4.88586E-03
            6489            6468     4.20023E-03     4.88586E-03
            6507            6468     4.20023E-03     4.88586E-03
            6490            6469     4.33235E-03     5.04704E-03
            6489            6469     4.33235E-03     5.04704E-03
            6508            6469     4.33235E-03     5.04704E-03
            6507            6469     4.33235E-03     5.04704E-03
            6508            6470     4.47831E-03     5.22720E-03
            6491            6470     4.47831E-03     5.22720E-03
            6509            6470     4.47831E-03     5.22720E-03
            6490            6470     4.47831E-03     5.22720E-03
            6509            6471     4.53437E-03     5.37681E-03
            6510            6471     4.53437E-03     5.37681E-03
            6492            6471     4.53437E-03     5.37681E-03
            6491            6471     4.53437E-03     5.37681E-03
            6493            6472     5.02270E-03     5.90182E-03
            6511            6472     5.02270E-03     5.90182E-03
            6510            6472     5.02270E-03     5.90182E-03
            6492            6472     5.02270E-03     5.90182E-03
            6494            6473     7.10877E-03     7.89051E-03
            6512            6473     7.10877E-03     7.89051E-03
            6511            6473     7.10877E-03     7.89051E-03
            6493            6473     7.10877E-03     7.89051E-03
            6514            6474     3.88403E-03     3.52517E-03
            6513            6474     3.88403E-03     3.52517E-03
            6495            6474     3.88403E-03     3.52517E-03
            6496            6474     3.88403E-03     3.52517E-03
            6496            6475     3.74677E-03     3.72493E-03
            6515            6475     3.74677E-03     3.72493E-03
            6497            6475     3.74677E-03     3.72493E-03
            6514            6475     3.74677E-03     3.72493E-03
            6515            6476     3.69454E-03     3.79704E-03
            6498            6476     3.69454E-03     3.79704E-03
            6516            6476     3.69454E-03     3.79704E-03
            6497            6476     3.69454E-03     3.79704E-03
            6516            6477     3.72514E-03     3.83340E-03
            6498            6477     3.72514E-03     3.83340E-03
            6499            6477     3.72514E-03     3.83340E-03
            6517            6477     3.72514E-03     3.83340E-03
            6518            6478     3.77496E-03     3.90375E-03
            6517            6478     3.77496E-03     3.90375E-03
            6499            6478     3.77496E-03     3.90375E-03
            6500            6478     3.77496E-03     3.90375E-03
            6519            6479     3.83586E-03     3.98755E-03
            6518            6479     3.83586E-03     3.98755E-03
            6500            6479     3.83586E-03     3.98755E-03
            6501            6479     3.83586E-03     3.98755E-03
            6520            6480     3.91297E-03     4.08643E-03
            6501            6480     3.91297E-03     4.08643E-03
            6502            6480     3.91297E-03     4.08643E-03
            6519            6480     3.91297E-03     4.08643E-03
            6503            6481     4.00294E-03     4.19462E-03
            6520            6481     4.00294E-03     4.19462E-03
            6502            6481     4.00294E-03     4.19462E-03
            6521            6481     4.00294E-03     4.19462E-03
            6521            6482     4.10559E-03     4.31609E-03
            6522            6482     4.10559E-03     4.31609E-03
            6503            6482     4.10559E-03     4.31609E-03
            6504            6482     4.10559E-03     4.31609E-03
            6522            6483     4.22233E-03     4.44720E-03
            6523            6483     4.22233E-03     4.44720E-03
            6504            6483     4.22233E-03     4.44720E-03
            6505            6483     4.22233E-03     4.44720E-03
            6523            6484     4.35547E-03     4.59570E-03
            6505            6484     4.35547E-03     4.59570E-03
            6506            6484     4.35547E-03     4.59570E-03
            6524            6484     4.35547E-03     4.59570E-03
            6524            6485     4.50905E-03     4.76052E-03
            6525            6485     4.50905E-03     4.76052E-03
            6506            6485     4.50905E-03     4.76052E-03
            6507            6485     4.50905E-03     4.76052E-03
            6507            6486     4.69413E-03     4.95538E-03
            6525            6486     4.69413E-03     4.95538E-03
            6508            6486     4.69413E-03     4.95538E-03
            6526            6486     4.69413E-03     4.95538E-03
            6526            6487     4.89598E-03     5.16811E-03
            6508            6487     4.89598E-03     5.16811E-03
            6527            6487     4.89598E-03     5.16811E-03
            6509            6487     4.89598E-03     5.16811E-03
            6528            6488     5.06859E-03     5.35860E-03
            6527            6488     5.06859E-03     5.35860E-03
            6510            6488     5.06859E-03     5.35860E-03
            6509            6488     5.06859E-03     5.35860E-03
            6528            6489     5.09853E-03     5.41866E-03
            6529            6489     5.09853E-03     5.41866E-03
            6510            6489     5.09853E-03     5.41866E-03
            6511            6489     5.09853E-03     5.41866E-03
            6529            6490     5.65338E-03     5.61638E-03
            6512            6490     5.65338E-03     5.61638E-03
            6511            6490     5.65338E-03     5.61638E-03
            6530            6490     5.65338E-03     5.61638E-03
            6514            6491     4.03022E-03     3.68501E-03
            6532            6491     4.03022E-03     3.68501E-03
            6531            6491     4.03022E-03     3.68501E-03
            6513            6491     4.03022E-03     3.68501E-03
            6514            6492     3.91234E-03     3.83520E-03
            6532            6492     3.91234E-03     3.83520E-03
            6533            6492     3.91234E-03     3.83520E-03
            6515            6492     3.91234E-03     3.83520E-03
            6516            6493     3.89462E-03     3.86686E-03
            6533            6493     3.89462E-03     3.86686E-03
            6515            6493     3.89462E-03     3.86686E-03
            6534            6493     3.89462E-03     3.86686E-03
            6534            6494     3.94793E-03     3.88144E-03
            6517            6494     3.94793E-03     3.88144E-03
            6535            6494     3.94793E-03     3.88144E-03
            6516            6494     3.94793E-03     3.88144E-03
            6535            6495     4.01350E-03     3.92854E-03
            6518            6495     4.01350E-03     3.92854E-03
            6517            6495     4.01350E-03     3.92854E-03
            6536            6495     4.01350E-03     3.92854E-03
            6537            6496     4.09057E-03     3.98990E-03
            6519            6496     4.09057E-03     3.98990E-03
            6536            6496     4.09057E-03     3.98990E-03
            6518            6496     4.09057E-03     3.98990E-03
            6520            6497     4.17925E-03     4.06503E-03
            6537            6497     4.17925E-03     4.06503E-03
            6538            6497     4.17925E-03     4.06503E-03
            6519            6497     4.17925E-03     4.06503E-03
            6520            6498     4.27881E-03     4.15071E-03
            6521            6498     4.27881E-03     4.15071E-03
            6539            6498     4.27881E-03     4.15071E-03
            6538            6498     4.27881E-03     4.15071E-03
            6521            6499     4.38755E-03     4.24657E-03
            6522            6499     4.38755E-03     4.24657E-03
            6539            6499     4.38755E-03     4.24657E-03
            6540            6499     4.38755E-03     4.24657E-03
            6522            6500     4.50771E-03     4.35448E-03
            6540            6500     4.50771E-03     4.35448E-03
            6523            6500     4.50771E-03     4.35448E-03
            6541            6500     4.50771E-03     4.35448E-03
            6541            6501     4.64033E-03     4.47518E-03
            6523            6501     4.64033E-03     4.47518E-03
            6542            6501     4.64033E-03     4.47518E-03
            6524            6501     4.64033E-03     4.47518E-03
            6525            6502     4.79366E-03     4.61810E-03
            6542            6502     4.79366E-03     4.61810E-03
            6524            6502     4.79366E-03     4.61810E-03
            6543            6502     4.79366E-03     4.61810E-03
            6526            6503     4.97800E-03     4.79382E-03
            6543            6503     4.97800E-03     4.79382E-03
            6544            6503     4.97800E-03     4.79382E-03
            6525            6503     4.97800E-03     4.79382E-03
            6545            6504     5.16210E-03     4.95937E-03
            6526            6504     5.16210E-03     4.95937E-03
            6544            6504     5.16210E-03     4.95937E-03
            6527            6504     5.16210E-03     4.95937E-03
            6545            6505     5.33175E-03     5.09350E-03
            6546            6505     5.33175E-03     5.09350E-03
            6528            6505     5.33175E-03     5.09350E-03
            6527            6505     5.33175E-03     5.09350E-03
            6546            6506     4.62444E-03     4.53362E-03
            6547            6506     4.62444E-03     4.53362E-03
            6528            6506     4.62444E-03     4.53362E-03
            6529            6506     4.62444E-03     4.53362E-03
            6530            6507     3.72058E-03     3.72135E-03
            6529            6507     3.72058E-03     3.72135E-03
            6548            6507     3.72058E-03     3.72135E-03
            6547            6507     3.72058E-03     3.72135E-03
            6531            6508     3.93422E-03     4.09070E-03
            6549            6508     3.93422E-03     4.09070E-03
            6532            6508     3.93422E-03     4.09070E-03
            6550            6508     3.93422E-03     4.09070E-03
            6551            6509     4.02411E-03     3.96851E-03
            6550            6509     4.02411E-03     3.96851E-03
            6532            6509     4.02411E-03     3.96851E-03
            6533            6509     4.02411E-03     3.96851E-03
            6534            6510     4.11997E-03     3.94029E-03
            6533            6510     4.11997E-03     3.94029E-03
            6552            6510     4.11997E-03     3.94029E-03
            6551            6510     4.11997E-03     3.94029E-03
            6535            6511     4.19272E-03     3.96499E-03
            6534            6511     4.19272E-03     3.96499E-03
            6552            6511     4.19272E-03     3.96499E-03
            6553            6511     4.19272E-03     3.96499E-03
            6536            6512     4.27146E-03     3.98813E-03
            6535            6512     4.27146E-03     3.98813E-03
            6554            6512     4.27146E-03     3.98813E-03
            6553            6512     4.27146E-03     3.98813E-03
            6537            6513     4.36354E-03     4.02999E-03
            6536            6513     4.36354E-03     4.02999E-03
            6554            6513     4.36354E-03     4.02999E-03
            6555            6513     4.36354E-03     4.02999E-03
            6538            6514     4.46267E-03     4.07947E-03
            6537            6514     4.46267E-03     4.07947E-03
            6556            6514     4.46267E-03     4.07947E-03
            6555            6514     4.46267E-03     4.07947E-03
            6556            6515     4.56915E-03     4.14120E-03
            6557            6515     4.56915E-03     4.14120E-03
            6538            6515     4.56915E-03     4.14120E-03
            6539            6515     4.56915E-03     4.14120E-03
            6557            6516     4.68288E-03     4.21040E-03
            6539            6516     4.68288E-03     4.21040E-03
            6558            6516     4.68288E-03     4.21040E-03
            6540            6516     4.68288E-03     4.21040E-03
            6541            6517     4.80100E-03     4.28830E-03
            6540            6517     4.80100E-03     4.28830E-03
            6558            6517     4.80100E-03     4.28830E-03
            6559            6517     4.80100E-03     4.28830E-03
            6560            6518     4.92463E-03     4.37215E-03
            6559            6518     4.92463E-03     4.37215E-03
            6541            6518     4.92463E-03     4.37215E-03
            6542            6518     4.92463E-03     4.37215E-03
            6543            6519     5.05158E-03     4.45781E-03
            6542            6519     5.05158E-03     4.45781E-03
            6561            6519     5.05158E-03     4.45781E-03
            6560            6519     5.05158E-03     4.45781E-03
            6544            6520     5.16200E-03     4.53292E-03
            6543            6520     5.16200E-03     4.53292E-03
            6561            6520     5.16200E-03     4.53292E-03
            6562            6520     5.16200E-03     4.53292E-03
            6545            6521     5.23282E-03     4.55078E-03
            6544            6521     5.23282E-03     4.55078E-03
            6563            6521     5.23282E-03     4.55078E-03
            6562            6521     5.23282E-03     4.55078E-03
            6546            6522     5.02757E-03     4.31043E-03
            6545            6522     5.02757E-03     4.31043E-03
            6563            6522     5.02757E-03     4.31043E-03
            6564            6522     5.02757E-03     4.31043E-03
            6547            6523     4.15667E-03     3.42353E-03
            6546            6523     4.15667E-03     3.42353E-03
            6565            6523     4.15667E-03     3.42353E-03
            6564            6523     4.15667E-03     3.42353E-03
            6547            6524     2.91364E-03     2.96372E-03
            6565            6524     2.91364E-03     2.96372E-03
            6548            6524     2.91364E-03     2.96372E-03
            6566            6524     2.91364E-03     2.96372E-03


  Minimum                            9.68605E-15     8.34144E-15
      At Element                            5166            2335
            Node                             778            2828

  Maximum                            74.0004E-03     77.7027E-03
      At Element                            3428            4066
            Node                             182               8

           Total                         146.649         150.495


Field Output reported at element nodes for region: A320-1.Region_2
   Computation algorithm: EXTRAPOLATE_COMPUTE_AVERAGE
   Averaged at nodes
   Averaging regions: ODB_REGIONS

   Element Label      Node Label         S.Mises         S.Mises
                                          @Loc 1          @Loc 2
-----------------------------------------------------------------
            2235               3     4.16795E-03     4.20993E-03
            1793               3     4.16795E-03     4.20993E-03
            2262               4     2.60225E-15     5.71851E-15
            3913               6     63.4402E-03     60.7194E-03
            2234               6     63.4402E-03     60.7194E-03
            3958               8     74.3126E-03     69.3168E-03
            3859               8     74.3126E-03     69.3168E-03
            3904              10     55.7428E-03     53.1621E-03
            5387              10     55.7428E-03     53.1621E-03
            5325              13     5.02574E-03     5.03687E-03
            5730              13     5.02574E-03     5.03687E-03
            5370              14     866.730E-18     3.52216E-15
            5738              15     5.02574E-03     5.03687E-03
            5333              15     5.02574E-03     5.03687E-03
            1785              17     4.16795E-03     4.20993E-03
            2243              17     4.16795E-03     4.20993E-03
            2270              18     2.42291E-15     5.99742E-15
            2226              21     63.4402E-03     60.7194E-03
            3905              21     63.4402E-03     60.7194E-03
            3851              22     74.3126E-03     69.3168E-03
            3950              22     74.3126E-03     69.3168E-03
            3896              25     55.7428E-03     53.1621E-03
            5379              25     55.7428E-03     53.1621E-03
            5378              27     4.18980E-15     2.35332E-15
            2235              38     7.61188E-15     6.25104E-15
            2244              38     7.61188E-15     6.25104E-15
            2244              39     4.19348E-15     5.95758E-15
            2253              39     4.19348E-15     5.95758E-15
            2262              40     2.60880E-15     6.00643E-15
            2253              40     2.60880E-15     6.00643E-15
            2225             102     66.9883E-03     64.5971E-03
            2234             102     66.9883E-03     64.5971E-03
            2225             103     63.3113E-03     63.2545E-03
            2216             103     63.3113E-03     63.2545E-03
            2207             104     61.0125E-03     60.3580E-03
            2216             104     61.0125E-03     60.3580E-03
            2207             105     59.3244E-03     58.6720E-03
            2198             105     59.3244E-03     58.6720E-03
            2198             106     57.4062E-03     56.6897E-03
            2189             106     57.4062E-03     56.6897E-03
            2189             107     55.4275E-03     54.9720E-03
            2180             107     55.4275E-03     54.9720E-03
            2180             108     53.2119E-03     52.8479E-03
            2171             108     53.2119E-03     52.8479E-03
            2162             109     50.7370E-03     51.2760E-03
            2171             109     50.7370E-03     51.2760E-03
            2162             110     47.9531E-03     46.0639E-03
            2153             110     47.9531E-03     46.0639E-03
            2153             111     51.5859E-03     46.7989E-03
            2144             111     51.5859E-03     46.7989E-03
            2144             112     54.6871E-03     52.7867E-03
            2135             112     54.6871E-03     52.7867E-03
            2126             113     51.1143E-03     51.0021E-03
            2135             113     51.1143E-03     51.0021E-03
            2117             114     48.8156E-03     48.2817E-03
            2126             114     48.8156E-03     48.2817E-03
            2117             115     47.1202E-03     46.5130E-03
            2108             115     47.1202E-03     46.5130E-03
            2108             116     45.2290E-03     44.6346E-03
            2099             116     45.2290E-03     44.6346E-03
            2090             117     43.4063E-03     42.8542E-03
            2099             117     43.4063E-03     42.8542E-03
            2081             118     41.4724E-03     41.0854E-03
            2090             118     41.4724E-03     41.0854E-03
            2081             119     39.3646E-03     39.1355E-03
            2072             119     39.3646E-03     39.1355E-03
            2072             120     36.9493E-03     37.4271E-03
            2063             120     36.9493E-03     37.4271E-03
            2063             121     34.1482E-03     32.7748E-03
            2054             121     34.1482E-03     32.7748E-03
            2054             122     37.7383E-03     34.2381E-03
            2045             122     37.7383E-03     34.2381E-03
            2045             123     40.8674E-03     39.5143E-03
            2036             123     40.8674E-03     39.5143E-03
            2036             124     37.4174E-03     37.2858E-03
            2027             124     37.4174E-03     37.2858E-03
            2027             125     35.1116E-03     34.7212E-03
            2018             125     35.1116E-03     34.7212E-03
            2018             126     33.3698E-03     32.9328E-03
            2009             126     33.3698E-03     32.9328E-03
            2009             127     31.4915E-03     31.0874E-03
            2000             127     31.4915E-03     31.0874E-03
            1991             128     29.6926E-03     29.3315E-03
            2000             128     29.6926E-03     29.3315E-03
            1982             129     27.7987E-03     27.5813E-03
            1991             129     27.7987E-03     27.5813E-03
            1982             130     25.7904E-03     25.7101E-03
            1973             130     25.7904E-03     25.7101E-03
            1973             131     23.4639E-03     23.9306E-03
            1964             131     23.4639E-03     23.9306E-03
            1955             132     20.6768E-03     19.8922E-03
            1964             132     20.6768E-03     19.8922E-03
            1955             133     24.1095E-03     21.9810E-03
            1946             133     24.1095E-03     21.9810E-03
            1946             134     27.2076E-03     26.4125E-03
            1937             134     27.2076E-03     26.4125E-03
            1928             135     23.9171E-03     23.7915E-03
            1937             135     23.9171E-03     23.7915E-03
            1919             136     21.6473E-03     21.4157E-03
            1928             136     21.6473E-03     21.4157E-03
            1919             137     19.9091E-03     19.6523E-03
            1910             137     19.9091E-03     19.6523E-03
            1910             138     18.1065E-03     17.8984E-03
            1901             138     18.1065E-03     17.8984E-03
            1892             139     16.4097E-03     16.2470E-03
            1901             139     16.4097E-03     16.2470E-03
            1883             140     14.6721E-03     14.6306E-03
            1892             140     14.6721E-03     14.6306E-03
            1883             141     12.9119E-03     13.0076E-03
            1874             141     12.9119E-03     13.0076E-03
            1865             142     10.9985E-03     11.4753E-03
            1874             142     10.9985E-03     11.4753E-03
            1856             143     8.98821E-03     9.01862E-03
            1865             143     8.98821E-03     9.01862E-03
            1847             144     11.5188E-03     10.8993E-03
            1856             144     11.5188E-03     10.8993E-03
            1838             145     13.4264E-03     13.1569E-03
            1847             145     13.4264E-03     13.1569E-03
            1829             146     10.5319E-03     10.4955E-03
            1838             146     10.5319E-03     10.4955E-03
            1820             147     8.68730E-03     8.69380E-03
            1829             147     8.68730E-03     8.69380E-03
            1811             148     7.52858E-03     7.60118E-03
            1820             148     7.52858E-03     7.60118E-03
            1811             149     6.99719E-03     7.19249E-03
            1802             149     6.99719E-03     7.19249E-03
            1802             150     7.70826E-03     7.86232E-03
            1793             150     7.70826E-03     7.86232E-03
            3958             162     71.4443E-03     69.7570E-03
            3949             162     71.4443E-03     69.7570E-03
            3940             163     67.4350E-03     68.2576E-03
            3949             163     67.4350E-03     68.2576E-03
            3940             164     64.4562E-03     65.5483E-03
            3931             164     64.4562E-03     65.5483E-03
            3922             165     61.6619E-03     60.2633E-03
            3931             165     61.6619E-03     60.2633E-03
            3922             166     58.7967E-03     56.4518E-03
            3913             166     58.7967E-03     56.4518E-03
            3904             178     58.4569E-03     56.7122E-03
            3895             178     58.4569E-03     56.7122E-03
            3886             179     62.2052E-03     63.1449E-03
            3895             179     62.2052E-03     63.1449E-03
            3886             180     64.9658E-03     65.1822E-03
            3877             180     64.9658E-03     65.1822E-03
            3868             181     68.4116E-03     68.9192E-03
            3877             181     68.4116E-03     68.9192E-03
            3859             182     72.9234E-03     70.6881E-03
            3868             182     72.9234E-03     70.6881E-03
            5325             194     4.81568E-15     3.05916E-15
            5334             194     4.81568E-15     3.05916E-15
            5334             195     2.30963E-15     3.72762E-15
            5343             195     2.30963E-15     3.72762E-15
            5343             196     2.60946E-15     2.82696E-15
            5352             196     2.60946E-15     2.82696E-15
            5352             197     3.49073E-15     1.90235E-15
            5361             197     3.49073E-15     1.90235E-15
            5370             198     2.13843E-15     2.48120E-15
            5361             198     2.13843E-15     2.48120E-15
            5738             250     9.57397E-03     9.64720E-03
            5729             250     9.57397E-03     9.64720E-03
            5720             251     9.09277E-03     9.24996E-03
            5729             251     9.09277E-03     9.24996E-03
            5720             252     10.4510E-03     10.5125E-03
            5711             252     10.4510E-03     10.5125E-03
            5711             253     13.5228E-03     13.3309E-03
            5702             253     13.5228E-03     13.3309E-03
            5702             254     12.0467E-03     11.6877E-03
            5693             254     12.0467E-03     11.6877E-03
            5693             255     9.54907E-03     9.82589E-03
            5684             255     9.54907E-03     9.82589E-03
            5684             256     11.2541E-03     11.8355E-03
            5675             256     11.2541E-03     11.8355E-03
            5666             257     13.2529E-03     13.4342E-03
            5675             257     13.2529E-03     13.4342E-03
            5666             258     15.2438E-03     15.2456E-03
            5657             258     15.2438E-03     15.2456E-03
            5657             259     17.2578E-03     17.1154E-03
            5648             259     17.2578E-03     17.1154E-03
            5648             260     19.2646E-03     19.0596E-03
            5639             260     19.2646E-03     19.0596E-03
            5639             261     21.4181E-03     21.1500E-03
            5630             261     21.4181E-03     21.1500E-03
            5630             262     23.5225E-03     23.2840E-03
            5621             262     23.5225E-03     23.2840E-03
            5621             263     26.2916E-03     26.1423E-03
            5612             263     26.2916E-03     26.1423E-03
            5603             264     30.2827E-03     29.4274E-03
            5612             264     30.2827E-03     29.4274E-03
            5594             265     26.4085E-03     24.0681E-03
            5603             265     26.4085E-03     24.0681E-03
            5585             266     22.1166E-03     21.2520E-03
            5594             266     22.1166E-03     21.2520E-03
            5576             267     25.4457E-03     26.0402E-03
            5585             267     25.4457E-03     26.0402E-03
            5567             268     28.2365E-03     28.1751E-03
            5576             268     28.2365E-03     28.1751E-03
            5567             269     30.6377E-03     30.4367E-03
            5558             269     30.6377E-03     30.4367E-03
            5549             270     32.9034E-03     32.4700E-03
            5558             270     32.9034E-03     32.4700E-03
            5549             271     35.0644E-03     34.6194E-03
            5540             271     35.0644E-03     34.6194E-03
            5531             272     37.2168E-03     36.6948E-03
            5540             272     37.2168E-03     36.6948E-03
            5522             273     39.4558E-03     38.9503E-03
            5531             273     39.4558E-03     38.9503E-03
            5522             274     41.5658E-03     41.1105E-03
            5513             274     41.5658E-03     41.1105E-03
            5504             275     44.3926E-03     44.2278E-03
            5513             275     44.3926E-03     44.2278E-03
            5504             276     48.6001E-03     47.0027E-03
            5495             276     48.6001E-03     47.0027E-03
            5486             277     44.5417E-03     40.4067E-03
            5495             277     44.5417E-03     40.4067E-03
            5486             278     39.9363E-03     38.2980E-03
            5477             278     39.9363E-03     38.2980E-03
            5468             279     43.3702E-03     43.9689E-03
            5477             279     43.3702E-03     43.9689E-03
            5468             280     46.3279E-03     46.0984E-03
            5459             280     46.3279E-03     46.0984E-03
            5459             281     48.9037E-03     48.4778E-03
            5450             281     48.9037E-03     48.4778E-03
            5450             282     51.2727E-03     50.6435E-03
            5441             282     51.2727E-03     50.6435E-03
            5441             283     53.5036E-03     52.8156E-03
            5432             283     53.5036E-03     52.8156E-03
            5423             284     55.8122E-03     55.1044E-03
            5432             284     55.8122E-03     55.1044E-03
            5414             285     57.8957E-03     57.2774E-03
            5423             285     57.8957E-03     57.2774E-03
            5414             286     60.7335E-03     60.5868E-03
            5405             286     60.7335E-03     60.5868E-03
            5396             287     65.1190E-03     62.8264E-03
            5405             287     65.1190E-03     62.8264E-03
            5387             288     61.4214E-03     58.8948E-03
            5396             288     61.4214E-03     58.8948E-03
            2243             306     3.09216E-15     3.63454E-15
            2252             306     3.09216E-15     3.63454E-15
            2252             307     3.16720E-15     3.39232E-15
            2261             307     3.16720E-15     3.39232E-15
            2261             308     2.99305E-15     4.93969E-15
            2270             308     2.99305E-15     4.93969E-15
            1786             424     4.67294E-03     4.67766E-03
            2242             424     4.67294E-03     4.67766E-03
            2243             424     4.67294E-03     4.67766E-03
            1785             424     4.67294E-03     4.67766E-03
            1787             425     5.33484E-03     5.29985E-03
            2242             425     5.33484E-03     5.29985E-03
            2241             425     5.33484E-03     5.29985E-03
            1786             425     5.33484E-03     5.29985E-03
            2241             426     5.67654E-03     5.63915E-03
            2240             426     5.67654E-03     5.63915E-03
            1787             426     5.67654E-03     5.63915E-03
            1788             426     5.67654E-03     5.63915E-03
            2239             427     5.89180E-03     5.85883E-03
            2240             427     5.89180E-03     5.85883E-03
            1789             427     5.89180E-03     5.85883E-03
            1788             427     5.89180E-03     5.85883E-03
            2238             428     5.89180E-03     5.85883E-03
            1790             428     5.89180E-03     5.85883E-03
            2239             428     5.89180E-03     5.85883E-03
            1789             428     5.89180E-03     5.85883E-03
            1790             429     5.67654E-03     5.63915E-03
            2238             429     5.67654E-03     5.63915E-03
            2237             429     5.67654E-03     5.63915E-03
            1791             429     5.67654E-03     5.63915E-03
            1791             430     5.33484E-03     5.29985E-03
            1792             430     5.33484E-03     5.29985E-03
            2237             430     5.33484E-03     5.29985E-03
            2236             430     5.33484E-03     5.29985E-03
            1793             431     4.67294E-03     4.67766E-03
            2235             431     4.67294E-03     4.67766E-03
            2236             431     4.67294E-03     4.67766E-03
            1792             431     4.67294E-03     4.67766E-03
            2233             432     54.0912E-03     51.6871E-03
            3913             432     54.0912E-03     51.6871E-03
            3912             432     54.0912E-03     51.6871E-03
            2234             432     54.0912E-03     51.6871E-03
            2233             433     37.1836E-03     35.4662E-03
            2232             433     37.1836E-03     35.4662E-03
            3912             433     37.1836E-03     35.4662E-03
            3911             433     37.1836E-03     35.4662E-03
            3910             434     22.6175E-03     21.7433E-03
            3911             434     22.6175E-03     21.7433E-03
            2232             434     22.6175E-03     21.7433E-03
            2231             434     22.6175E-03     21.7433E-03
            3910             435     10.6776E-03     10.7068E-03
            2231             435     10.6776E-03     10.7068E-03
            3909             435     10.6776E-03     10.7068E-03
            2230             435     10.6776E-03     10.7068E-03
            2229             436     10.6776E-03     10.7068E-03
            2230             436     10.6776E-03     10.7068E-03
            3908             436     10.6776E-03     10.7068E-03
            3909             436     10.6776E-03     10.7068E-03
            2229             437     22.6175E-03     21.7433E-03
            3908             437     22.6175E-03     21.7433E-03
            2228             437     22.6175E-03     21.7433E-03
            3907             437     22.6175E-03     21.7433E-03
            2228             438     37.1836E-03     35.4662E-03
            2227             438     37.1836E-03     35.4662E-03
            3906             438     37.1836E-03     35.4662E-03
            3907             438     37.1836E-03     35.4662E-03
            2226             439     54.0912E-03     51.6871E-03
            2227             439     54.0912E-03     51.6871E-03
            3906             439     54.0912E-03     51.6871E-03
            3905             439     54.0912E-03     51.6871E-03
            2217             440     66.9883E-03     64.5971E-03
            2226             440     66.9883E-03     64.5971E-03
            2208             441     63.3113E-03     63.2545E-03
            2217             441     63.3113E-03     63.2545E-03
            2199             442     61.0125E-03     60.3580E-03
            2208             442     61.0125E-03     60.3580E-03
            2190             443     59.3244E-03     58.6720E-03
            2199             443     59.3244E-03     58.6720E-03
            2190             444     57.4062E-03     56.6897E-03
            2181             444     57.4062E-03     56.6897E-03
            2172             445     55.4275E-03     54.9720E-03
            2181             445     55.4275E-03     54.9720E-03
            2163             446     53.2119E-03     52.8479E-03
            2172             446     53.2119E-03     52.8479E-03
            2154             447     50.7370E-03     51.2760E-03
            2163             447     50.7370E-03     51.2760E-03
            2145             448     47.9531E-03     46.0639E-03
            2154             448     47.9531E-03     46.0639E-03
            2145             449     51.5859E-03     46.7989E-03
            2136             449     51.5859E-03     46.7989E-03
            2127             450     54.6871E-03     52.7867E-03
            2136             450     54.6871E-03     52.7867E-03
            2118             451     51.1143E-03     51.0021E-03
            2127             451     51.1143E-03     51.0021E-03
            2118             452     48.8156E-03     48.2817E-03
            2109             452     48.8156E-03     48.2817E-03
            2100             453     47.1202E-03     46.5130E-03
            2109             453     47.1202E-03     46.5130E-03
            2091             454     45.2290E-03     44.6346E-03
            2100             454     45.2290E-03     44.6346E-03
            2082             455     43.4063E-03     42.8542E-03
            2091             455     43.4063E-03     42.8542E-03
            2073             456     41.4724E-03     41.0854E-03
            2082             456     41.4724E-03     41.0854E-03
            2064             457     39.3646E-03     39.1355E-03
            2073             457     39.3646E-03     39.1355E-03
            2064             458     36.9493E-03     37.4271E-03
            2055             458     36.9493E-03     37.4271E-03
            2055             459     34.1482E-03     32.7748E-03
            2046             459     34.1482E-03     32.7748E-03
            2046             460     37.7383E-03     34.2381E-03
            2037             460     37.7383E-03     34.2381E-03
            2037             461     40.8674E-03     39.5143E-03
            2028             461     40.8674E-03     39.5143E-03
            2028             462     37.4174E-03     37.2858E-03
            2019             462     37.4174E-03     37.2858E-03
            2019             463     35.1116E-03     34.7212E-03
            2010             463     35.1116E-03     34.7212E-03
            2010             464     33.3698E-03     32.9328E-03
            2001             464     33.3698E-03     32.9328E-03
            2001             465     31.4915E-03     31.0874E-03
            1992             465     31.4915E-03     31.0874E-03
            1983             466     29.6926E-03     29.3315E-03
            1992             466     29.6926E-03     29.3315E-03
            1983             467     27.7987E-03     27.5813E-03
            1974             467     27.7987E-03     27.5813E-03
            1974             468     25.7904E-03     25.7101E-03
            1965             468     25.7904E-03     25.7101E-03
            1956             469     23.4639E-03     23.9306E-03
            1965             469     23.4639E-03     23.9306E-03
            1956             470     20.6768E-03     19.8922E-03
            1947             470     20.6768E-03     19.8922E-03
            1947             471     24.1095E-03     21.9810E-03
            1938             471     24.1095E-03     21.9810E-03
            1929             472     27.2076E-03     26.4125E-03
            1938             472     27.2076E-03     26.4125E-03
            1929             473     23.9171E-03     23.7915E-03
            1920             473     23.9171E-03     23.7915E-03
            1911             474     21.6473E-03     21.4157E-03
            1920             474     21.6473E-03     21.4157E-03
            1902             475     19.9091E-03     19.6523E-03
            1911             475     19.9091E-03     19.6523E-03
            1902             476     18.1065E-03     17.8984E-03
            1893             476     18.1065E-03     17.8984E-03
            1884             477     16.4097E-03     16.2470E-03
            1893             477     16.4097E-03     16.2470E-03
            1875             478     14.6721E-03     14.6306E-03
            1884             478     14.6721E-03     14.6306E-03
            1866             479     12.9119E-03     13.0076E-03
            1875             479     12.9119E-03     13.0076E-03
            1866             480     10.9985E-03     11.4753E-03
            1857             480     10.9985E-03     11.4753E-03
            1848             481     8.98821E-03     9.01862E-03
            1857             481     8.98821E-03     9.01862E-03
            1839             482     11.5188E-03     10.8993E-03
            1848             482     11.5188E-03     10.8993E-03
            1839             483     13.4264E-03     13.1569E-03
            1830             483     13.4264E-03     13.1569E-03
            1830             484     10.5319E-03     10.4955E-03
            1821             484     10.5319E-03     10.4955E-03
            1812             485     8.68730E-03     8.69380E-03
            1821             485     8.68730E-03     8.69380E-03
            1812             486     7.52858E-03     7.60118E-03
            1803             486     7.52858E-03     7.60118E-03
            1794             487     6.99719E-03     7.19249E-03
            1803             487     6.99719E-03     7.19249E-03
            1794             488     7.70826E-03     7.86232E-03
            1785             488     7.70826E-03     7.86232E-03
            2269             489     3.41422E-15     4.80601E-15
            2270             489     3.41422E-15     4.80601E-15
            2269             490     2.52107E-15     2.94008E-15
            2268             490     2.52107E-15     2.94008E-15
            2267             491     1.15537E-15     2.05473E-15
            2268             491     1.15537E-15     2.05473E-15
            2267             492     1.61121E-15     1.63609E-15
            2266             492     1.61121E-15     1.63609E-15
            2266             493     1.08532E-15     935.886E-18
            2265             493     1.08532E-15     935.886E-18
            2265             494     966.671E-18     757.573E-18
            2264             494     966.671E-18     757.573E-18
            2264             495     1.47228E-15     2.25637E-15
            2263             495     1.47228E-15     2.25637E-15
            2262             496     2.11792E-15     4.57979E-15
            2263             496     2.11792E-15     4.57979E-15
            3905             520     58.7967E-03     56.4518E-03
            3914             520     58.7967E-03     56.4518E-03
            3914             521     61.6619E-03     60.2633E-03
            3923             521     61.6619E-03     60.2633E-03
            3932             522     64.4562E-03     65.5483E-03
            3923             522     64.4562E-03     65.5483E-03
            3932             523     67.4350E-03     68.2576E-03
            3941             523     67.4350E-03     68.2576E-03
            3941             524     71.4443E-03     69.7570E-03
            3950             524     71.4443E-03     69.7570E-03
            3951             609     61.6590E-03     57.5135E-03
            3851             609     61.6590E-03     57.5135E-03
            3852             609     61.6590E-03     57.5135E-03
            3950             609     61.6590E-03     57.5135E-03
            3951             610     40.4443E-03     37.9687E-03
            3952             610     40.4443E-03     37.9687E-03
            3853             610     40.4443E-03     37.9687E-03
            3852             610     40.4443E-03     37.9687E-03
            3952             611     24.2895E-03     23.2761E-03
            3854             611     24.2895E-03     23.2761E-03
            3953             611     24.2895E-03     23.2761E-03
            3853             611     24.2895E-03     23.2761E-03
            3953             612     11.1083E-03     11.0724E-03
            3855             612     11.1083E-03     11.0724E-03
            3954             612     11.1083E-03     11.0724E-03
            3854             612     11.1083E-03     11.0724E-03
            3955             613     11.1083E-03     11.0724E-03
            3855             613     11.1083E-03     11.0724E-03
            3856             613     11.1083E-03     11.0724E-03
            3954             613     11.1083E-03     11.0724E-03
            3856             614     24.2895E-03     23.2761E-03
            3955             614     24.2895E-03     23.2761E-03
            3857             614     24.2895E-03     23.2761E-03
            3956             614     24.2895E-03     23.2761E-03
            3956             615     40.4443E-03     37.9687E-03
            3858             615     40.4443E-03     37.9687E-03
            3857             615     40.4443E-03     37.9687E-03
            3957             615     40.4443E-03     37.9687E-03
            3957             616     61.6590E-03     57.5135E-03
            3859             616     61.6590E-03     57.5135E-03
            3958             616     61.6590E-03     57.5135E-03
            3858             616     61.6590E-03     57.5135E-03
            5386             617     49.1736E-03     46.6908E-03
            3904             617     49.1736E-03     46.6908E-03
            3903             617     49.1736E-03     46.6908E-03
            5387             617     49.1736E-03     46.6908E-03
            3903             618     36.7369E-03     34.9235E-03
            5385             618     36.7369E-03     34.9235E-03
            5386             618     36.7369E-03     34.9235E-03
            3902             618     36.7369E-03     34.9235E-03
            5384             619     25.5064E-03     24.5621E-03
            3901             619     25.5064E-03     24.5621E-03
            3902             619     25.5064E-03     24.5621E-03
            5385             619     25.5064E-03     24.5621E-03
            5383             620     17.1744E-03     16.7062E-03
            5384             620     17.1744E-03     16.7062E-03
            3901             620     17.1744E-03     16.7062E-03
            3900             620     17.1744E-03     16.7062E-03
            5383             621     17.1744E-03     16.7062E-03
            3900             621     17.1744E-03     16.7062E-03
            5382             621     17.1744E-03     16.7062E-03
            3899             621     17.1744E-03     16.7062E-03
            5381             622     25.5064E-03     24.5621E-03
            5382             622     25.5064E-03     24.5621E-03
            3898             622     25.5064E-03     24.5621E-03
            3899             622     25.5064E-03     24.5621E-03
            3898             623     36.7369E-03     34.9235E-03
            5380             623     36.7369E-03     34.9235E-03
            3897             623     36.7369E-03     34.9235E-03
            5381             623     36.7369E-03     34.9235E-03
            3896             624     49.1736E-03     46.6908E-03
            5379             624     49.1736E-03     46.6908E-03
            5380             624     49.1736E-03     46.6908E-03
            3897             624     49.1736E-03     46.6908E-03
            3887             625     58.4569E-03     56.7122E-03
            3896             625     58.4569E-03     56.7122E-03
            3887             626     62.2052E-03     63.1449E-03
            3878             626     62.2052E-03     63.1449E-03
            3869             627     64.9658E-03     65.1822E-03
            3878             627     64.9658E-03     65.1822E-03
            3860             628     68.4116E-03     68.9192E-03
            3869             628     68.4116E-03     68.9192E-03
            3860             629     72.9234E-03     70.6881E-03
            3851             629     72.9234E-03     70.6881E-03
            5388             636     61.4214E-03     58.8948E-03
            5379             636     61.4214E-03     58.8948E-03
            5397             637     65.1190E-03     62.8264E-03
            5388             637     65.1190E-03     62.8264E-03
            5406             638     60.7335E-03     60.5868E-03
            5397             638     60.7335E-03     60.5868E-03
            5415             639     57.8957E-03     57.2774E-03
            5406             639     57.8957E-03     57.2774E-03
            5424             640     55.8122E-03     55.1044E-03
            5415             640     55.8122E-03     55.1044E-03
            5433             641     53.5036E-03     52.8156E-03
            5424             641     53.5036E-03     52.8156E-03
            5442             642     51.2727E-03     50.6435E-03
            5433             642     51.2727E-03     50.6435E-03
            5451             643     48.9037E-03     48.4778E-03
            5442             643     48.9037E-03     48.4778E-03
            5460             644     46.3279E-03     46.0984E-03
            5451             644     46.3279E-03     46.0984E-03
            5460             645     43.3702E-03     43.9689E-03
            5469             645     43.3702E-03     43.9689E-03
            5478             646     39.9363E-03     38.2980E-03
            5469             646     39.9363E-03     38.2980E-03
            5487             647     44.5417E-03     40.4067E-03
            5478             647     44.5417E-03     40.4067E-03
            5496             648     48.6001E-03     47.0027E-03
            5487             648     48.6001E-03     47.0027E-03
            5496             649     44.3926E-03     44.2278E-03
            5505             649     44.3926E-03     44.2278E-03
            5514             650     41.5658E-03     41.1105E-03
            5505             650     41.5658E-03     41.1105E-03
            5514             651     39.4558E-03     38.9503E-03
            5523             651     39.4558E-03     38.9503E-03
            5523             652     37.2168E-03     36.6948E-03
            5532             652     37.2168E-03     36.6948E-03
            5541             653     35.0644E-03     34.6194E-03
            5532             653     35.0644E-03     34.6194E-03
            5550             654     32.9034E-03     32.4700E-03
            5541             654     32.9034E-03     32.4700E-03
            5550             655     30.6377E-03     30.4367E-03
            5559             655     30.6377E-03     30.4367E-03
            5559             656     28.2365E-03     28.1751E-03
            5568             656     28.2365E-03     28.1751E-03
            5577             657     25.4457E-03     26.0402E-03
            5568             657     25.4457E-03     26.0402E-03
            5586             658     22.1166E-03     21.2520E-03
            5577             658     22.1166E-03     21.2520E-03
            5595             659     26.4085E-03     24.0681E-03
            5586             659     26.4085E-03     24.0681E-03
            5604             660     30.2827E-03     29.4274E-03
            5595             660     30.2827E-03     29.4274E-03
            5604             661     26.2916E-03     26.1423E-03
            5613             661     26.2916E-03     26.1423E-03
            5613             662     23.5225E-03     23.2840E-03
            5622             662     23.5225E-03     23.2840E-03
            5622             663     21.4181E-03     21.1500E-03
            5631             663     21.4181E-03     21.1500E-03
            5631             664     19.2646E-03     19.0596E-03
            5640             664     19.2646E-03     19.0596E-03
            5640             665     17.2578E-03     17.1154E-03
            5649             665     17.2578E-03     17.1154E-03
            5658             666     15.2438E-03     15.2456E-03
            5649             666     15.2438E-03     15.2456E-03
            5658             667     13.2529E-03     13.4342E-03
            5667             667     13.2529E-03     13.4342E-03
            5676             668     11.2541E-03     11.8355E-03
            5667             668     11.2541E-03     11.8355E-03
            5685             669     9.54907E-03     9.82589E-03
            5676             669     9.54907E-03     9.82589E-03
            5694             670     12.0467E-03     11.6877E-03
            5685             670     12.0467E-03     11.6877E-03
            5703             671     13.5228E-03     13.3309E-03
            5694             671     13.5228E-03     13.3309E-03
            5703             672     10.4510E-03     10.5125E-03
            5712             672     10.4510E-03     10.5125E-03
            5721             673     9.09277E-03     9.24996E-03
            5712             673     9.09277E-03     9.24996E-03
            5730             674     9.57397E-03     9.64720E-03
            5721             674     9.57397E-03     9.64720E-03
            5333             765     4.24531E-15     3.62154E-15
            5342             765     4.24531E-15     3.62154E-15
            5342             766     5.50099E-15     4.99259E-15
            5351             766     5.50099E-15     4.99259E-15
            5351             767     4.87741E-15     6.12643E-15
            5360             767     4.87741E-15     6.12643E-15
            5369             768     4.12544E-15     3.45148E-15
            5360             768     4.12544E-15     3.45148E-15
            5378             769     4.25769E-15     1.70067E-15
            5369             769     4.25769E-15     1.70067E-15
            5326             792     5.75889E-03     5.75128E-03
            5325             792     5.75889E-03     5.75128E-03
            5731             792     5.75889E-03     5.75128E-03
            5730             792     5.75889E-03     5.75128E-03
            5327             793     6.71006E-03     6.68346E-03
            5731             793     6.71006E-03     6.68346E-03
            5732             793     6.71006E-03     6.68346E-03
            5326             793     6.71006E-03     6.68346E-03
            5327             794     7.11115E-03     7.08802E-03
            5328             794     7.11115E-03     7.08802E-03
            5732             794     7.11115E-03     7.08802E-03
            5733             794     7.11115E-03     7.08802E-03
            5734             795     7.36034E-03     7.34667E-03
            5328             795     7.36034E-03     7.34667E-03
            5733             795     7.36034E-03     7.34667E-03
            5329             795     7.36034E-03     7.34667E-03
            5735             796     7.36034E-03     7.34667E-03
            5330             796     7.36034E-03     7.34667E-03
            5329             796     7.36034E-03     7.34667E-03
            5734             796     7.36034E-03     7.34667E-03
            5735             797     7.11115E-03     7.08802E-03
            5331             797     7.11115E-03     7.08802E-03
            5736             797     7.11115E-03     7.08802E-03
            5330             797     7.11115E-03     7.08802E-03
            5332             798     6.71006E-03     6.68346E-03
            5331             798     6.71006E-03     6.68346E-03
            5737             798     6.71006E-03     6.68346E-03
            5736             798     6.71006E-03     6.68346E-03
            5737             799     5.75889E-03     5.75128E-03
            5738             799     5.75889E-03     5.75128E-03
            5333             799     5.75889E-03     5.75128E-03
            5332             799     5.75889E-03     5.75128E-03
            5378             800     2.69665E-15     1.75790E-15
            5377             800     2.69665E-15     1.75790E-15
            5376             801     2.47480E-15     2.19913E-15
            5377             801     2.47480E-15     2.19913E-15
            5376             802     3.22324E-15     3.39929E-15
            5375             802     3.22324E-15     3.39929E-15
            5375             803     2.47891E-15     2.80056E-15
            5374             803     2.47891E-15     2.80056E-15
            5374             804     1.68568E-15     1.49251E-15
            5373             804     1.68568E-15     1.49251E-15
            5372             805     720.353E-18     1.14095E-15
            5373             805     720.353E-18     1.14095E-15
            5371             806     1.51812E-15     2.09510E-15
            5372             806     1.51812E-15     2.09510E-15
            5370             807     1.78810E-15     3.18859E-15
            5371             807     1.78810E-15     3.18859E-15
            1795            2369     9.10657E-03     9.14322E-03
            1794            2369     9.10657E-03     9.14322E-03
            1785            2369     9.10657E-03     9.14322E-03
            1786            2369     9.10657E-03     9.14322E-03
            1795            2370     10.9100E-03     10.8168E-03
            1786            2370     10.9100E-03     10.8168E-03
            1796            2370     10.9100E-03     10.8168E-03
            1787            2370     10.9100E-03     10.8168E-03
            1797            2371     11.6244E-03     11.5222E-03
            1788            2371     11.6244E-03     11.5222E-03
            1787            2371     11.6244E-03     11.5222E-03
            1796            2371     11.6244E-03     11.5222E-03
            1797            2372     11.9819E-03     11.8813E-03
            1789            2372     11.9819E-03     11.8813E-03
            1798            2372     11.9819E-03     11.8813E-03
            1788            2372     11.9819E-03     11.8813E-03
            1789            2373     11.9819E-03     11.8813E-03
            1790            2373     11.9819E-03     11.8813E-03
            1798            2373     11.9819E-03     11.8813E-03
            1799            2373     11.9819E-03     11.8813E-03
            1791            2374     11.6244E-03     11.5222E-03
            1800            2374     11.6244E-03     11.5222E-03
            1790            2374     11.6244E-03     11.5222E-03
            1799            2374     11.6244E-03     11.5222E-03
            1792            2375     10.9100E-03     10.8168E-03
            1801            2375     10.9100E-03     10.8168E-03
            1800            2375     10.9100E-03     10.8168E-03
            1791            2375     10.9100E-03     10.8168E-03
            1802            2376     9.10657E-03     9.14322E-03
            1801            2376     9.10657E-03     9.14322E-03
            1792            2376     9.10657E-03     9.14322E-03
            1793            2376     9.10657E-03     9.14322E-03
            1795            2377     8.69212E-03     8.77810E-03
            1794            2377     8.69212E-03     8.77810E-03
            1803            2377     8.69212E-03     8.77810E-03
            1804            2377     8.69212E-03     8.77810E-03
            1796            2378     11.1340E-03     11.0690E-03
            1804            2378     11.1340E-03     11.0690E-03
            1795            2378     11.1340E-03     11.0690E-03
            1805            2378     11.1340E-03     11.0690E-03
            1805            2379     12.0921E-03     11.9807E-03
            1797            2379     12.0921E-03     11.9807E-03
            1806            2379     12.0921E-03     11.9807E-03
            1796            2379     12.0921E-03     11.9807E-03
            1797            2380     12.4228E-03     12.3038E-03
            1806            2380     12.4228E-03     12.3038E-03
            1798            2380     12.4228E-03     12.3038E-03
            1807            2380     12.4228E-03     12.3038E-03
            1807            2381     12.4228E-03     12.3038E-03
            1799            2381     12.4228E-03     12.3038E-03
            1798            2381     12.4228E-03     12.3038E-03
            1808            2381     12.4228E-03     12.3038E-03
            1808            2382     12.0921E-03     11.9807E-03
            1799            2382     12.0921E-03     11.9807E-03
            1809            2382     12.0921E-03     11.9807E-03
            1800            2382     12.0921E-03     11.9807E-03
            1810            2383     11.1340E-03     11.0690E-03
            1801            2383     11.1340E-03     11.0690E-03
            1809            2383     11.1340E-03     11.0690E-03
            1800            2383     11.1340E-03     11.0690E-03
            1811            2384     8.69212E-03     8.77810E-03
            1802            2384     8.69212E-03     8.77810E-03
            1801            2384     8.69212E-03     8.77810E-03
            1810            2384     8.69212E-03     8.77810E-03
            1803            2385     8.88796E-03     8.95448E-03
            1812            2385     8.88796E-03     8.95448E-03
            1813            2385     8.88796E-03     8.95448E-03
            1804            2385     8.88796E-03     8.95448E-03
            1804            2386     11.1238E-03     11.1322E-03
            1805            2386     11.1238E-03     11.1322E-03
            1814            2386     11.1238E-03     11.1322E-03
            1813            2386     11.1238E-03     11.1322E-03
            1805            2387     12.3601E-03     12.3104E-03
            1815            2387     12.3601E-03     12.3104E-03
            1806            2387     12.3601E-03     12.3104E-03
            1814            2387     12.3601E-03     12.3104E-03
            1806            2388     12.7758E-03     12.7252E-03
            1816            2388     12.7758E-03     12.7252E-03
            1807            2388     12.7758E-03     12.7252E-03
            1815            2388     12.7758E-03     12.7252E-03
            1807            2389     12.7758E-03     12.7252E-03
            1817            2389     12.7758E-03     12.7252E-03
            1816            2389     12.7758E-03     12.7252E-03
            1808            2389     12.7758E-03     12.7252E-03
            1808            2390     12.3601E-03     12.3104E-03
            1809            2390     12.3601E-03     12.3104E-03
            1818            2390     12.3601E-03     12.3104E-03
            1817            2390     12.3601E-03     12.3104E-03
            1819            2391     11.1238E-03     11.1322E-03
            1810            2391     11.1238E-03     11.1322E-03
            1818            2391     11.1238E-03     11.1322E-03
            1809            2391     11.1238E-03     11.1322E-03
            1820            2392     8.88796E-03     8.95448E-03
            1819            2392     8.88796E-03     8.95448E-03
            1810            2392     8.88796E-03     8.95448E-03
            1811            2392     8.88796E-03     8.95448E-03
            1813            2393     9.69504E-03     9.70545E-03
            1812            2393     9.69504E-03     9.70545E-03
            1822            2393     9.69504E-03     9.70545E-03
            1821            2393     9.69504E-03     9.70545E-03
            1822            2394     11.4216E-03     11.4541E-03
            1813            2394     11.4216E-03     11.4541E-03
            1823            2394     11.4216E-03     11.4541E-03
            1814            2394     11.4216E-03     11.4541E-03
            1823            2395     12.4302E-03     12.4872E-03
            1824            2395     12.4302E-03     12.4872E-03
            1815            2395     12.4302E-03     12.4872E-03
            1814            2395     12.4302E-03     12.4872E-03
            1816            2396     12.7521E-03     12.8068E-03
            1815            2396     12.7521E-03     12.8068E-03
            1824            2396     12.7521E-03     12.8068E-03
            1825            2396     12.7521E-03     12.8068E-03
            1817            2397     12.7521E-03     12.8068E-03
            1825            2397     12.7521E-03     12.8068E-03
            1826            2397     12.7521E-03     12.8068E-03
            1816            2397     12.7521E-03     12.8068E-03
            1817            2398     12.4302E-03     12.4872E-03
            1827            2398     12.4302E-03     12.4872E-03
            1826            2398     12.4302E-03     12.4872E-03
            1818            2398     12.4302E-03     12.4872E-03
            1827            2399     11.4216E-03     11.4541E-03
            1828            2399     11.4216E-03     11.4541E-03
            1819            2399     11.4216E-03     11.4541E-03
            1818            2399     11.4216E-03     11.4541E-03
            1820            2400     9.69504E-03     9.70545E-03
            1828            2400     9.69504E-03     9.70545E-03
            1829            2400     9.69504E-03     9.70545E-03
            1819            2400     9.69504E-03     9.70545E-03
            1821            2401     11.1482E-03     11.1494E-03
            1822            2401     11.1482E-03     11.1494E-03
            1830            2401     11.1482E-03     11.1494E-03
            1831            2401     11.1482E-03     11.1494E-03
            1822            2402     11.9625E-03     12.0562E-03
            1832            2402     11.9625E-03     12.0562E-03
            1823            2402     11.9625E-03     12.0562E-03
            1831            2402     11.9625E-03     12.0562E-03
            1833            2403     12.1796E-03     12.3185E-03
            1824            2403     12.1796E-03     12.3185E-03
            1832            2403     12.1796E-03     12.3185E-03
            1823            2403     12.1796E-03     12.3185E-03
            1833            2404     12.2877E-03     12.4139E-03
            1825            2404     12.2877E-03     12.4139E-03
            1834            2404     12.2877E-03     12.4139E-03
            1824            2404     12.2877E-03     12.4139E-03
            1835            2405     12.2877E-03     12.4139E-03
            1826            2405     12.2877E-03     12.4139E-03
            1834            2405     12.2877E-03     12.4139E-03
            1825            2405     12.2877E-03     12.4139E-03
            1836            2406     12.1796E-03     12.3185E-03
            1827            2406     12.1796E-03     12.3185E-03
            1826            2406     12.1796E-03     12.3185E-03
            1835            2406     12.1796E-03     12.3185E-03
            1827            2407     11.9625E-03     12.0562E-03
            1837            2407     11.9625E-03     12.0562E-03
            1828            2407     11.9625E-03     12.0562E-03
            1836            2407     11.9625E-03     12.0562E-03
            1837            2408     11.1482E-03     11.1494E-03
            1828            2408     11.1482E-03     11.1494E-03
            1838            2408     11.1482E-03     11.1494E-03
            1829            2408     11.1482E-03     11.1494E-03
            1840            2409     12.8940E-03     12.7835E-03
            1831            2409     12.8940E-03     12.7835E-03
            1839            2409     12.8940E-03     12.7835E-03
            1830            2409     12.8940E-03     12.7835E-03
            1841            2410     11.9243E-03     11.9944E-03
            1831            2410     11.9243E-03     11.9944E-03
            1840            2410     11.9243E-03     11.9944E-03
            1832            2410     11.9243E-03     11.9944E-03
            1832            2411     11.5189E-03     11.6159E-03
            1841            2411     11.5189E-03     11.6159E-03
            1842            2411     11.5189E-03     11.6159E-03
            1833            2411     11.5189E-03     11.6159E-03
            1842            2412     11.5023E-03     11.6078E-03
            1833            2412     11.5023E-03     11.6078E-03
            1843            2412     11.5023E-03     11.6078E-03
            1834            2412     11.5023E-03     11.6078E-03
            1844            2413     11.5023E-03     11.6078E-03
            1834            2413     11.5023E-03     11.6078E-03
            1843            2413     11.5023E-03     11.6078E-03
            1835            2413     11.5023E-03     11.6078E-03
            1844            2414     11.5189E-03     11.6159E-03
            1835            2414     11.5189E-03     11.6159E-03
            1845            2414     11.5189E-03     11.6159E-03
            1836            2414     11.5189E-03     11.6159E-03
            1845            2415     11.9243E-03     11.9944E-03
            1836            2415     11.9243E-03     11.9944E-03
            1846            2415     11.9243E-03     11.9944E-03
            1837            2415     11.9243E-03     11.9944E-03
            1838            2416     12.8940E-03     12.7835E-03
            1837            2416     12.8940E-03     12.7835E-03
            1847            2416     12.8940E-03     12.7835E-03
            1846            2416     12.8940E-03     12.7835E-03
            1849            2417     11.6894E-03     11.1429E-03
            1840            2417     11.6894E-03     11.1429E-03
            1848            2417     11.6894E-03     11.1429E-03
            1839            2417     11.6894E-03     11.1429E-03
            1849            2418     11.6850E-03     11.3182E-03
            1840            2418     11.6850E-03     11.3182E-03
            1850            2418     11.6850E-03     11.3182E-03
            1841            2418     11.6850E-03     11.3182E-03
            1841            2419     11.6390E-03     11.4298E-03
            1851            2419     11.6390E-03     11.4298E-03
            1842            2419     11.6390E-03     11.4298E-03
            1850            2419     11.6390E-03     11.4298E-03
            1852            2420     11.7073E-03     11.5772E-03
            1843            2420     11.7073E-03     11.5772E-03
            1851            2420     11.7073E-03     11.5772E-03
            1842            2420     11.7073E-03     11.5772E-03
            1843            2421     11.7073E-03     11.5772E-03
            1853            2421     11.7073E-03     11.5772E-03
            1844            2421     11.7073E-03     11.5772E-03
            1852            2421     11.7073E-03     11.5772E-03
            1844            2422     11.6390E-03     11.4298E-03
            1854            2422     11.6390E-03     11.4298E-03
            1845            2422     11.6390E-03     11.4298E-03
            1853            2422     11.6390E-03     11.4298E-03
            1845            2423     11.6850E-03     11.3182E-03
            1854            2423     11.6850E-03     11.3182E-03
            1846            2423     11.6850E-03     11.3182E-03
            1855            2423     11.6850E-03     11.3182E-03
            1847            2424     11.6894E-03     11.1429E-03
            1846            2424     11.6894E-03     11.1429E-03
            1856            2424     11.6894E-03     11.1429E-03
            1855            2424     11.6894E-03     11.1429E-03
            1848            2425     10.4123E-03     10.1456E-03
            1849            2425     10.4123E-03     10.1456E-03
            1857            2425     10.4123E-03     10.1456E-03
            1858            2425     10.4123E-03     10.1456E-03
            1858            2426     12.0489E-03     11.4803E-03
            1859            2426     12.0489E-03     11.4803E-03
            1850            2426     12.0489E-03     11.4803E-03
            1849            2426     12.0489E-03     11.4803E-03
            1851            2427     12.3230E-03     11.7919E-03
            1860            2427     12.3230E-03     11.7919E-03
            1859            2427     12.3230E-03     11.7919E-03
            1850            2427     12.3230E-03     11.7919E-03
            1860            2428     12.3746E-03     11.8892E-03
            1852            2428     12.3746E-03     11.8892E-03
            1851            2428     12.3746E-03     11.8892E-03
            1861            2428     12.3746E-03     11.8892E-03
            1852            2429     12.3746E-03     11.8892E-03
            1861            2429     12.3746E-03     11.8892E-03
            1853            2429     12.3746E-03     11.8892E-03
            1862            2429     12.3746E-03     11.8892E-03
            1863            2430     12.3230E-03     11.7919E-03
            1854            2430     12.3230E-03     11.7919E-03
            1853            2430     12.3230E-03     11.7919E-03
            1862            2430     12.3230E-03     11.7919E-03
            1864            2431     12.0489E-03     11.4803E-03
            1855            2431     12.0489E-03     11.4803E-03
            1854            2431     12.0489E-03     11.4803E-03
            1863            2431     12.0489E-03     11.4803E-03
            1855            2432     10.4123E-03     10.1456E-03
            1864            2432     10.4123E-03     10.1456E-03
            1856            2432     10.4123E-03     10.1456E-03
            1865            2432     10.4123E-03     10.1456E-03
            1858            2433     11.6460E-03     11.9346E-03
            1867            2433     11.6460E-03     11.9346E-03
            1857            2433     11.6460E-03     11.9346E-03
            1866            2433     11.6460E-03     11.9346E-03
            1858            2434     12.5296E-03     12.3574E-03
            1868            2434     12.5296E-03     12.3574E-03
            1867            2434     12.5296E-03     12.3574E-03
            1859            2434     12.5296E-03     12.3574E-03
            1860            2435     12.6680E-03     12.1458E-03
            1868            2435     12.6680E-03     12.1458E-03
            1859            2435     12.6680E-03     12.1458E-03
            1869            2435     12.6680E-03     12.1458E-03
            1870            2436     12.5508E-03     11.9169E-03
            1861            2436     12.5508E-03     11.9169E-03
            1869            2436     12.5508E-03     11.9169E-03
            1860            2436     12.5508E-03     11.9169E-03
            1871            2437     12.5508E-03     11.9169E-03
            1861            2437     12.5508E-03     11.9169E-03
            1862            2437     12.5508E-03     11.9169E-03
            1870            2437     12.5508E-03     11.9169E-03
            1872            2438     12.6680E-03     12.1458E-03
            1863            2438     12.6680E-03     12.1458E-03
            1871            2438     12.6680E-03     12.1458E-03
            1862            2438     12.6680E-03     12.1458E-03
            1872            2439     12.5296E-03     12.3574E-03
            1873            2439     12.5296E-03     12.3574E-03
            1864            2439     12.5296E-03     12.3574E-03
            1863            2439     12.5296E-03     12.3574E-03
            1873            2440     11.6460E-03     11.9346E-03
            1874            2440     11.6460E-03     11.9346E-03
            1865            2440     11.6460E-03     11.9346E-03
            1864            2440     11.6460E-03     11.9346E-03
            1866            2441     12.8706E-03     13.0490E-03
            1876            2441     12.8706E-03     13.0490E-03
            1875            2441     12.8706E-03     13.0490E-03
            1867            2441     12.8706E-03     13.0490E-03
            1867            2442     12.9394E-03     13.0038E-03
            1876            2442     12.9394E-03     13.0038E-03
            1877            2442     12.9394E-03     13.0038E-03
            1868            2442     12.9394E-03     13.0038E-03
            1869            2443     12.9961E-03     12.6872E-03
            1878            2443     12.9961E-03     12.6872E-03
            1877            2443     12.9961E-03     12.6872E-03
            1868            2443     12.9961E-03     12.6872E-03
            1870            2444     12.8736E-03     12.3467E-03
            1878            2444     12.8736E-03     12.3467E-03
            1879            2444     12.8736E-03     12.3467E-03
            1869            2444     12.8736E-03     12.3467E-03
            1879            2445     12.8736E-03     12.3467E-03
            1870            2445     12.8736E-03     12.3467E-03
            1871            2445     12.8736E-03     12.3467E-03
            1880            2445     12.8736E-03     12.3467E-03
            1871            2446     12.9961E-03     12.6872E-03
            1880            2446     12.9961E-03     12.6872E-03
            1872            2446     12.9961E-03     12.6872E-03
            1881            2446     12.9961E-03     12.6872E-03
            1872            2447     12.9394E-03     13.0038E-03
            1873            2447     12.9394E-03     13.0038E-03
            1882            2447     12.9394E-03     13.0038E-03
            1881            2447     12.9394E-03     13.0038E-03
            1873            2448     12.8706E-03     13.0490E-03
            1874            2448     12.8706E-03     13.0490E-03
            1883            2448     12.8706E-03     13.0490E-03
            1882            2448     12.8706E-03     13.0490E-03
            1885            2449     14.2015E-03     14.2343E-03
            1876            2449     14.2015E-03     14.2343E-03
            1884            2449     14.2015E-03     14.2343E-03
            1875            2449     14.2015E-03     14.2343E-03
            1877            2450     13.5440E-03     13.5954E-03
            1885            2450     13.5440E-03     13.5954E-03
            1876            2450     13.5440E-03     13.5954E-03
            1886            2450     13.5440E-03     13.5954E-03
            1878            2451     13.2622E-03     13.1352E-03
            1877            2451     13.2622E-03     13.1352E-03
            1887            2451     13.2622E-03     13.1352E-03
            1886            2451     13.2622E-03     13.1352E-03
            1887            2452     13.1331E-03     12.8223E-03
            1888            2452     13.1331E-03     12.8223E-03
            1878            2452     13.1331E-03     12.8223E-03
            1879            2452     13.1331E-03     12.8223E-03
            1889            2453     13.1331E-03     12.8223E-03
            1880            2453     13.1331E-03     12.8223E-03
            1888            2453     13.1331E-03     12.8223E-03
            1879            2453     13.1331E-03     12.8223E-03
            1881            2454     13.2622E-03     13.1352E-03
            1880            2454     13.2622E-03     13.1352E-03
            1890            2454     13.2622E-03     13.1352E-03
            1889            2454     13.2622E-03     13.1352E-03
            1881            2455     13.5440E-03     13.5954E-03
            1882            2455     13.5440E-03     13.5954E-03
            1891            2455     13.5440E-03     13.5954E-03
            1890            2455     13.5440E-03     13.5954E-03
            1882            2456     14.2015E-03     14.2343E-03
            1891            2456     14.2015E-03     14.2343E-03
            1883            2456     14.2015E-03     14.2343E-03
            1892            2456     14.2015E-03     14.2343E-03
            1893            2457     15.5719E-03     15.5052E-03
            1894            2457     15.5719E-03     15.5052E-03
            1885            2457     15.5719E-03     15.5052E-03
            1884            2457     15.5719E-03     15.5052E-03
            1895            2458     14.2827E-03     14.3115E-03
            1886            2458     14.2827E-03     14.3115E-03
            1885            2458     14.2827E-03     14.3115E-03
            1894            2458     14.2827E-03     14.3115E-03
            1886            2459     13.6039E-03     13.5867E-03
            1896            2459     13.6039E-03     13.5867E-03
            1895            2459     13.6039E-03     13.5867E-03
            1887            2459     13.6039E-03     13.5867E-03
            1887            2460     13.2914E-03     13.1978E-03
            1896            2460     13.2914E-03     13.1978E-03
            1897            2460     13.2914E-03     13.1978E-03
            1888            2460     13.2914E-03     13.1978E-03
            1888            2461     13.2914E-03     13.1978E-03
            1897            2461     13.2914E-03     13.1978E-03
            1898            2461     13.2914E-03     13.1978E-03
            1889            2461     13.2914E-03     13.1978E-03
            1898            2462     13.6039E-03     13.5867E-03
            1899            2462     13.6039E-03     13.5867E-03
            1890            2462     13.6039E-03     13.5867E-03
            1889            2462     13.6039E-03     13.5867E-03
            1890            2463     14.2827E-03     14.3115E-03
            1899            2463     14.2827E-03     14.3115E-03
            1891            2463     14.2827E-03     14.3115E-03
            1900            2463     14.2827E-03     14.3115E-03
            1900            2464     15.5719E-03     15.5052E-03
            1891            2464     15.5719E-03     15.5052E-03
            1892            2464     15.5719E-03     15.5052E-03
            1901            2464     15.5719E-03     15.5052E-03
            1894            2465     16.9968E-03     16.8768E-03
            1902            2465     16.9968E-03     16.8768E-03
            1903            2465     16.9968E-03     16.8768E-03
            1893            2465     16.9968E-03     16.8768E-03
            1894            2466     15.1389E-03     15.1644E-03
            1903            2466     15.1389E-03     15.1644E-03
            1895            2466     15.1389E-03     15.1644E-03
            1904            2466     15.1389E-03     15.1644E-03
            1895            2467     13.9613E-03     14.0535E-03
            1904            2467     13.9613E-03     14.0535E-03
            1905            2467     13.9613E-03     14.0535E-03
            1896            2467     13.9613E-03     14.0535E-03
            1906            2468     13.4120E-03     13.5175E-03
            1897            2468     13.4120E-03     13.5175E-03
            1905            2468     13.4120E-03     13.5175E-03
            1896            2468     13.4120E-03     13.5175E-03
            1906            2469     13.4120E-03     13.5175E-03
            1907            2469     13.4120E-03     13.5175E-03
            1898            2469     13.4120E-03     13.5175E-03
            1897            2469     13.4120E-03     13.5175E-03
            1898            2470     13.9613E-03     14.0535E-03
            1899            2470     13.9613E-03     14.0535E-03
            1908            2470     13.9613E-03     14.0535E-03
            1907            2470     13.9613E-03     14.0535E-03
            1908            2471     15.1389E-03     15.1644E-03
            1899            2471     15.1389E-03     15.1644E-03
            1900            2471     15.1389E-03     15.1644E-03
            1909            2471     15.1389E-03     15.1644E-03
            1901            2472     16.9968E-03     16.8768E-03
            1900            2472     16.9968E-03     16.8768E-03
            1909            2472     16.9968E-03     16.8768E-03
            1910            2472     16.9968E-03     16.8768E-03
            1912            2473     18.4869E-03     18.3407E-03
            1902            2473     18.4869E-03     18.3407E-03
            1911            2473     18.4869E-03     18.3407E-03
            1903            2473     18.4869E-03     18.3407E-03
            1904            2474     16.0106E-03     16.0652E-03
            1912            2474     16.0106E-03     16.0652E-03
            1913            2474     16.0106E-03     16.0652E-03
            1903            2474     16.0106E-03     16.0652E-03
            1904            2475     14.3262E-03     14.5523E-03
            1913            2475     14.3262E-03     14.5523E-03
            1905            2475     14.3262E-03     14.5523E-03
            1914            2475     14.3262E-03     14.5523E-03
            1915            2476     13.4670E-03     13.8053E-03
            1914            2476     13.4670E-03     13.8053E-03
            1905            2476     13.4670E-03     13.8053E-03
            1906            2476     13.4670E-03     13.8053E-03
            1907            2477     13.4670E-03     13.8053E-03
            1906            2477     13.4670E-03     13.8053E-03
            1916            2477     13.4670E-03     13.8053E-03
            1915            2477     13.4670E-03     13.8053E-03
            1907            2478     14.3262E-03     14.5523E-03
            1917            2478     14.3262E-03     14.5523E-03
            1908            2478     14.3262E-03     14.5523E-03
            1916            2478     14.3262E-03     14.5523E-03
            1909            2479     16.0106E-03     16.0652E-03
            1918            2479     16.0106E-03     16.0652E-03
            1917            2479     16.0106E-03     16.0652E-03
            1908            2479     16.0106E-03     16.0652E-03
            1910            2480     18.4869E-03     18.3407E-03
            1919            2480     18.4869E-03     18.3407E-03
            1918            2480     18.4869E-03     18.3407E-03
            1909            2480     18.4869E-03     18.3407E-03
            1921            2481     19.9750E-03     19.8610E-03
            1911            2481     19.9750E-03     19.8610E-03
            1912            2481     19.9750E-03     19.8610E-03
            1920            2481     19.9750E-03     19.8610E-03
            1922            2482     16.9697E-03     17.1465E-03
            1912            2482     16.9697E-03     17.1465E-03
            1913            2482     16.9697E-03     17.1465E-03
            1921            2482     16.9697E-03     17.1465E-03
            1922            2483     14.6329E-03     15.0787E-03
            1913            2483     14.6329E-03     15.0787E-03
            1923            2483     14.6329E-03     15.0787E-03
            1914            2483     14.6329E-03     15.0787E-03
            1923            2484     13.2348E-03     13.7931E-03
            1914            2484     13.2348E-03     13.7931E-03
            1924            2484     13.2348E-03     13.7931E-03
            1915            2484     13.2348E-03     13.7931E-03
            1924            2485     13.2348E-03     13.7931E-03
            1916            2485     13.2348E-03     13.7931E-03
            1925            2485     13.2348E-03     13.7931E-03
            1915            2485     13.2348E-03     13.7931E-03
            1916            2486     14.6329E-03     15.0787E-03
            1925            2486     14.6329E-03     15.0787E-03
            1926            2486     14.6329E-03     15.0787E-03
            1917            2486     14.6329E-03     15.0787E-03
            1926            2487     16.9697E-03     17.1465E-03
            1917            2487     16.9697E-03     17.1465E-03
            1918            2487     16.9697E-03     17.1465E-03
            1927            2487     16.9697E-03     17.1465E-03
            1927            2488     19.9750E-03     19.8610E-03
            1928            2488     19.9750E-03     19.8610E-03
            1918            2488     19.9750E-03     19.8610E-03
            1919            2488     19.9750E-03     19.8610E-03
            1929            2489     21.9292E-03     21.9757E-03
            1921            2489     21.9292E-03     21.9757E-03
            1930            2489     21.9292E-03     21.9757E-03
            1920            2489     21.9292E-03     21.9757E-03
            1921            2490     17.8485E-03     18.1886E-03
            1930            2490     17.8485E-03     18.1886E-03
            1922            2490     17.8485E-03     18.1886E-03
            1931            2490     17.8485E-03     18.1886E-03
            1923            2491     14.3424E-03     14.8665E-03
            1922            2491     14.3424E-03     14.8665E-03
            1931            2491     14.3424E-03     14.8665E-03
            1932            2491     14.3424E-03     14.8665E-03
            1933            2492     12.5280E-03     13.1622E-03
            1923            2492     12.5280E-03     13.1622E-03
            1932            2492     12.5280E-03     13.1622E-03
            1924            2492     12.5280E-03     13.1622E-03
            1925            2493     12.5280E-03     13.1622E-03
            1933            2493     12.5280E-03     13.1622E-03
            1924            2493     12.5280E-03     13.1622E-03
            1934            2493     12.5280E-03     13.1622E-03
            1935            2494     14.3424E-03     14.8665E-03
            1934            2494     14.3424E-03     14.8665E-03
            1926            2494     14.3424E-03     14.8665E-03
            1925            2494     14.3424E-03     14.8665E-03
            1927            2495     17.8485E-03     18.1886E-03
            1926            2495     17.8485E-03     18.1886E-03
            1936            2495     17.8485E-03     18.1886E-03
            1935            2495     17.8485E-03     18.1886E-03
            1936            2496     21.9292E-03     21.9757E-03
            1928            2496     21.9292E-03     21.9757E-03
            1927            2496     21.9292E-03     21.9757E-03
            1937            2496     21.9292E-03     21.9757E-03
            1938            2497     23.7659E-03     23.2560E-03
            1939            2497     23.7659E-03     23.2560E-03
            1929            2497     23.7659E-03     23.2560E-03
            1930            2497     23.7659E-03     23.2560E-03
            1930            2498     17.5610E-03     17.4416E-03
            1931            2498     17.5610E-03     17.4416E-03
            1939            2498     17.5610E-03     17.4416E-03
            1940            2498     17.5610E-03     17.4416E-03
            1931            2499     13.2948E-03     13.4473E-03
            1941            2499     13.2948E-03     13.4473E-03
            1932            2499     13.2948E-03     13.4473E-03
            1940            2499     13.2948E-03     13.4473E-03
            1942            2500     11.1364E-03     11.5444E-03
            1933            2500     11.1364E-03     11.5444E-03
            1932            2500     11.1364E-03     11.5444E-03
            1941            2500     11.1364E-03     11.5444E-03
            1933            2501     11.1364E-03     11.5444E-03
            1942            2501     11.1364E-03     11.5444E-03
            1934            2501     11.1364E-03     11.5444E-03
            1943            2501     11.1364E-03     11.5444E-03
            1943            2502     13.2948E-03     13.4473E-03
            1934            2502     13.2948E-03     13.4473E-03
            1935            2502     13.2948E-03     13.4473E-03
            1944            2502     13.2948E-03     13.4473E-03
            1944            2503     17.5610E-03     17.4416E-03
            1936            2503     17.5610E-03     17.4416E-03
            1945            2503     17.5610E-03     17.4416E-03
            1935            2503     17.5610E-03     17.4416E-03
            1937            2504     23.7659E-03     23.2560E-03
            1936            2504     23.7659E-03     23.2560E-03
            1945            2504     23.7659E-03     23.2560E-03
            1946            2504     23.7659E-03     23.2560E-03
            1938            2505     21.5027E-03     19.6009E-03
            1948            2505     21.5027E-03     19.6009E-03
            1947            2505     21.5027E-03     19.6009E-03
            1939            2505     21.5027E-03     19.6009E-03
            1949            2506     16.9755E-03     15.6765E-03
            1948            2506     16.9755E-03     15.6765E-03
            1939            2506     16.9755E-03     15.6765E-03
            1940            2506     16.9755E-03     15.6765E-03
            1950            2507     13.8532E-03     13.2038E-03
            1941            2507     13.8532E-03     13.2038E-03
            1949            2507     13.8532E-03     13.2038E-03
            1940            2507     13.8532E-03     13.2038E-03
            1951            2508     12.0890E-03     11.8444E-03
            1941            2508     12.0890E-03     11.8444E-03
            1942            2508     12.0890E-03     11.8444E-03
            1950            2508     12.0890E-03     11.8444E-03
            1951            2509     12.0890E-03     11.8444E-03
            1943            2509     12.0890E-03     11.8444E-03
            1942            2509     12.0890E-03     11.8444E-03
            1952            2509     12.0890E-03     11.8444E-03
            1943            2510     13.8532E-03     13.2038E-03
            1953            2510     13.8532E-03     13.2038E-03
            1944            2510     13.8532E-03     13.2038E-03
            1952            2510     13.8532E-03     13.2038E-03
            1945            2511     16.9755E-03     15.6765E-03
            1954            2511     16.9755E-03     15.6765E-03
            1953            2511     16.9755E-03     15.6765E-03
            1944            2511     16.9755E-03     15.6765E-03
            1946            2512     21.5027E-03     19.6009E-03
            1945            2512     21.5027E-03     19.6009E-03
            1954            2512     21.5027E-03     19.6009E-03
            1955            2512     21.5027E-03     19.6009E-03
            1956            2513     19.7716E-03     18.7442E-03
            1947            2513     19.7716E-03     18.7442E-03
            1948            2513     19.7716E-03     18.7442E-03
            1957            2513     19.7716E-03     18.7442E-03
            1948            2514     17.5272E-03     16.2814E-03
            1957            2514     17.5272E-03     16.2814E-03
            1958            2514     17.5272E-03     16.2814E-03
            1949            2514     17.5272E-03     16.2814E-03
            1950            2515     15.1018E-03     14.0079E-03
            1949            2515     15.1018E-03     14.0079E-03
            1959            2515     15.1018E-03     14.0079E-03
            1958            2515     15.1018E-03     14.0079E-03
            1960            2516     13.6043E-03     12.6652E-03
            1959            2516     13.6043E-03     12.6652E-03
            1951            2516     13.6043E-03     12.6652E-03
            1950            2516     13.6043E-03     12.6652E-03
            1960            2517     13.6043E-03     12.6652E-03
            1951            2517     13.6043E-03     12.6652E-03
            1952            2517     13.6043E-03     12.6652E-03
            1961            2517     13.6043E-03     12.6652E-03
            1962            2518     15.1018E-03     14.0079E-03
            1953            2518     15.1018E-03     14.0079E-03
            1952            2518     15.1018E-03     14.0079E-03
            1961            2518     15.1018E-03     14.0079E-03
            1954            2519     17.5272E-03     16.2814E-03
            1962            2519     17.5272E-03     16.2814E-03
            1963            2519     17.5272E-03     16.2814E-03
            1953            2519     17.5272E-03     16.2814E-03
            1963            2520     19.7716E-03     18.7442E-03
            1955            2520     19.7716E-03     18.7442E-03
            1954            2520     19.7716E-03     18.7442E-03
            1964            2520     19.7716E-03     18.7442E-03
            1965            2521     21.7938E-03     22.2255E-03
            1966            2521     21.7938E-03     22.2255E-03
            1956            2521     21.7938E-03     22.2255E-03
            1957            2521     21.7938E-03     22.2255E-03
            1966            2522     18.4494E-03     18.3602E-03
            1958            2522     18.4494E-03     18.3602E-03
            1957            2522     18.4494E-03     18.3602E-03
            1967            2522     18.4494E-03     18.3602E-03
            1967            2523     15.3294E-03     14.5254E-03
            1968            2523     15.3294E-03     14.5254E-03
            1959            2523     15.3294E-03     14.5254E-03
            1958            2523     15.3294E-03     14.5254E-03
            1960            2524     13.2967E-03     12.1488E-03
            1959            2524     13.2967E-03     12.1488E-03
            1969            2524     13.2967E-03     12.1488E-03
            1968            2524     13.2967E-03     12.1488E-03
            1970            2525     13.2967E-03     12.1488E-03
            1969            2525     13.2967E-03     12.1488E-03
            1961            2525     13.2967E-03     12.1488E-03
            1960            2525     13.2967E-03     12.1488E-03
            1962            2526     15.3294E-03     14.5254E-03
            1970            2526     15.3294E-03     14.5254E-03
            1971            2526     15.3294E-03     14.5254E-03
            1961            2526     15.3294E-03     14.5254E-03
            1972            2527     18.4494E-03     18.3602E-03
            1962            2527     18.4494E-03     18.3602E-03
            1971            2527     18.4494E-03     18.3602E-03
            1963            2527     18.4494E-03     18.3602E-03
            1964            2528     21.7938E-03     22.2255E-03
            1973            2528     21.7938E-03     22.2255E-03
            1963            2528     21.7938E-03     22.2255E-03
            1972            2528     21.7938E-03     22.2255E-03
            1975            2529     23.4742E-03     23.6722E-03
            1966            2529     23.4742E-03     23.6722E-03
            1974            2529     23.4742E-03     23.6722E-03
            1965            2529     23.4742E-03     23.6722E-03
            1976            2530     19.2525E-03     19.5092E-03
            1967            2530     19.2525E-03     19.5092E-03
            1975            2530     19.2525E-03     19.5092E-03
            1966            2530     19.2525E-03     19.5092E-03
            1977            2531     15.7394E-03     15.3744E-03
            1968            2531     15.7394E-03     15.3744E-03
            1967            2531     15.7394E-03     15.3744E-03
            1976            2531     15.7394E-03     15.3744E-03
            1978            2532     13.4603E-03     12.5410E-03
            1977            2532     13.4603E-03     12.5410E-03
            1968            2532     13.4603E-03     12.5410E-03
            1969            2532     13.4603E-03     12.5410E-03
            1969            2533     13.4603E-03     12.5410E-03
            1978            2533     13.4603E-03     12.5410E-03
            1970            2533     13.4603E-03     12.5410E-03
            1979            2533     13.4603E-03     12.5410E-03
            1971            2534     15.7394E-03     15.3744E-03
            1970            2534     15.7394E-03     15.3744E-03
            1979            2534     15.7394E-03     15.3744E-03
            1980            2534     15.7394E-03     15.3744E-03
            1980            2535     19.2525E-03     19.5092E-03
            1981            2535     19.2525E-03     19.5092E-03
            1972            2535     19.2525E-03     19.5092E-03
            1971            2535     19.2525E-03     19.5092E-03
            1973            2536     23.4742E-03     23.6722E-03
            1982            2536     23.4742E-03     23.6722E-03
            1972            2536     23.4742E-03     23.6722E-03
            1981            2536     23.4742E-03     23.6722E-03
            1983            2537     25.1156E-03     25.0752E-03
            1974            2537     25.1156E-03     25.0752E-03
            1984            2537     25.1156E-03     25.0752E-03
            1975            2537     25.1156E-03     25.0752E-03
            1985            2538     20.1521E-03     20.2766E-03
            1976            2538     20.1521E-03     20.2766E-03
            1975            2538     20.1521E-03     20.2766E-03
            1984            2538     20.1521E-03     20.2766E-03
            1976            2539     16.1497E-03     16.0283E-03
            1986            2539     16.1497E-03     16.0283E-03
            1977            2539     16.1497E-03     16.0283E-03
            1985            2539     16.1497E-03     16.0283E-03
            1986            2540     13.7326E-03     13.2061E-03
            1977            2540     13.7326E-03     13.2061E-03
            1978            2540     13.7326E-03     13.2061E-03
            1987            2540     13.7326E-03     13.2061E-03
            1978            2541     13.7326E-03     13.2061E-03
            1987            2541     13.7326E-03     13.2061E-03
            1979            2541     13.7326E-03     13.2061E-03
            1988            2541     13.7326E-03     13.2061E-03
            1989            2542     16.1497E-03     16.0283E-03
            1979            2542     16.1497E-03     16.0283E-03
            1980            2542     16.1497E-03     16.0283E-03
            1988            2542     16.1497E-03     16.0283E-03
            1989            2543     20.1521E-03     20.2766E-03
            1980            2543     20.1521E-03     20.2766E-03
            1981            2543     20.1521E-03     20.2766E-03
            1990            2543     20.1521E-03     20.2766E-03
            1990            2544     25.1156E-03     25.0752E-03
            1981            2544     25.1156E-03     25.0752E-03
            1991            2544     25.1156E-03     25.0752E-03
            1982            2544     25.1156E-03     25.0752E-03
            1992            2545     26.6940E-03     26.5172E-03
            1984            2545     26.6940E-03     26.5172E-03
            1983            2545     26.6940E-03     26.5172E-03
            1993            2545     26.6940E-03     26.5172E-03
            1994            2546     21.1397E-03     21.1881E-03
            1985            2546     21.1397E-03     21.1881E-03
            1993            2546     21.1397E-03     21.1881E-03
            1984            2546     21.1397E-03     21.1881E-03
            1995            2547     16.6663E-03     16.6775E-03
            1985            2547     16.6663E-03     16.6775E-03
            1994            2547     16.6663E-03     16.6775E-03
            1986            2547     16.6663E-03     16.6775E-03
            1996            2548     13.9586E-03     13.8113E-03
            1986            2548     13.9586E-03     13.8113E-03
            1987            2548     13.9586E-03     13.8113E-03
            1995            2548     13.9586E-03     13.8113E-03
            1997            2549     13.9586E-03     13.8113E-03
            1988            2549     13.9586E-03     13.8113E-03
            1996            2549     13.9586E-03     13.8113E-03
            1987            2549     13.9586E-03     13.8113E-03
            1997            2550     16.6663E-03     16.6775E-03
            1989            2550     16.6663E-03     16.6775E-03
            1998            2550     16.6663E-03     16.6775E-03
            1988            2550     16.6663E-03     16.6775E-03
            1998            2551     21.1397E-03     21.1881E-03
            1989            2551     21.1397E-03     21.1881E-03
            1999            2551     21.1397E-03     21.1881E-03
            1990            2551     21.1397E-03     21.1881E-03
            1991            2552     26.6940E-03     26.5172E-03
            1999            2552     26.6940E-03     26.5172E-03
            1990            2552     26.6940E-03     26.5172E-03
            2000            2552     26.6940E-03     26.5172E-03
            2002            2553     28.2744E-03     28.0396E-03
            1992            2553     28.2744E-03     28.0396E-03
            1993            2553     28.2744E-03     28.0396E-03
            2001            2553     28.2744E-03     28.0396E-03
            1993            2554     22.2132E-03     22.2625E-03
            1994            2554     22.2132E-03     22.2625E-03
            2002            2554     22.2132E-03     22.2625E-03
            2003            2554     22.2132E-03     22.2625E-03
            2004            2555     17.1906E-03     17.3770E-03
            1994            2555     17.1906E-03     17.3770E-03
            2003            2555     17.1906E-03     17.3770E-03
            1995            2555     17.1906E-03     17.3770E-03
            1996            2556     14.1709E-03     14.3816E-03
            2004            2556     14.1709E-03     14.3816E-03
            2005            2556     14.1709E-03     14.3816E-03
            1995            2556     14.1709E-03     14.3816E-03
            2006            2557     14.1709E-03     14.3816E-03
            1996            2557     14.1709E-03     14.3816E-03
            2005            2557     14.1709E-03     14.3816E-03
            1997            2557     14.1709E-03     14.3816E-03
            2007            2558     17.1906E-03     17.3770E-03
            1997            2558     17.1906E-03     17.3770E-03
            1998            2558     17.1906E-03     17.3770E-03
            2006            2558     17.1906E-03     17.3770E-03
            2008            2559     22.2132E-03     22.2625E-03
            2007            2559     22.2132E-03     22.2625E-03
            1998            2559     22.2132E-03     22.2625E-03
            1999            2559     22.2132E-03     22.2625E-03
            2000            2560     28.2744E-03     28.0396E-03
            2009            2560     28.2744E-03     28.0396E-03
            1999            2560     28.2744E-03     28.0396E-03
            2008            2560     28.2744E-03     28.0396E-03
            2011            2561     29.8802E-03     29.6461E-03
            2002            2561     29.8802E-03     29.6461E-03
            2001            2561     29.8802E-03     29.6461E-03
            2010            2561     29.8802E-03     29.6461E-03
            2011            2562     23.2514E-03     23.3878E-03
            2012            2562     23.2514E-03     23.3878E-03
            2002            2562     23.2514E-03     23.3878E-03
            2003            2562     23.2514E-03     23.3878E-03
            2003            2563     17.7186E-03     18.1610E-03
            2012            2563     17.7186E-03     18.1610E-03
            2004            2563     17.7186E-03     18.1610E-03
            2013            2563     17.7186E-03     18.1610E-03
            2005            2564     14.3124E-03     14.9503E-03
            2013            2564     14.3124E-03     14.9503E-03
            2014            2564     14.3124E-03     14.9503E-03
            2004            2564     14.3124E-03     14.9503E-03
            2005            2565     14.3124E-03     14.9503E-03
            2006            2565     14.3124E-03     14.9503E-03
            2015            2565     14.3124E-03     14.9503E-03
            2014            2565     14.3124E-03     14.9503E-03
            2006            2566     17.7186E-03     18.1610E-03
            2015            2566     17.7186E-03     18.1610E-03
            2007            2566     17.7186E-03     18.1610E-03
            2016            2566     17.7186E-03     18.1610E-03
            2017            2567     23.2514E-03     23.3878E-03
            2016            2567     23.2514E-03     23.3878E-03
            2008            2567     23.2514E-03     23.3878E-03
            2007            2567     23.2514E-03     23.3878E-03
            2018            2568     29.8802E-03     29.6461E-03
            2008            2568     29.8802E-03     29.6461E-03
            2009            2568     29.8802E-03     29.6461E-03
            2017            2568     29.8802E-03     29.6461E-03
            2011            2569     31.4155E-03     31.2888E-03
            2010            2569     31.4155E-03     31.2888E-03
            2019            2569     31.4155E-03     31.2888E-03
            2020            2569     31.4155E-03     31.2888E-03
            2021            2570     24.3549E-03     24.7584E-03
            2012            2570     24.3549E-03     24.7584E-03
            2011            2570     24.3549E-03     24.7584E-03
            2020            2570     24.3549E-03     24.7584E-03
            2012            2571     18.1437E-03     18.9603E-03
            2021            2571     18.1437E-03     18.9603E-03
            2022            2571     18.1437E-03     18.9603E-03
            2013            2571     18.1437E-03     18.9603E-03
            2023            2572     14.0767E-03     15.0973E-03
            2014            2572     14.0767E-03     15.0973E-03
            2013            2572     14.0767E-03     15.0973E-03
            2022            2572     14.0767E-03     15.0973E-03
            2015            2573     14.0767E-03     15.0973E-03
            2024            2573     14.0767E-03     15.0973E-03
            2023            2573     14.0767E-03     15.0973E-03
            2014            2573     14.0767E-03     15.0973E-03
            2016            2574     18.1437E-03     18.9603E-03
            2015            2574     18.1437E-03     18.9603E-03
            2024            2574     18.1437E-03     18.9603E-03
            2025            2574     18.1437E-03     18.9603E-03
            2025            2575     24.3549E-03     24.7584E-03
            2017            2575     24.3549E-03     24.7584E-03
            2026            2575     24.3549E-03     24.7584E-03
            2016            2575     24.3549E-03     24.7584E-03
            2018            2576     31.4155E-03     31.2888E-03
            2026            2576     31.4155E-03     31.2888E-03
            2017            2576     31.4155E-03     31.2888E-03
            2027            2576     31.4155E-03     31.2888E-03
            2019            2577     33.4503E-03     33.6241E-03
            2028            2577     33.4503E-03     33.6241E-03
            2020            2577     33.4503E-03     33.6241E-03
            2029            2577     33.4503E-03     33.6241E-03
            2020            2578     25.2502E-03     25.8397E-03
            2030            2578     25.2502E-03     25.8397E-03
            2021            2578     25.2502E-03     25.8397E-03
            2029            2578     25.2502E-03     25.8397E-03
            2030            2579     17.7544E-03     18.5907E-03
            2031            2579     17.7544E-03     18.5907E-03
            2021            2579     17.7544E-03     18.5907E-03
            2022            2579     17.7544E-03     18.5907E-03
            2032            2580     13.2203E-03     14.3446E-03
            2022            2580     13.2203E-03     14.3446E-03
            2031            2580     13.2203E-03     14.3446E-03
            2023            2580     13.2203E-03     14.3446E-03
            2032            2581     13.2203E-03     14.3446E-03
            2023            2581     13.2203E-03     14.3446E-03
            2033            2581     13.2203E-03     14.3446E-03
            2024            2581     13.2203E-03     14.3446E-03
            2025            2582     17.7544E-03     18.5907E-03
            2024            2582     17.7544E-03     18.5907E-03
            2034            2582     17.7544E-03     18.5907E-03
            2033            2582     17.7544E-03     18.5907E-03
            2035            2583     25.2502E-03     25.8397E-03
            2025            2583     25.2502E-03     25.8397E-03
            2034            2583     25.2502E-03     25.8397E-03
            2026            2583     25.2502E-03     25.8397E-03
            2035            2584     33.4503E-03     33.6241E-03
            2027            2584     33.4503E-03     33.6241E-03
            2036            2584     33.4503E-03     33.6241E-03
            2026            2584     33.4503E-03     33.6241E-03
            2029            2585     35.1746E-03     34.1705E-03
            2037            2585     35.1746E-03     34.1705E-03
            2038            2585     35.1746E-03     34.1705E-03
            2028            2585     35.1746E-03     34.1705E-03
            2038            2586     24.6302E-03     24.1313E-03
            2030            2586     24.6302E-03     24.1313E-03
            2039            2586     24.6302E-03     24.1313E-03
            2029            2586     24.6302E-03     24.1313E-03
            2039            2587     16.3994E-03     16.4201E-03
            2031            2587     16.3994E-03     16.4201E-03
            2030            2587     16.3994E-03     16.4201E-03
            2040            2587     16.3994E-03     16.4201E-03
            2041            2588     11.3362E-03     11.9919E-03
            2040            2588     11.3362E-03     11.9919E-03
            2031            2588     11.3362E-03     11.9919E-03
            2032            2588     11.3362E-03     11.9919E-03
            2033            2589     11.3362E-03     11.9919E-03
            2032            2589     11.3362E-03     11.9919E-03
            2041            2589     11.3362E-03     11.9919E-03
            2042            2589     11.3362E-03     11.9919E-03
            2042            2590     16.3994E-03     16.4201E-03
            2033            2590     16.3994E-03     16.4201E-03
            2034            2590     16.3994E-03     16.4201E-03
            2043            2590     16.3994E-03     16.4201E-03
            2034            2591     24.6302E-03     24.1313E-03
            2035            2591     24.6302E-03     24.1313E-03
            2043            2591     24.6302E-03     24.1313E-03
            2044            2591     24.6302E-03     24.1313E-03
            2045            2592     35.1746E-03     34.1705E-03
            2036            2592     35.1746E-03     34.1705E-03
            2035            2592     35.1746E-03     34.1705E-03
            2044            2592     35.1746E-03     34.1705E-03
            2047            2593     32.6285E-03     29.4248E-03
            2037            2593     32.6285E-03     29.4248E-03
            2038            2593     32.6285E-03     29.4248E-03
            2046            2593     32.6285E-03     29.4248E-03
            2039            2594     23.8115E-03     21.4891E-03
            2038            2594     23.8115E-03     21.4891E-03
            2047            2594     23.8115E-03     21.4891E-03
            2048            2594     23.8115E-03     21.4891E-03
            2048            2595     17.1970E-03     15.9677E-03
            2049            2595     17.1970E-03     15.9677E-03
            2040            2595     17.1970E-03     15.9677E-03
            2039            2595     17.1970E-03     15.9677E-03
            2050            2596     12.9083E-03     12.4912E-03
            2040            2596     12.9083E-03     12.4912E-03
            2049            2596     12.9083E-03     12.4912E-03
            2041            2596     12.9083E-03     12.4912E-03
            2042            2597     12.9083E-03     12.4912E-03
            2041            2597     12.9083E-03     12.4912E-03
            2050            2597     12.9083E-03     12.4912E-03
            2051            2597     12.9083E-03     12.4912E-03
            2042            2598     17.1970E-03     15.9677E-03
            2051            2598     17.1970E-03     15.9677E-03
            2043            2598     17.1970E-03     15.9677E-03
            2052            2598     17.1970E-03     15.9677E-03
            2043            2599     23.8115E-03     21.4891E-03
            2044            2599     23.8115E-03     21.4891E-03
            2052            2599     23.8115E-03     21.4891E-03
            2053            2599     23.8115E-03     21.4891E-03
            2054            2600     32.6285E-03     29.4248E-03
            2053            2600     32.6285E-03     29.4248E-03
            2044            2600     32.6285E-03     29.4248E-03
            2045            2600     32.6285E-03     29.4248E-03
            2047            2601     31.0118E-03     29.4045E-03
            2055            2601     31.0118E-03     29.4045E-03
            2056            2601     31.0118E-03     29.4045E-03
            2046            2601     31.0118E-03     29.4045E-03
            2057            2602     24.6676E-03     22.8513E-03
            2056            2602     24.6676E-03     22.8513E-03
            2047            2602     24.6676E-03     22.8513E-03
            2048            2602     24.6676E-03     22.8513E-03
            2049            2603     18.8240E-03     17.2226E-03
            2058            2603     18.8240E-03     17.2226E-03
            2048            2603     18.8240E-03     17.2226E-03
            2057            2603     18.8240E-03     17.2226E-03
            2050            2604     15.1051E-03     13.7279E-03
            2059            2604     15.1051E-03     13.7279E-03
            2058            2604     15.1051E-03     13.7279E-03
            2049            2604     15.1051E-03     13.7279E-03
            2059            2605     15.1051E-03     13.7279E-03
            2060            2605     15.1051E-03     13.7279E-03
            2051            2605     15.1051E-03     13.7279E-03
            2050            2605     15.1051E-03     13.7279E-03
            2060            2606     18.8240E-03     17.2226E-03
            2051            2606     18.8240E-03     17.2226E-03
            2052            2606     18.8240E-03     17.2226E-03
            2061            2606     18.8240E-03     17.2226E-03
            2062            2607     24.6676E-03     22.8513E-03
            2052            2607     24.6676E-03     22.8513E-03
            2061            2607     24.6676E-03     22.8513E-03
            2053            2607     24.6676E-03     22.8513E-03
            2053            2608     31.0118E-03     29.4045E-03
            2054            2608     31.0118E-03     29.4045E-03
            2062            2608     31.0118E-03     29.4045E-03
            2063            2608     31.0118E-03     29.4045E-03
            2065            2609     33.3126E-03     33.8869E-03
            2055            2609     33.3126E-03     33.8869E-03
            2064            2609     33.3126E-03     33.8869E-03
            2056            2609     33.3126E-03     33.8869E-03
            2065            2610     25.9637E-03     26.0193E-03
            2066            2610     25.9637E-03     26.0193E-03
            2057            2610     25.9637E-03     26.0193E-03
            2056            2610     25.9637E-03     26.0193E-03
            2057            2611     19.0508E-03     18.1081E-03
            2066            2611     19.0508E-03     18.1081E-03
            2067            2611     19.0508E-03     18.1081E-03
            2058            2611     19.0508E-03     18.1081E-03
            2068            2612     14.3687E-03     12.7775E-03
            2067            2612     14.3687E-03     12.7775E-03
            2059            2612     14.3687E-03     12.7775E-03
            2058            2612     14.3687E-03     12.7775E-03
            2069            2613     14.3687E-03     12.7775E-03
            2068            2613     14.3687E-03     12.7775E-03
            2060            2613     14.3687E-03     12.7775E-03
            2059            2613     14.3687E-03     12.7775E-03
            2060            2614     19.0508E-03     18.1081E-03
            2070            2614     19.0508E-03     18.1081E-03
            2061            2614     19.0508E-03     18.1081E-03
            2069            2614     19.0508E-03     18.1081E-03
            2070            2615     25.9637E-03     26.0193E-03
            2061            2615     25.9637E-03     26.0193E-03
            2062            2615     25.9637E-03     26.0193E-03
            2071            2615     25.9637E-03     26.0193E-03
            2071            2616     33.3126E-03     33.8869E-03
            2072            2616     33.3126E-03     33.8869E-03
            2062            2616     33.3126E-03     33.8869E-03
            2063            2616     33.3126E-03     33.8869E-03
            2074            2617     35.0923E-03     35.3018E-03
            2073            2617     35.0923E-03     35.3018E-03
            2065            2617     35.0923E-03     35.3018E-03
            2064            2617     35.0923E-03     35.3018E-03
            2066            2618     26.9364E-03     27.3998E-03
            2074            2618     26.9364E-03     27.3998E-03
            2075            2618     26.9364E-03     27.3998E-03
            2065            2618     26.9364E-03     27.3998E-03
            2067            2619     19.5338E-03     19.2263E-03
            2066            2619     19.5338E-03     19.2263E-03
            2075            2619     19.5338E-03     19.2263E-03
            2076            2619     19.5338E-03     19.2263E-03
            2077            2620     14.3939E-03     13.1598E-03
            2076            2620     14.3939E-03     13.1598E-03
            2067            2620     14.3939E-03     13.1598E-03
            2068            2620     14.3939E-03     13.1598E-03
            2077            2621     14.3939E-03     13.1598E-03
            2069            2621     14.3939E-03     13.1598E-03
            2068            2621     14.3939E-03     13.1598E-03
            2078            2621     14.3939E-03     13.1598E-03
            2079            2622     19.5338E-03     19.2263E-03
            2078            2622     19.5338E-03     19.2263E-03
            2069            2622     19.5338E-03     19.2263E-03
            2070            2622     19.5338E-03     19.2263E-03
            2071            2623     26.9364E-03     27.3998E-03
            2079            2623     26.9364E-03     27.3998E-03
            2070            2623     26.9364E-03     27.3998E-03
            2080            2623     26.9364E-03     27.3998E-03
            2080            2624     35.0923E-03     35.3018E-03
            2072            2624     35.0923E-03     35.3018E-03
            2081            2624     35.0923E-03     35.3018E-03
            2071            2624     35.0923E-03     35.3018E-03
            2083            2625     36.8456E-03     36.7309E-03
            2082            2625     36.8456E-03     36.7309E-03
            2073            2625     36.8456E-03     36.7309E-03
            2074            2625     36.8456E-03     36.7309E-03
            2084            2626     27.9285E-03     28.1324E-03
            2075            2626     27.9285E-03     28.1324E-03
            2074            2626     27.9285E-03     28.1324E-03
            2083            2626     27.9285E-03     28.1324E-03
            2075            2627     20.0048E-03     19.9471E-03
            2076            2627     20.0048E-03     19.9471E-03
            2085            2627     20.0048E-03     19.9471E-03
            2084            2627     20.0048E-03     19.9471E-03
            2086            2628     14.6737E-03     13.9791E-03
            2076            2628     14.6737E-03     13.9791E-03
            2085            2628     14.6737E-03     13.9791E-03
            2077            2628     14.6737E-03     13.9791E-03
            2087            2629     14.6737E-03     13.9791E-03
            2086            2629     14.6737E-03     13.9791E-03
            2077            2629     14.6737E-03     13.9791E-03
            2078            2629     14.6737E-03     13.9791E-03
            2088            2630     20.0048E-03     19.9471E-03
            2087            2630     20.0048E-03     19.9471E-03
            2078            2630     20.0048E-03     19.9471E-03
            2079            2630     20.0048E-03     19.9471E-03
            2079            2631     27.9285E-03     28.1324E-03
            2088            2631     27.9285E-03     28.1324E-03
            2080            2631     27.9285E-03     28.1324E-03
            2089            2631     27.9285E-03     28.1324E-03
            2080            2632     36.8456E-03     36.7309E-03
            2081            2632     36.8456E-03     36.7309E-03
            2090            2632     36.8456E-03     36.7309E-03
            2089            2632     36.8456E-03     36.7309E-03
            2082            2633     38.4810E-03     38.1972E-03
            2092            2633     38.4810E-03     38.1972E-03
            2083            2633     38.4810E-03     38.1972E-03
            2091            2633     38.4810E-03     38.1972E-03
            2084            2634     29.0040E-03     29.0767E-03
            2092            2634     29.0040E-03     29.0767E-03
            2093            2634     29.0040E-03     29.0767E-03
            2083            2634     29.0040E-03     29.0767E-03
            2084            2635     20.6051E-03     20.6671E-03
            2093            2635     20.6051E-03     20.6671E-03
            2085            2635     20.6051E-03     20.6671E-03
            2094            2635     20.6051E-03     20.6671E-03
            2095            2636     14.9444E-03     14.7606E-03
            2086            2636     14.9444E-03     14.7606E-03
            2094            2636     14.9444E-03     14.7606E-03
            2085            2636     14.9444E-03     14.7606E-03
            2087            2637     14.9444E-03     14.7606E-03
            2095            2637     14.9444E-03     14.7606E-03
            2086            2637     14.9444E-03     14.7606E-03
            2096            2637     14.9444E-03     14.7606E-03
            2087            2638     20.6051E-03     20.6671E-03
            2096            2638     20.6051E-03     20.6671E-03
            2088            2638     20.6051E-03     20.6671E-03
            2097            2638     20.6051E-03     20.6671E-03
            2097            2639     29.0040E-03     29.0767E-03
            2088            2639     29.0040E-03     29.0767E-03
            2089            2639     29.0040E-03     29.0767E-03
            2098            2639     29.0040E-03     29.0767E-03
            2089            2640     38.4810E-03     38.1972E-03
            2090            2640     38.4810E-03     38.1972E-03
            2098            2640     38.4810E-03     38.1972E-03
            2099            2640     38.4810E-03     38.1972E-03
            2091            2641     40.1034E-03     39.7604E-03
            2092            2641     40.1034E-03     39.7604E-03
            2101            2641     40.1034E-03     39.7604E-03
            2100            2641     40.1034E-03     39.7604E-03
            2102            2642     30.1554E-03     30.2311E-03
            2092            2642     30.1554E-03     30.2311E-03
            2101            2642     30.1554E-03     30.2311E-03
            2093            2642     30.1554E-03     30.2311E-03
            2094            2643     21.2148E-03     21.4939E-03
            2102            2643     21.2148E-03     21.4939E-03
            2093            2643     21.2148E-03     21.4939E-03
            2103            2643     21.2148E-03     21.4939E-03
            2104            2644     15.2322E-03     15.5474E-03
            2094            2644     15.2322E-03     15.5474E-03
            2095            2644     15.2322E-03     15.5474E-03
            2103            2644     15.2322E-03     15.5474E-03
            2105            2645     15.2322E-03     15.5474E-03
            2096            2645     15.2322E-03     15.5474E-03
            2095            2645     15.2322E-03     15.5474E-03
            2104            2645     15.2322E-03     15.5474E-03
            2105            2646     21.2148E-03     21.4939E-03
            2097            2646     21.2148E-03     21.4939E-03
            2096            2646     21.2148E-03     21.4939E-03
            2106            2646     21.2148E-03     21.4939E-03
            2106            2647     30.1554E-03     30.2311E-03
            2107            2647     30.1554E-03     30.2311E-03
            2097            2647     30.1554E-03     30.2311E-03
            2098            2647     30.1554E-03     30.2311E-03
            2108            2648     40.1034E-03     39.7604E-03
            2098            2648     40.1034E-03     39.7604E-03
            2099            2648     40.1034E-03     39.7604E-03
            2107            2648     40.1034E-03     39.7604E-03
            2100            2649     41.7387E-03     41.4264E-03
            2110            2649     41.7387E-03     41.4264E-03
            2101            2649     41.7387E-03     41.4264E-03
            2109            2649     41.7387E-03     41.4264E-03
            2111            2650     31.2520E-03     31.4707E-03
            2101            2650     31.2520E-03     31.4707E-03
            2102            2650     31.2520E-03     31.4707E-03
            2110            2650     31.2520E-03     31.4707E-03
            2103            2651     21.8375E-03     22.4778E-03
            2112            2651     21.8375E-03     22.4778E-03
            2102            2651     21.8375E-03     22.4778E-03
            2111            2651     21.8375E-03     22.4778E-03
            2113            2652     15.4446E-03     16.3681E-03
            2112            2652     15.4446E-03     16.3681E-03
            2103            2652     15.4446E-03     16.3681E-03
            2104            2652     15.4446E-03     16.3681E-03
            2113            2653     15.4446E-03     16.3681E-03
            2104            2653     15.4446E-03     16.3681E-03
            2114            2653     15.4446E-03     16.3681E-03
            2105            2653     15.4446E-03     16.3681E-03
            2105            2654     21.8375E-03     22.4778E-03
            2115            2654     21.8375E-03     22.4778E-03
            2106            2654     21.8375E-03     22.4778E-03
            2114            2654     21.8375E-03     22.4778E-03
            2107            2655     31.2520E-03     31.4707E-03
            2116            2655     31.2520E-03     31.4707E-03
            2115            2655     31.2520E-03     31.4707E-03
            2106            2655     31.2520E-03     31.4707E-03
            2107            2656     41.7387E-03     41.4264E-03
            2116            2656     41.7387E-03     41.4264E-03
            2117            2656     41.7387E-03     41.4264E-03
            2108            2656     41.7387E-03     41.4264E-03
            2118            2657     43.2546E-03     43.1297E-03
            2110            2657     43.2546E-03     43.1297E-03
            2119            2657     43.2546E-03     43.1297E-03
            2109            2657     43.2546E-03     43.1297E-03
            2119            2658     32.4167E-03     33.0382E-03
            2111            2658     32.4167E-03     33.0382E-03
            2110            2658     32.4167E-03     33.0382E-03
            2120            2658     32.4167E-03     33.0382E-03
            2120            2659     22.3282E-03     23.4646E-03
            2111            2659     22.3282E-03     23.4646E-03
            2121            2659     22.3282E-03     23.4646E-03
            2112            2659     22.3282E-03     23.4646E-03
            2121            2660     15.1944E-03     16.6419E-03
            2113            2660     15.1944E-03     16.6419E-03
            2112            2660     15.1944E-03     16.6419E-03
            2122            2660     15.1944E-03     16.6419E-03
            2114            2661     15.1944E-03     16.6419E-03
            2122            2661     15.1944E-03     16.6419E-03
            2123            2661     15.1944E-03     16.6419E-03
            2113            2661     15.1944E-03     16.6419E-03
            2115            2662     22.3282E-03     23.4646E-03
            2124            2662     22.3282E-03     23.4646E-03
            2114            2662     22.3282E-03     23.4646E-03
            2123            2662     22.3282E-03     23.4646E-03
            2115            2663     32.4167E-03     33.0382E-03
            2124            2663     32.4167E-03     33.0382E-03
            2125            2663     32.4167E-03     33.0382E-03
            2116            2663     32.4167E-03     33.0382E-03
            2125            2664     43.2546E-03     43.1297E-03
            2116            2664     43.2546E-03     43.1297E-03
            2117            2664     43.2546E-03     43.1297E-03
            2126            2664     43.2546E-03     43.1297E-03
            2127            2665     45.3223E-03     45.6330E-03
            2119            2665     45.3223E-03     45.6330E-03
            2128            2665     45.3223E-03     45.6330E-03
            2118            2665     45.3223E-03     45.6330E-03
            2119            2666     33.2789E-03     34.0763E-03
            2128            2666     33.2789E-03     34.0763E-03
            2120            2666     33.2789E-03     34.0763E-03
            2129            2666     33.2789E-03     34.0763E-03
            2120            2667     21.8295E-03     22.8825E-03
            2130            2667     21.8295E-03     22.8825E-03
            2121            2667     21.8295E-03     22.8825E-03
            2129            2667     21.8295E-03     22.8825E-03
            2131            2668     14.2011E-03     15.7587E-03
            2130            2668     14.2011E-03     15.7587E-03
            2121            2668     14.2011E-03     15.7587E-03
            2122            2668     14.2011E-03     15.7587E-03
            2123            2669     14.2011E-03     15.7587E-03
            2132            2669     14.2011E-03     15.7587E-03
            2122            2669     14.2011E-03     15.7587E-03
            2131            2669     14.2011E-03     15.7587E-03
            2123            2670     21.8295E-03     22.8825E-03
            2124            2670     21.8295E-03     22.8825E-03
            2132            2670     21.8295E-03     22.8825E-03
            2133            2670     21.8295E-03     22.8825E-03
            2124            2671     33.2789E-03     34.0763E-03
            2125            2671     33.2789E-03     34.0763E-03
            2133            2671     33.2789E-03     34.0763E-03
            2134            2671     33.2789E-03     34.0763E-03
            2126            2672     45.3223E-03     45.6330E-03
            2125            2672     45.3223E-03     45.6330E-03
            2135            2672     45.3223E-03     45.6330E-03
            2134            2672     45.3223E-03     45.6330E-03
            2136            2673     46.9048E-03     45.3930E-03
            2128            2673     46.9048E-03     45.3930E-03
            2127            2673     46.9048E-03     45.3930E-03
            2137            2673     46.9048E-03     45.3930E-03
            2128            2674     32.3106E-03     31.3720E-03
            2137            2674     32.3106E-03     31.3720E-03
            2129            2674     32.3106E-03     31.3720E-03
            2138            2674     32.3106E-03     31.3720E-03
            2129            2675     20.2100E-03     19.9818E-03
            2139            2675     20.2100E-03     19.9818E-03
            2130            2675     20.2100E-03     19.9818E-03
            2138            2675     20.2100E-03     19.9818E-03
            2131            2676     11.8725E-03     12.7002E-03
            2140            2676     11.8725E-03     12.7002E-03
            2139            2676     11.8725E-03     12.7002E-03
            2130            2676     11.8725E-03     12.7002E-03
            2131            2677     11.8725E-03     12.7002E-03
            2141            2677     11.8725E-03     12.7002E-03
            2140            2677     11.8725E-03     12.7002E-03
            2132            2677     11.8725E-03     12.7002E-03
            2132            2678     20.2100E-03     19.9818E-03
            2133            2678     20.2100E-03     19.9818E-03
            2142            2678     20.2100E-03     19.9818E-03
            2141            2678     20.2100E-03     19.9818E-03
            2142            2679     32.3106E-03     31.3720E-03
            2133            2679     32.3106E-03     31.3720E-03
            2143            2679     32.3106E-03     31.3720E-03
            2134            2679     32.3106E-03     31.3720E-03
            2144            2680     46.9048E-03     45.3930E-03
            2143            2680     46.9048E-03     45.3930E-03
            2135            2680     46.9048E-03     45.3930E-03
            2134            2680     46.9048E-03     45.3930E-03
            2146            2681     44.1385E-03     39.7102E-03
            2137            2681     44.1385E-03     39.7102E-03
            2145            2681     44.1385E-03     39.7102E-03
            2136            2681     44.1385E-03     39.7102E-03
            2146            2682     31.2487E-03     27.9429E-03
            2138            2682     31.2487E-03     27.9429E-03
            2137            2682     31.2487E-03     27.9429E-03
            2147            2682     31.2487E-03     27.9429E-03
            2138            2683     21.1680E-03     19.3305E-03
            2139            2683     21.1680E-03     19.3305E-03
            2148            2683     21.1680E-03     19.3305E-03
            2147            2683     21.1680E-03     19.3305E-03
            2148            2684     14.0283E-03     13.4066E-03
            2140            2684     14.0283E-03     13.4066E-03
            2149            2684     14.0283E-03     13.4066E-03
            2139            2684     14.0283E-03     13.4066E-03
            2149            2685     14.0283E-03     13.4066E-03
            2150            2685     14.0283E-03     13.4066E-03
            2141            2685     14.0283E-03     13.4066E-03
            2140            2685     14.0283E-03     13.4066E-03
            2151            2686     21.1680E-03     19.3305E-03
            2142            2686     21.1680E-03     19.3305E-03
            2141            2686     21.1680E-03     19.3305E-03
            2150            2686     21.1680E-03     19.3305E-03
            2143            2687     31.2487E-03     27.9429E-03
            2151            2687     31.2487E-03     27.9429E-03
            2152            2687     31.2487E-03     27.9429E-03
            2142            2687     31.2487E-03     27.9429E-03
            2153            2688     44.1385E-03     39.7102E-03
            2143            2688     44.1385E-03     39.7102E-03
            2152            2688     44.1385E-03     39.7102E-03
            2144            2688     44.1385E-03     39.7102E-03
            2155            2689     42.7323E-03     40.6408E-03
            2146            2689     42.7323E-03     40.6408E-03
            2154            2689     42.7323E-03     40.6408E-03
            2145            2689     42.7323E-03     40.6408E-03
            2147            2690     32.4402E-03     30.1634E-03
            2156            2690     32.4402E-03     30.1634E-03
            2155            2690     32.4402E-03     30.1634E-03
            2146            2690     32.4402E-03     30.1634E-03
            2156            2691     23.0858E-03     21.0708E-03
            2157            2691     23.0858E-03     21.0708E-03
            2148            2691     23.0858E-03     21.0708E-03
            2147            2691     23.0858E-03     21.0708E-03
            2158            2692     16.8871E-03     15.1379E-03
            2157            2692     16.8871E-03     15.1379E-03
            2149            2692     16.8871E-03     15.1379E-03
            2148            2692     16.8871E-03     15.1379E-03
            2149            2693     16.8871E-03     15.1379E-03
            2150            2693     16.8871E-03     15.1379E-03
            2159            2693     16.8871E-03     15.1379E-03
            2158            2693     16.8871E-03     15.1379E-03
            2151            2694     23.0858E-03     21.0708E-03
            2159            2694     23.0858E-03     21.0708E-03
            2160            2694     23.0858E-03     21.0708E-03
            2150            2694     23.0858E-03     21.0708E-03
            2152            2695     32.4402E-03     30.1634E-03
            2151            2695     32.4402E-03     30.1634E-03
            2160            2695     32.4402E-03     30.1634E-03
            2161            2695     32.4402E-03     30.1634E-03
            2162            2696     42.7323E-03     40.6408E-03
            2161            2696     42.7323E-03     40.6408E-03
            2152            2696     42.7323E-03     40.6408E-03
            2153            2696     42.7323E-03     40.6408E-03
            2164            2697     45.2719E-03     46.0225E-03
            2155            2697     45.2719E-03     46.0225E-03
            2154            2697     45.2719E-03     46.0225E-03
            2163            2697     45.2719E-03     46.0225E-03
            2156            2698     34.1317E-03     34.3954E-03
            2165            2698     34.1317E-03     34.3954E-03
            2155            2698     34.1317E-03     34.3954E-03
            2164            2698     34.1317E-03     34.3954E-03
            2157            2699     23.4080E-03     22.4680E-03
            2156            2699     23.4080E-03     22.4680E-03
            2166            2699     23.4080E-03     22.4680E-03
            2165            2699     23.4080E-03     22.4680E-03
            2157            2700     15.7455E-03     13.8354E-03
            2158            2700     15.7455E-03     13.8354E-03
            2167            2700     15.7455E-03     13.8354E-03
            2166            2700     15.7455E-03     13.8354E-03
            2159            2701     15.7455E-03     13.8354E-03
            2167            2701     15.7455E-03     13.8354E-03
            2158            2701     15.7455E-03     13.8354E-03
            2168            2701     15.7455E-03     13.8354E-03
            2168            2702     23.4080E-03     22.4680E-03
            2160            2702     23.4080E-03     22.4680E-03
            2159            2702     23.4080E-03     22.4680E-03
            2169            2702     23.4080E-03     22.4680E-03
            2161            2703     34.1317E-03     34.3954E-03
            2160            2703     34.1317E-03     34.3954E-03
            2170            2703     34.1317E-03     34.3954E-03
            2169            2703     34.1317E-03     34.3954E-03
            2171            2704     45.2719E-03     46.0225E-03
            2170            2704     45.2719E-03     46.0225E-03
            2161            2704     45.2719E-03     46.0225E-03
            2162            2704     45.2719E-03     46.0225E-03
            2163            2705     47.1177E-03     47.3792E-03
            2172            2705     47.1177E-03     47.3792E-03
            2164            2705     47.1177E-03     47.3792E-03
            2173            2705     47.1177E-03     47.3792E-03
            2165            2706     35.2372E-03     35.9898E-03
            2173            2706     35.2372E-03     35.9898E-03
            2164            2706     35.2372E-03     35.9898E-03
            2174            2706     35.2372E-03     35.9898E-03
            2166            2707     23.9609E-03     23.8724E-03
            2165            2707     23.9609E-03     23.8724E-03
            2174            2707     23.9609E-03     23.8724E-03
            2175            2707     23.9609E-03     23.8724E-03
            2175            2708     15.6987E-03     14.3354E-03
            2167            2708     15.6987E-03     14.3354E-03
            2176            2708     15.6987E-03     14.3354E-03
            2166            2708     15.6987E-03     14.3354E-03
            2177            2709     15.6987E-03     14.3354E-03
            2167            2709     15.6987E-03     14.3354E-03
            2176            2709     15.6987E-03     14.3354E-03
            2168            2709     15.6987E-03     14.3354E-03
            2168            2710     23.9609E-03     23.8724E-03
            2177            2710     23.9609E-03     23.8724E-03
            2178            2710     23.9609E-03     23.8724E-03
            2169            2710     23.9609E-03     23.8724E-03
            2179            2711     35.2372E-03     35.9898E-03
            2178            2711     35.2372E-03     35.9898E-03
            2169            2711     35.2372E-03     35.9898E-03
            2170            2711     35.2372E-03     35.9898E-03
            2170            2712     47.1177E-03     47.3792E-03
            2171            2712     47.1177E-03     47.3792E-03
            2179            2712     47.1177E-03     47.3792E-03
            2180            2712     47.1177E-03     47.3792E-03
            2181            2713     48.9356E-03     48.8464E-03
            2172            2713     48.9356E-03     48.8464E-03
            2173            2713     48.9356E-03     48.8464E-03
            2182            2713     48.9356E-03     48.8464E-03
            2173            2714     36.2747E-03     36.6966E-03
            2183            2714     36.2747E-03     36.6966E-03
            2182            2714     36.2747E-03     36.6966E-03
            2174            2714     36.2747E-03     36.6966E-03
            2175            2715     24.5249E-03     24.7519E-03
            2184            2715     24.5249E-03     24.7519E-03
            2183            2715     24.5249E-03     24.7519E-03
            2174            2715     24.5249E-03     24.7519E-03
            2185            2716     15.9534E-03     15.3373E-03
            2184            2716     15.9534E-03     15.3373E-03
            2176            2716     15.9534E-03     15.3373E-03
            2175            2716     15.9534E-03     15.3373E-03
            2186            2717     15.9534E-03     15.3373E-03
            2176            2717     15.9534E-03     15.3373E-03
            2177            2717     15.9534E-03     15.3373E-03
            2185            2717     15.9534E-03     15.3373E-03
            2187            2718     24.5249E-03     24.7519E-03
            2186            2718     24.5249E-03     24.7519E-03
            2177            2718     24.5249E-03     24.7519E-03
            2178            2718     24.5249E-03     24.7519E-03
            2179            2719     36.2747E-03     36.6966E-03
            2187            2719     36.2747E-03     36.6966E-03
            2178            2719     36.2747E-03     36.6966E-03
            2188            2719     36.2747E-03     36.6966E-03
            2188            2720     48.9356E-03     48.8464E-03
            2189            2720     48.9356E-03     48.8464E-03
            2180            2720     48.9356E-03     48.8464E-03
            2179            2720     48.9356E-03     48.8464E-03
            2190            2721     50.6683E-03     50.4032E-03
            2181            2721     50.6683E-03     50.4032E-03
            2182            2721     50.6683E-03     50.4032E-03
            2191            2721     50.6683E-03     50.4032E-03
            2182            2722     37.4432E-03     37.7860E-03
            2192            2722     37.4432E-03     37.7860E-03
            2183            2722     37.4432E-03     37.7860E-03
            2191            2722     37.4432E-03     37.7860E-03
            2183            2723     25.1257E-03     25.5484E-03
            2193            2723     25.1257E-03     25.5484E-03
            2192            2723     25.1257E-03     25.5484E-03
            2184            2723     25.1257E-03     25.5484E-03
            2193            2724     16.2949E-03     16.4634E-03
            2194            2724     16.2949E-03     16.4634E-03
            2184            2724     16.2949E-03     16.4634E-03
            2185            2724     16.2949E-03     16.4634E-03
            2186            2725     16.2949E-03     16.4634E-03
            2195            2725     16.2949E-03     16.4634E-03
            2185            2725     16.2949E-03     16.4634E-03
            2194            2725     16.2949E-03     16.4634E-03
            2196            2726     25.1257E-03     25.5484E-03
            2186            2726     25.1257E-03     25.5484E-03
            2187            2726     25.1257E-03     25.5484E-03
            2195            2726     25.1257E-03     25.5484E-03
            2188            2727     37.4432E-03     37.7860E-03
            2197            2727     37.4432E-03     37.7860E-03
            2196            2727     37.4432E-03     37.7860E-03
            2187            2727     37.4432E-03     37.7860E-03
            2188            2728     50.6683E-03     50.4032E-03
            2189            2728     50.6683E-03     50.4032E-03
            2198            2728     50.6683E-03     50.4032E-03
            2197            2728     50.6683E-03     50.4032E-03
            2191            2729     52.3166E-03     52.0530E-03
            2199            2729     52.3166E-03     52.0530E-03
            2190            2729     52.3166E-03     52.0530E-03
            2200            2729     52.3166E-03     52.0530E-03
            2201            2730     38.5609E-03     38.9925E-03
            2200            2730     38.5609E-03     38.9925E-03
            2191            2730     38.5609E-03     38.9925E-03
            2192            2730     38.5609E-03     38.9925E-03
            2202            2731     25.7785E-03     26.6389E-03
            2192            2731     25.7785E-03     26.6389E-03
            2193            2731     25.7785E-03     26.6389E-03
            2201            2731     25.7785E-03     26.6389E-03
            2194            2732     16.5737E-03     17.6222E-03
            2202            2732     16.5737E-03     17.6222E-03
            2203            2732     16.5737E-03     17.6222E-03
            2193            2732     16.5737E-03     17.6222E-03
            2195            2733     16.5737E-03     17.6222E-03
            2204            2733     16.5737E-03     17.6222E-03
            2203            2733     16.5737E-03     17.6222E-03
            2194            2733     16.5737E-03     17.6222E-03
            2205            2734     25.7785E-03     26.6389E-03
            2196            2734     25.7785E-03     26.6389E-03
            2195            2734     25.7785E-03     26.6389E-03
            2204            2734     25.7785E-03     26.6389E-03
            2205            2735     38.5609E-03     38.9925E-03
            2206            2735     38.5609E-03     38.9925E-03
            2196            2735     38.5609E-03     38.9925E-03
            2197            2735     38.5609E-03     38.9925E-03
            2198            2736     52.3166E-03     52.0530E-03
            2207            2736     52.3166E-03     52.0530E-03
            2197            2736     52.3166E-03     52.0530E-03
            2206            2736     52.3166E-03     52.0530E-03
            2208            2737     53.8435E-03     53.7752E-03
            2209            2737     53.8435E-03     53.7752E-03
            2200            2737     53.8435E-03     53.7752E-03
            2199            2737     53.8435E-03     53.7752E-03
            2210            2738     39.7538E-03     40.6498E-03
            2200            2738     39.7538E-03     40.6498E-03
            2209            2738     39.7538E-03     40.6498E-03
            2201            2738     39.7538E-03     40.6498E-03
            2210            2739     26.3056E-03     27.7347E-03
            2211            2739     26.3056E-03     27.7347E-03
            2202            2739     26.3056E-03     27.7347E-03
            2201            2739     26.3056E-03     27.7347E-03
            2211            2740     16.2950E-03     18.0550E-03
            2212            2740     16.2950E-03     18.0550E-03
            2203            2740     16.2950E-03     18.0550E-03
            2202            2740     16.2950E-03     18.0550E-03
            2212            2741     16.2950E-03     18.0550E-03
            2203            2741     16.2950E-03     18.0550E-03
            2213            2741     16.2950E-03     18.0550E-03
            2204            2741     16.2950E-03     18.0550E-03
            2214            2742     26.3056E-03     27.7347E-03
            2205            2742     26.3056E-03     27.7347E-03
            2204            2742     26.3056E-03     27.7347E-03
            2213            2742     26.3056E-03     27.7347E-03
            2205            2743     39.7538E-03     40.6498E-03
            2206            2743     39.7538E-03     40.6498E-03
            2214            2743     39.7538E-03     40.6498E-03
            2215            2743     39.7538E-03     40.6498E-03
            2215            2744     53.8435E-03     53.7752E-03
            2207            2744     53.8435E-03     53.7752E-03
            2206            2744     53.8435E-03     53.7752E-03
            2216            2744     53.8435E-03     53.7752E-03
            2218            2745     55.9372E-03     56.4048E-03
            2209            2745     55.9372E-03     56.4048E-03
            2217            2745     55.9372E-03     56.4048E-03
            2208            2745     55.9372E-03     56.4048E-03
            2209            2746     40.5898E-03     41.5973E-03
            2218            2746     40.5898E-03     41.5973E-03
            2219            2746     40.5898E-03     41.5973E-03
            2210            2746     40.5898E-03     41.5973E-03
            2219            2747     25.7056E-03     26.9291E-03
            2210            2747     25.7056E-03     26.9291E-03
            2211            2747     25.7056E-03     26.9291E-03
            2220            2747     25.7056E-03     26.9291E-03
            2211            2748     15.1890E-03     17.0944E-03
            2220            2748     15.1890E-03     17.0944E-03
            2221            2748     15.1890E-03     17.0944E-03
            2212            2748     15.1890E-03     17.0944E-03
            2221            2749     15.1890E-03     17.0944E-03
            2222            2749     15.1890E-03     17.0944E-03
            2213            2749     15.1890E-03     17.0944E-03
            2212            2749     15.1890E-03     17.0944E-03
            2223            2750     25.7056E-03     26.9291E-03
            2222            2750     25.7056E-03     26.9291E-03
            2213            2750     25.7056E-03     26.9291E-03
            2214            2750     25.7056E-03     26.9291E-03
            2224            2751     40.5898E-03     41.5973E-03
            2215            2751     40.5898E-03     41.5973E-03
            2214            2751     40.5898E-03     41.5973E-03
            2223            2751     40.5898E-03     41.5973E-03
            2216            2752     55.9372E-03     56.4048E-03
            2224            2752     55.9372E-03     56.4048E-03
            2225            2752     55.9372E-03     56.4048E-03
            2215            2752     55.9372E-03     56.4048E-03
            2218            2753     57.4021E-03     55.4327E-03
            2226            2753     57.4021E-03     55.4327E-03
            2227            2753     57.4021E-03     55.4327E-03
            2217            2753     57.4021E-03     55.4327E-03
            2219            2754     39.3194E-03     37.9731E-03
            2218            2754     39.3194E-03     37.9731E-03
            2228            2754     39.3194E-03     37.9731E-03
            2227            2754     39.3194E-03     37.9731E-03
            2228            2755     23.8978E-03     23.4005E-03
            2220            2755     23.8978E-03     23.4005E-03
            2229            2755     23.8978E-03     23.4005E-03
            2219            2755     23.8978E-03     23.4005E-03
            2221            2756     12.5028E-03     13.4486E-03
            2230            2756     12.5028E-03     13.4486E-03
            2229            2756     12.5028E-03     13.4486E-03
            2220            2756     12.5028E-03     13.4486E-03
            2230            2757     12.5028E-03     13.4486E-03
            2222            2757     12.5028E-03     13.4486E-03
            2221            2757     12.5028E-03     13.4486E-03
            2231            2757     12.5028E-03     13.4486E-03
            2231            2758     23.8978E-03     23.4005E-03
            2232            2758     23.8978E-03     23.4005E-03
            2222            2758     23.8978E-03     23.4005E-03
            2223            2758     23.8978E-03     23.4005E-03
            2223            2759     39.3194E-03     37.9731E-03
            2232            2759     39.3194E-03     37.9731E-03
            2224            2759     39.3194E-03     37.9731E-03
            2233            2759     39.3194E-03     37.9731E-03
            2224            2760     57.4021E-03     55.4327E-03
            2225            2760     57.4021E-03     55.4327E-03
            2234            2760     57.4021E-03     55.4327E-03
            2233            2760     57.4021E-03     55.4327E-03
            2245            2761     4.78054E-15     4.03745E-15
            2244            2761     4.78054E-15     4.03745E-15
            2236            2761     4.78054E-15     4.03745E-15
            2235            2761     4.78054E-15     4.03745E-15
            2237            2762     2.39979E-15     1.51946E-15
            2245            2762     2.39979E-15     1.51946E-15
            2236            2762     2.39979E-15     1.51946E-15
            2246            2762     2.39979E-15     1.51946E-15
            2238            2763     2.18438E-15     1.46609E-15
            2246            2763     2.18438E-15     1.46609E-15
            2247            2763     2.18438E-15     1.46609E-15
            2237            2763     2.18438E-15     1.46609E-15
            2248            2764     1.58811E-15     1.58085E-15
            2238            2764     1.58811E-15     1.58085E-15
            2239            2764     1.58811E-15     1.58085E-15
            2247            2764     1.58811E-15     1.58085E-15
            2249            2765     1.61289E-15     1.87940E-15
            2248            2765     1.61289E-15     1.87940E-15
            2239            2765     1.61289E-15     1.87940E-15
            2240            2765     1.61289E-15     1.87940E-15
            2249            2766     2.28775E-15     1.82825E-15
            2241            2766     2.28775E-15     1.82825E-15
            2240            2766     2.28775E-15     1.82825E-15
            2250            2766     2.28775E-15     1.82825E-15
            2242            2767     2.11182E-15     1.77400E-15
            2250            2767     2.11182E-15     1.77400E-15
            2251            2767     2.11182E-15     1.77400E-15
            2241            2767     2.11182E-15     1.77400E-15
            2243            2768     2.15414E-15     2.92015E-15
            2242            2768     2.15414E-15     2.92015E-15
            2252            2768     2.15414E-15     2.92015E-15
            2251            2768     2.15414E-15     2.92015E-15
            2254            2769     3.28780E-15     4.49895E-15
            2253            2769     3.28780E-15     4.49895E-15
            2245            2769     3.28780E-15     4.49895E-15
            2244            2769     3.28780E-15     4.49895E-15
            2246            2770     2.19914E-15     2.22026E-15
            2254            2770     2.19914E-15     2.22026E-15
            2245            2770     2.19914E-15     2.22026E-15
            2255            2770     2.19914E-15     2.22026E-15
            2255            2771     1.77211E-15     1.27047E-15
            2247            2771     1.77211E-15     1.27047E-15
            2256            2771     1.77211E-15     1.27047E-15
            2246            2771     1.77211E-15     1.27047E-15
            2247            2772     1.49202E-15     1.28159E-15
            2248            2772     1.49202E-15     1.28159E-15
            2257            2772     1.49202E-15     1.28159E-15
            2256            2772     1.49202E-15     1.28159E-15
            2257            2773     1.48040E-15     1.48677E-15
            2258            2773     1.48040E-15     1.48677E-15
            2249            2773     1.48040E-15     1.48677E-15
            2248            2773     1.48040E-15     1.48677E-15
            2258            2774     2.08814E-15     2.08523E-15
            2259            2774     2.08814E-15     2.08523E-15
            2250            2774     2.08814E-15     2.08523E-15
            2249            2774     2.08814E-15     2.08523E-15
            2251            2775     2.72969E-15     2.36661E-15
            2260            2775     2.72969E-15     2.36661E-15
            2259            2775     2.72969E-15     2.36661E-15
            2250            2775     2.72969E-15     2.36661E-15
            2251            2776     2.97756E-15     2.75310E-15
            2252            2776     2.97756E-15     2.75310E-15
            2260            2776     2.97756E-15     2.75310E-15
            2261            2776     2.97756E-15     2.75310E-15
            2254            2777     2.53381E-15     4.96155E-15
            2253            2777     2.53381E-15     4.96155E-15
            2263            2777     2.53381E-15     4.96155E-15
            2262            2777     2.53381E-15     4.96155E-15
            2264            2778     1.81104E-15     2.81129E-15
            2263            2778     1.81104E-15     2.81129E-15
            2254            2778     1.81104E-15     2.81129E-15
            2255            2778     1.81104E-15     2.81129E-15
            2256            2779     1.01681E-15     1.14707E-15
            2255            2779     1.01681E-15     1.14707E-15
            2265            2779     1.01681E-15     1.14707E-15
            2264            2779     1.01681E-15     1.14707E-15
            2265            2780     1.39594E-15     1.02310E-15
            2266            2780     1.39594E-15     1.02310E-15
            2256            2780     1.39594E-15     1.02310E-15
            2257            2780     1.39594E-15     1.02310E-15
            2267            2781     1.74498E-15     1.30339E-15
            2258            2781     1.74498E-15     1.30339E-15
            2257            2781     1.74498E-15     1.30339E-15
            2266            2781     1.74498E-15     1.30339E-15
            2267            2782     1.54545E-15     2.14141E-15
            2259            2782     1.54545E-15     2.14141E-15
            2268            2782     1.54545E-15     2.14141E-15
            2258            2782     1.54545E-15     2.14141E-15
            2268            2783     2.84280E-15     2.96567E-15
            2269            2783     2.84280E-15     2.96567E-15
            2260            2783     2.84280E-15     2.96567E-15
            2259            2783     2.84280E-15     2.96567E-15
            2261            2784     3.57809E-15     3.86852E-15
            2269            2784     3.57809E-15     3.86852E-15
            2260            2784     3.57809E-15     3.86852E-15
            2270            2784     3.57809E-15     3.86852E-15
            3851            4163     62.3129E-03     60.8088E-03
            3860            4163     62.3129E-03     60.8088E-03
            3852            4163     62.3129E-03     60.8088E-03
            3861            4163     62.3129E-03     60.8088E-03
            3852            4164     42.5465E-03     41.9115E-03
            3853            4164     42.5465E-03     41.9115E-03
            3862            4164     42.5465E-03     41.9115E-03
            3861            4164     42.5465E-03     41.9115E-03
            3862            4165     26.1619E-03     26.0345E-03
            3853            4165     26.1619E-03     26.0345E-03
            3854            4165     26.1619E-03     26.0345E-03
            3863            4165     26.1619E-03     26.0345E-03
            3854            4166     14.3686E-03     14.9165E-03
            3855            4166     14.3686E-03     14.9165E-03
            3864            4166     14.3686E-03     14.9165E-03
            3863            4166     14.3686E-03     14.9165E-03
            3864            4167     14.3686E-03     14.9165E-03
            3855            4167     14.3686E-03     14.9165E-03
            3856            4167     14.3686E-03     14.9165E-03
            3865            4167     14.3686E-03     14.9165E-03
            3856            4168     26.1619E-03     26.0345E-03
            3866            4168     26.1619E-03     26.0345E-03
            3857            4168     26.1619E-03     26.0345E-03
            3865            4168     26.1619E-03     26.0345E-03
            3867            4169     42.5465E-03     41.9115E-03
            3857            4169     42.5465E-03     41.9115E-03
            3866            4169     42.5465E-03     41.9115E-03
            3858            4169     42.5465E-03     41.9115E-03
            3858            4170     62.3129E-03     60.8088E-03
            3868            4170     62.3129E-03     60.8088E-03
            3867            4170     62.3129E-03     60.8088E-03
            3859            4170     62.3129E-03     60.8088E-03
            3860            4171     60.5663E-03     61.8883E-03
            3870            4171     60.5663E-03     61.8883E-03
            3869            4171     60.5663E-03     61.8883E-03
            3861            4171     60.5663E-03     61.8883E-03
            3871            4172     44.2589E-03     46.2609E-03
            3861            4172     44.2589E-03     46.2609E-03
            3870            4172     44.2589E-03     46.2609E-03
            3862            4172     44.2589E-03     46.2609E-03
            3871            4173     28.5149E-03     29.9909E-03
            3863            4173     28.5149E-03     29.9909E-03
            3862            4173     28.5149E-03     29.9909E-03
            3872            4173     28.5149E-03     29.9909E-03
            3872            4174     17.4533E-03     18.3922E-03
            3863            4174     17.4533E-03     18.3922E-03
            3873            4174     17.4533E-03     18.3922E-03
            3864            4174     17.4533E-03     18.3922E-03
            3873            4175     17.4533E-03     18.3922E-03
            3864            4175     17.4533E-03     18.3922E-03
            3865            4175     17.4533E-03     18.3922E-03
            3874            4175     17.4533E-03     18.3922E-03
            3865            4176     28.5149E-03     29.9909E-03
            3866            4176     28.5149E-03     29.9909E-03
            3875            4176     28.5149E-03     29.9909E-03
            3874            4176     28.5149E-03     29.9909E-03
            3866            4177     44.2589E-03     46.2609E-03
            3876            4177     44.2589E-03     46.2609E-03
            3867            4177     44.2589E-03     46.2609E-03
            3875            4177     44.2589E-03     46.2609E-03
            3868            4178     60.5663E-03     61.8883E-03
            3867            4178     60.5663E-03     61.8883E-03
            3876            4178     60.5663E-03     61.8883E-03
            3877            4178     60.5663E-03     61.8883E-03
            3870            4179     57.8127E-03     59.0930E-03
            3879            4179     57.8127E-03     59.0930E-03
            3869            4179     57.8127E-03     59.0930E-03
            3878            4179     57.8127E-03     59.0930E-03
            3879            4180     43.6723E-03     46.0003E-03
            3870            4180     43.6723E-03     46.0003E-03
            3871            4180     43.6723E-03     46.0003E-03
            3880            4180     43.6723E-03     46.0003E-03
            3880            4181     29.6024E-03     31.1248E-03
            3871            4181     29.6024E-03     31.1248E-03
            3872            4181     29.6024E-03     31.1248E-03
            3881            4181     29.6024E-03     31.1248E-03
            3882            4182     18.9051E-03     19.2730E-03
            3872            4182     18.9051E-03     19.2730E-03
            3881            4182     18.9051E-03     19.2730E-03
            3873            4182     18.9051E-03     19.2730E-03
            3883            4183     18.9051E-03     19.2730E-03
            3882            4183     18.9051E-03     19.2730E-03
            3873            4183     18.9051E-03     19.2730E-03
            3874            4183     18.9051E-03     19.2730E-03
            3875            4184     29.6024E-03     31.1248E-03
            3883            4184     29.6024E-03     31.1248E-03
            3874            4184     29.6024E-03     31.1248E-03
            3884            4184     29.6024E-03     31.1248E-03
            3875            4185     43.6723E-03     46.0003E-03
            3876            4185     43.6723E-03     46.0003E-03
            3884            4185     43.6723E-03     46.0003E-03
            3885            4185     43.6723E-03     46.0003E-03
            3877            4186     57.8127E-03     59.0930E-03
            3876            4186     57.8127E-03     59.0930E-03
            3885            4186     57.8127E-03     59.0930E-03
            3886            4186     57.8127E-03     59.0930E-03
            3888            4187     55.6942E-03     57.0765E-03
            3878            4187     55.6942E-03     57.0765E-03
            3887            4187     55.6942E-03     57.0765E-03
            3879            4187     55.6942E-03     57.0765E-03
            3888            4188     42.2624E-03     43.4288E-03
            3880            4188     42.2624E-03     43.4288E-03
            3879            4188     42.2624E-03     43.4288E-03
            3889            4188     42.2624E-03     43.4288E-03
            3890            4189     29.2364E-03     29.3723E-03
            3880            4189     29.2364E-03     29.3723E-03
            3881            4189     29.2364E-03     29.3723E-03
            3889            4189     29.2364E-03     29.3723E-03
            3890            4190     19.9084E-03     19.3977E-03
            3881            4190     19.9084E-03     19.3977E-03
            3891            4190     19.9084E-03     19.3977E-03
            3882            4190     19.9084E-03     19.3977E-03
            3891            4191     19.9084E-03     19.3977E-03
            3892            4191     19.9084E-03     19.3977E-03
            3883            4191     19.9084E-03     19.3977E-03
            3882            4191     19.9084E-03     19.3977E-03
            3892            4192     29.2364E-03     29.3723E-03
            3893            4192     29.2364E-03     29.3723E-03
            3883            4192     29.2364E-03     29.3723E-03
            3884            4192     29.2364E-03     29.3723E-03
            3893            4193     42.2624E-03     43.4288E-03
            3885            4193     42.2624E-03     43.4288E-03
            3884            4193     42.2624E-03     43.4288E-03
            3894            4193     42.2624E-03     43.4288E-03
            3895            4194     55.6942E-03     57.0765E-03
            3885            4194     55.6942E-03     57.0765E-03
            3886            4194     55.6942E-03     57.0765E-03
            3894            4194     55.6942E-03     57.0765E-03
            3888            4195     52.2335E-03     50.4594E-03
            3887            4195     52.2335E-03     50.4594E-03
            3896            4195     52.2335E-03     50.4594E-03
            3897            4195     52.2335E-03     50.4594E-03
            3897            4196     39.9613E-03     38.2384E-03
            3889            4196     39.9613E-03     38.2384E-03
            3898            4196     39.9613E-03     38.2384E-03
            3888            4196     39.9613E-03     38.2384E-03
            3889            4197     28.8815E-03     27.5611E-03
            3899            4197     28.8815E-03     27.5611E-03
            3890            4197     28.8815E-03     27.5611E-03
            3898            4197     28.8815E-03     27.5611E-03
            3900            4198     21.6335E-03     20.7068E-03
            3899            4198     21.6335E-03     20.7068E-03
            3891            4198     21.6335E-03     20.7068E-03
            3890            4198     21.6335E-03     20.7068E-03
            3891            4199     21.6335E-03     20.7068E-03
            3892            4199     21.6335E-03     20.7068E-03
            3901            4199     21.6335E-03     20.7068E-03
            3900            4199     21.6335E-03     20.7068E-03
            3893            4200     28.8815E-03     27.5611E-03
            3892            4200     28.8815E-03     27.5611E-03
            3901            4200     28.8815E-03     27.5611E-03
            3902            4200     28.8815E-03     27.5611E-03
            3902            4201     39.9613E-03     38.2384E-03
            3894            4201     39.9613E-03     38.2384E-03
            3893            4201     39.9613E-03     38.2384E-03
            3903            4201     39.9613E-03     38.2384E-03
            3895            4202     52.2335E-03     50.4594E-03
            3894            4202     52.2335E-03     50.4594E-03
            3904            4202     52.2335E-03     50.4594E-03
            3903            4202     52.2335E-03     50.4594E-03
            3905            4203     51.4789E-03     49.3184E-03
            3906            4203     51.4789E-03     49.3184E-03
            3915            4203     51.4789E-03     49.3184E-03
            3914            4203     51.4789E-03     49.3184E-03
            3915            4204     37.7634E-03     36.3271E-03
            3916            4204     37.7634E-03     36.3271E-03
            3907            4204     37.7634E-03     36.3271E-03
            3906            4204     37.7634E-03     36.3271E-03
            3907            4205     25.2013E-03     24.5470E-03
            3917            4205     25.2013E-03     24.5470E-03
            3916            4205     25.2013E-03     24.5470E-03
            3908            4205     25.2013E-03     24.5470E-03
            3909            4206     15.8884E-03     15.6505E-03
            3917            4206     15.8884E-03     15.6505E-03
            3918            4206     15.8884E-03     15.6505E-03
            3908            4206     15.8884E-03     15.6505E-03
            3918            4207     15.8884E-03     15.6505E-03
            3910            4207     15.8884E-03     15.6505E-03
            3919            4207     15.8884E-03     15.6505E-03
            3909            4207     15.8884E-03     15.6505E-03
            3919            4208     25.2013E-03     24.5470E-03
            3910            4208     25.2013E-03     24.5470E-03
            3920            4208     25.2013E-03     24.5470E-03
            3911            4208     25.2013E-03     24.5470E-03
            3921            4209     37.7634E-03     36.3271E-03
            3911            4209     37.7634E-03     36.3271E-03
            3920            4209     37.7634E-03     36.3271E-03
            3912            4209     37.7634E-03     36.3271E-03
            3913            4210     51.4789E-03     49.3184E-03
            3921            4210     51.4789E-03     49.3184E-03
            3912            4210     51.4789E-03     49.3184E-03
            3922            4210     51.4789E-03     49.3184E-03
            3915            4211     54.4892E-03     53.1969E-03
            3923            4211     54.4892E-03     53.1969E-03
            3924            4211     54.4892E-03     53.1969E-03
            3914            4211     54.4892E-03     53.1969E-03
            3916            4212     40.6544E-03     39.6032E-03
            3925            4212     40.6544E-03     39.6032E-03
            3915            4212     40.6544E-03     39.6032E-03
            3924            4212     40.6544E-03     39.6032E-03
            3916            4213     28.1400E-03     27.4816E-03
            3917            4213     28.1400E-03     27.4816E-03
            3925            4213     28.1400E-03     27.4816E-03
            3926            4213     28.1400E-03     27.4816E-03
            3926            4214     19.5351E-03     19.1940E-03
            3918            4214     19.5351E-03     19.1940E-03
            3917            4214     19.5351E-03     19.1940E-03
            3927            4214     19.5351E-03     19.1940E-03
            3919            4215     19.5351E-03     19.1940E-03
            3928            4215     19.5351E-03     19.1940E-03
            3918            4215     19.5351E-03     19.1940E-03
            3927            4215     19.5351E-03     19.1940E-03
            3929            4216     28.1400E-03     27.4816E-03
            3920            4216     28.1400E-03     27.4816E-03
            3928            4216     28.1400E-03     27.4816E-03
            3919            4216     28.1400E-03     27.4816E-03
            3930            4217     40.6544E-03     39.6032E-03
            3920            4217     40.6544E-03     39.6032E-03
            3929            4217     40.6544E-03     39.6032E-03
            3921            4217     40.6544E-03     39.6032E-03
            3930            4218     54.4892E-03     53.1969E-03
            3931            4218     54.4892E-03     53.1969E-03
            3922            4218     54.4892E-03     53.1969E-03
            3921            4218     54.4892E-03     53.1969E-03
            3923            4219     57.5691E-03     59.3245E-03
            3933            4219     57.5691E-03     59.3245E-03
            3924            4219     57.5691E-03     59.3245E-03
            3932            4219     57.5691E-03     59.3245E-03
            3925            4220     43.1388E-03     44.9325E-03
            3934            4220     43.1388E-03     44.9325E-03
            3933            4220     43.1388E-03     44.9325E-03
            3924            4220     43.1388E-03     44.9325E-03
            3926            4221     28.4232E-03     29.1150E-03
            3934            4221     28.4232E-03     29.1150E-03
            3935            4221     28.4232E-03     29.1150E-03
            3925            4221     28.4232E-03     29.1150E-03
            3926            4222     17.1436E-03     17.1310E-03
            3935            4222     17.1436E-03     17.1310E-03
            3936            4222     17.1436E-03     17.1310E-03
            3927            4222     17.1436E-03     17.1310E-03
            3927            4223     17.1436E-03     17.1310E-03
            3936            4223     17.1436E-03     17.1310E-03
            3937            4223     17.1436E-03     17.1310E-03
            3928            4223     17.1436E-03     17.1310E-03
            3929            4224     28.4232E-03     29.1150E-03
            3937            4224     28.4232E-03     29.1150E-03
            3928            4224     28.4232E-03     29.1150E-03
            3938            4224     28.4232E-03     29.1150E-03
            3938            4225     43.1388E-03     44.9325E-03
            3930            4225     43.1388E-03     44.9325E-03
            3929            4225     43.1388E-03     44.9325E-03
            3939            4225     43.1388E-03     44.9325E-03
            3931            4226     57.5691E-03     59.3245E-03
            3930            4226     57.5691E-03     59.3245E-03
            3939            4226     57.5691E-03     59.3245E-03
            3940            4226     57.5691E-03     59.3245E-03
            3932            4227     59.8289E-03     61.6445E-03
            3941            4227     59.8289E-03     61.6445E-03
            3933            4227     59.8289E-03     61.6445E-03
            3942            4227     59.8289E-03     61.6445E-03
            3933            4228     43.8221E-03     46.1351E-03
            3943            4228     43.8221E-03     46.1351E-03
            3942            4228     43.8221E-03     46.1351E-03
            3934            4228     43.8221E-03     46.1351E-03
            3935            4229     27.5847E-03     28.7381E-03
            3934            4229     27.5847E-03     28.7381E-03
            3943            4229     27.5847E-03     28.7381E-03
            3944            4229     27.5847E-03     28.7381E-03
            3945            4230     15.3154E-03     15.6798E-03
            3944            4230     15.3154E-03     15.6798E-03
            3935            4230     15.3154E-03     15.6798E-03
            3936            4230     15.3154E-03     15.6798E-03
            3946            4231     15.3154E-03     15.6798E-03
            3945            4231     15.3154E-03     15.6798E-03
            3936            4231     15.3154E-03     15.6798E-03
            3937            4231     15.3154E-03     15.6798E-03
            3947            4232     27.5847E-03     28.7381E-03
            3938            4232     27.5847E-03     28.7381E-03
            3937            4232     27.5847E-03     28.7381E-03
            3946            4232     27.5847E-03     28.7381E-03
            3938            4233     43.8221E-03     46.1351E-03
            3948            4233     43.8221E-03     46.1351E-03
            3947            4233     43.8221E-03     46.1351E-03
            3939            4233     43.8221E-03     46.1351E-03
            3939            4234     59.8289E-03     61.6445E-03
            3948            4234     59.8289E-03     61.6445E-03
            3940            4234     59.8289E-03     61.6445E-03
            3949            4234     59.8289E-03     61.6445E-03
            3950            4235     61.0888E-03     60.0931E-03
            3951            4235     61.0888E-03     60.0931E-03
            3941            4235     61.0888E-03     60.0931E-03
            3942            4235     61.0888E-03     60.0931E-03
            3951            4236     41.7871E-03     41.6031E-03
            3952            4236     41.7871E-03     41.6031E-03
            3942            4236     41.7871E-03     41.6031E-03
            3943            4236     41.7871E-03     41.6031E-03
            3944            4237     25.2281E-03     25.2690E-03
            3952            4237     25.2281E-03     25.2690E-03
            3943            4237     25.2281E-03     25.2690E-03
            3953            4237     25.2281E-03     25.2690E-03
            3954            4238     12.1408E-03     12.3550E-03
            3944            4238     12.1408E-03     12.3550E-03
            3953            4238     12.1408E-03     12.3550E-03
            3945            4238     12.1408E-03     12.3550E-03
            3945            4239     12.1408E-03     12.3550E-03
            3954            4239     12.1408E-03     12.3550E-03
            3955            4239     12.1408E-03     12.3550E-03
            3946            4239     12.1408E-03     12.3550E-03
            3946            4240     25.2281E-03     25.2690E-03
            3956            4240     25.2281E-03     25.2690E-03
            3955            4240     25.2281E-03     25.2690E-03
            3947            4240     25.2281E-03     25.2690E-03
            3957            4241     41.7871E-03     41.6031E-03
            3948            4241     41.7871E-03     41.6031E-03
            3947            4241     41.7871E-03     41.6031E-03
            3956            4241     41.7871E-03     41.6031E-03
            3949            4242     61.0888E-03     60.0931E-03
            3948            4242     61.0888E-03     60.0931E-03
            3958            4242     61.0888E-03     60.0931E-03
            3957            4242     61.0888E-03     60.0931E-03
            5325            5425     3.31773E-15     2.48010E-15
            5334            5425     3.31773E-15     2.48010E-15
            5326            5425     3.31773E-15     2.48010E-15
            5335            5425     3.31773E-15     2.48010E-15
            5326            5426     1.51483E-15     1.31681E-15
            5336            5426     1.51483E-15     1.31681E-15
            5327            5426     1.51483E-15     1.31681E-15
            5335            5426     1.51483E-15     1.31681E-15
            5328            5427     1.18332E-15     932.099E-18
            5337            5427     1.18332E-15     932.099E-18
            5336            5427     1.18332E-15     932.099E-18
            5327            5427     1.18332E-15     932.099E-18
            5337            5428     920.877E-18     1.01572E-15
            5338            5428     920.877E-18     1.01572E-15
            5328            5428     920.877E-18     1.01572E-15
            5329            5428     920.877E-18     1.01572E-15
            5339            5429     876.013E-18     1.15016E-15
            5338            5429     876.013E-18     1.15016E-15
            5329            5429     876.013E-18     1.15016E-15
            5330            5429     876.013E-18     1.15016E-15
            5331            5430     1.41197E-15     1.93176E-15
            5339            5430     1.41197E-15     1.93176E-15
            5340            5430     1.41197E-15     1.93176E-15
            5330            5430     1.41197E-15     1.93176E-15
            5340            5431     1.76291E-15     2.04214E-15
            5331            5431     1.76291E-15     2.04214E-15
            5341            5431     1.76291E-15     2.04214E-15
            5332            5431     1.76291E-15     2.04214E-15
            5333            5432     3.00711E-15     2.62140E-15
            5342            5432     3.00711E-15     2.62140E-15
            5332            5432     3.00711E-15     2.62140E-15
            5341            5432     3.00711E-15     2.62140E-15
            5334            5433     2.02276E-15     3.22463E-15
            5335            5433     2.02276E-15     3.22463E-15
            5343            5433     2.02276E-15     3.22463E-15
            5344            5433     2.02276E-15     3.22463E-15
            5335            5434     1.27178E-15     1.61447E-15
            5336            5434     1.27178E-15     1.61447E-15
            5345            5434     1.27178E-15     1.61447E-15
            5344            5434     1.27178E-15     1.61447E-15
            5345            5435     859.737E-18     704.426E-18
            5346            5435     859.737E-18     704.426E-18
            5337            5435     859.737E-18     704.426E-18
            5336            5435     859.737E-18     704.426E-18
            5338            5436     1.10109E-15     1.16894E-15
            5337            5436     1.10109E-15     1.16894E-15
            5346            5436     1.10109E-15     1.16894E-15
            5347            5436     1.10109E-15     1.16894E-15
            5339            5437     1.42591E-15     1.73917E-15
            5338            5437     1.42591E-15     1.73917E-15
            5347            5437     1.42591E-15     1.73917E-15
            5348            5437     1.42591E-15     1.73917E-15
            5349            5438     1.57411E-15     1.87769E-15
            5340            5438     1.57411E-15     1.87769E-15
            5339            5438     1.57411E-15     1.87769E-15
            5348            5438     1.57411E-15     1.87769E-15
            5341            5439     1.66710E-15     1.88762E-15
            5349            5439     1.66710E-15     1.88762E-15
            5340            5439     1.66710E-15     1.88762E-15
            5350            5439     1.66710E-15     1.88762E-15
            5351            5440     3.62420E-15     3.52723E-15
            5341            5440     3.62420E-15     3.52723E-15
            5342            5440     3.62420E-15     3.52723E-15
            5350            5440     3.62420E-15     3.52723E-15
            5352            5441     1.80192E-15     2.37572E-15
            5353            5441     1.80192E-15     2.37572E-15
            5343            5441     1.80192E-15     2.37572E-15
            5344            5441     1.80192E-15     2.37572E-15
            5353            5442     956.779E-18     1.20537E-15
            5345            5442     956.779E-18     1.20537E-15
            5354            5442     956.779E-18     1.20537E-15
            5344            5442     956.779E-18     1.20537E-15
            5355            5443     857.001E-18     557.599E-18
            5346            5443     857.001E-18     557.599E-18
            5354            5443     857.001E-18     557.599E-18
            5345            5443     857.001E-18     557.599E-18
            5356            5444     1.11096E-15     1.16216E-15
            5347            5444     1.11096E-15     1.16216E-15
            5346            5444     1.11096E-15     1.16216E-15
            5355            5444     1.11096E-15     1.16216E-15
            5347            5445     1.67642E-15     1.87580E-15
            5356            5445     1.67642E-15     1.87580E-15
            5348            5445     1.67642E-15     1.87580E-15
            5357            5445     1.67642E-15     1.87580E-15
            5348            5446     1.83444E-15     1.74429E-15
            5349            5446     1.83444E-15     1.74429E-15
            5357            5446     1.83444E-15     1.74429E-15
            5358            5446     1.83444E-15     1.74429E-15
            5358            5447     1.57539E-15     1.59886E-15
            5350            5447     1.57539E-15     1.59886E-15
            5349            5447     1.57539E-15     1.59886E-15
            5359            5447     1.57539E-15     1.59886E-15
            5351            5448     3.14252E-15     3.94588E-15
            5359            5448     3.14252E-15     3.94588E-15
            5350            5448     3.14252E-15     3.94588E-15
            5360            5448     3.14252E-15     3.94588E-15
            5352            5449     2.55686E-15     1.62674E-15
            5361            5449     2.55686E-15     1.62674E-15
            5353            5449     2.55686E-15     1.62674E-15
            5362            5449     2.55686E-15     1.62674E-15
            5353            5450     1.49684E-15     934.947E-18
            5363            5450     1.49684E-15     934.947E-18
            5362            5450     1.49684E-15     934.947E-18
            5354            5450     1.49684E-15     934.947E-18
            5355            5451     1.19856E-15     804.565E-18
            5363            5451     1.19856E-15     804.565E-18
            5364            5451     1.19856E-15     804.565E-18
            5354            5451     1.19856E-15     804.565E-18
            5365            5452     1.24240E-15     1.30213E-15
            5355            5452     1.24240E-15     1.30213E-15
            5356            5452     1.24240E-15     1.30213E-15
            5364            5452     1.24240E-15     1.30213E-15
            5365            5453     1.77386E-15     1.64034E-15
            5366            5453     1.77386E-15     1.64034E-15
            5357            5453     1.77386E-15     1.64034E-15
            5356            5453     1.77386E-15     1.64034E-15
            5358            5454     1.89814E-15     1.63357E-15
            5366            5454     1.89814E-15     1.63357E-15
            5357            5454     1.89814E-15     1.63357E-15
            5367            5454     1.89814E-15     1.63357E-15
            5368            5455     1.51211E-15     1.70486E-15
            5359            5455     1.51211E-15     1.70486E-15
            5358            5455     1.51211E-15     1.70486E-15
            5367            5455     1.51211E-15     1.70486E-15
            5368            5456     2.72137E-15     2.68043E-15
            5360            5456     2.72137E-15     2.68043E-15
            5359            5456     2.72137E-15     2.68043E-15
            5369            5456     2.72137E-15     2.68043E-15
            5361            5457     2.38548E-15     2.46521E-15
            5370            5457     2.38548E-15     2.46521E-15
            5362            5457     2.38548E-15     2.46521E-15
            5371            5457     2.38548E-15     2.46521E-15
            5362            5458     1.74656E-15     1.70598E-15
            5372            5458     1.74656E-15     1.70598E-15
            5363            5458     1.74656E-15     1.70598E-15
            5371            5458     1.74656E-15     1.70598E-15
            5373            5459     960.241E-18     1.06159E-15
            5363            5459     960.241E-18     1.06159E-15
            5372            5459     960.241E-18     1.06159E-15
            5364            5459     960.241E-18     1.06159E-15
            5373            5460     1.50473E-15     1.42509E-15
            5365            5460     1.50473E-15     1.42509E-15
            5364            5460     1.50473E-15     1.42509E-15
            5374            5460     1.50473E-15     1.42509E-15
            5366            5461     2.22571E-15     2.18848E-15
            5375            5461     2.22571E-15     2.18848E-15
            5374            5461     2.22571E-15     2.18848E-15
            5365            5461     2.22571E-15     2.18848E-15
            5367            5462     2.55060E-15     2.50133E-15
            5375            5462     2.55060E-15     2.50133E-15
            5366            5462     2.55060E-15     2.50133E-15
            5376            5462     2.55060E-15     2.50133E-15
            5377            5463     1.85217E-15     2.07238E-15
            5368            5463     1.85217E-15     2.07238E-15
            5376            5463     1.85217E-15     2.07238E-15
            5367            5463     1.85217E-15     2.07238E-15
            5378            5464     2.68135E-15     1.76500E-15
            5377            5464     2.68135E-15     1.76500E-15
            5369            5464     2.68135E-15     1.76500E-15
            5368            5464     2.68135E-15     1.76500E-15
            5388            5465     52.3499E-03     50.1692E-03
            5389            5465     52.3499E-03     50.1692E-03
            5379            5465     52.3499E-03     50.1692E-03
            5380            5465     52.3499E-03     50.1692E-03
            5389            5466     36.0756E-03     34.5788E-03
            5380            5466     36.0756E-03     34.5788E-03
            5390            5466     36.0756E-03     34.5788E-03
            5381            5466     36.0756E-03     34.5788E-03
            5381            5467     22.5065E-03     21.8170E-03
            5390            5467     22.5065E-03     21.8170E-03
            5382            5467     22.5065E-03     21.8170E-03
            5391            5467     22.5065E-03     21.8170E-03
            5392            5468     12.0870E-03     12.1764E-03
            5383            5468     12.0870E-03     12.1764E-03
            5382            5468     12.0870E-03     12.1764E-03
            5391            5468     12.0870E-03     12.1764E-03
            5383            5469     12.0870E-03     12.1764E-03
            5392            5469     12.0870E-03     12.1764E-03
            5393            5469     12.0870E-03     12.1764E-03
            5384            5469     12.0870E-03     12.1764E-03
            5385            5470     22.5065E-03     21.8170E-03
            5393            5470     22.5065E-03     21.8170E-03
            5394            5470     22.5065E-03     21.8170E-03
            5384            5470     22.5065E-03     21.8170E-03
            5386            5471     36.0756E-03     34.5788E-03
            5394            5471     36.0756E-03     34.5788E-03
            5385            5471     36.0756E-03     34.5788E-03
            5395            5471     36.0756E-03     34.5788E-03
            5395            5472     52.3499E-03     50.1692E-03
            5396            5472     52.3499E-03     50.1692E-03
            5386            5472     52.3499E-03     50.1692E-03
            5387            5472     52.3499E-03     50.1692E-03
            5397            5473     55.8322E-03     54.0140E-03
            5398            5473     55.8322E-03     54.0140E-03
            5388            5473     55.8322E-03     54.0140E-03
            5389            5473     55.8322E-03     54.0140E-03
            5399            5474     38.4702E-03     37.3544E-03
            5390            5474     38.4702E-03     37.3544E-03
            5398            5474     38.4702E-03     37.3544E-03
            5389            5474     38.4702E-03     37.3544E-03
            5391            5475     24.2166E-03     23.9605E-03
            5390            5475     24.2166E-03     23.9605E-03
            5400            5475     24.2166E-03     23.9605E-03
            5399            5475     24.2166E-03     23.9605E-03
            5400            5476     14.5413E-03     15.5235E-03
            5391            5476     14.5413E-03     15.5235E-03
            5392            5476     14.5413E-03     15.5235E-03
            5401            5476     14.5413E-03     15.5235E-03
            5401            5477     14.5413E-03     15.5235E-03
            5402            5477     14.5413E-03     15.5235E-03
            5393            5477     14.5413E-03     15.5235E-03
            5392            5477     14.5413E-03     15.5235E-03
            5393            5478     24.2166E-03     23.9605E-03
            5403            5478     24.2166E-03     23.9605E-03
            5394            5478     24.2166E-03     23.9605E-03
            5402            5478     24.2166E-03     23.9605E-03
            5394            5479     38.4702E-03     37.3544E-03
            5404            5479     38.4702E-03     37.3544E-03
            5395            5479     38.4702E-03     37.3544E-03
            5403            5479     38.4702E-03     37.3544E-03
            5396            5480     55.8322E-03     54.0140E-03
            5404            5480     55.8322E-03     54.0140E-03
            5395            5480     55.8322E-03     54.0140E-03
            5405            5480     55.8322E-03     54.0140E-03
            5406            5481     53.8790E-03     54.2360E-03
            5407            5481     53.8790E-03     54.2360E-03
            5398            5481     53.8790E-03     54.2360E-03
            5397            5481     53.8790E-03     54.2360E-03
            5398            5482     39.6319E-03     40.5746E-03
            5399            5482     39.6319E-03     40.5746E-03
            5407            5482     39.6319E-03     40.5746E-03
            5408            5482     39.6319E-03     40.5746E-03
            5408            5483     26.1700E-03     27.4268E-03
            5399            5483     26.1700E-03     27.4268E-03
            5409            5483     26.1700E-03     27.4268E-03
            5400            5483     26.1700E-03     27.4268E-03
            5401            5484     17.3323E-03     19.1792E-03
            5409            5484     17.3323E-03     19.1792E-03
            5410            5484     17.3323E-03     19.1792E-03
            5400            5484     17.3323E-03     19.1792E-03
            5410            5485     17.3323E-03     19.1792E-03
            5411            5485     17.3323E-03     19.1792E-03
            5402            5485     17.3323E-03     19.1792E-03
            5401            5485     17.3323E-03     19.1792E-03
            5402            5486     26.1700E-03     27.4268E-03
            5412            5486     26.1700E-03     27.4268E-03
            5411            5486     26.1700E-03     27.4268E-03
            5403            5486     26.1700E-03     27.4268E-03
            5403            5487     39.6319E-03     40.5746E-03
            5404            5487     39.6319E-03     40.5746E-03
            5413            5487     39.6319E-03     40.5746E-03
            5412            5487     39.6319E-03     40.5746E-03
            5414            5488     53.8790E-03     54.2360E-03
            5405            5488     53.8790E-03     54.2360E-03
            5404            5488     53.8790E-03     54.2360E-03
            5413            5488     53.8790E-03     54.2360E-03
            5406            5489     51.3502E-03     51.2212E-03
            5407            5489     51.3502E-03     51.2212E-03
            5415            5489     51.3502E-03     51.2212E-03
            5416            5489     51.3502E-03     51.2212E-03
            5408            5490     38.6082E-03     39.3725E-03
            5417            5490     38.6082E-03     39.3725E-03
            5416            5490     38.6082E-03     39.3725E-03
            5407            5490     38.6082E-03     39.3725E-03
            5408            5491     26.8136E-03     28.1921E-03
            5417            5491     26.8136E-03     28.1921E-03
            5409            5491     26.8136E-03     28.1921E-03
            5418            5491     26.8136E-03     28.1921E-03
            5409            5492     18.5649E-03     20.3004E-03
            5410            5492     18.5649E-03     20.3004E-03
            5418            5492     18.5649E-03     20.3004E-03
            5419            5492     18.5649E-03     20.3004E-03
            5419            5493     18.5649E-03     20.3004E-03
            5420            5493     18.5649E-03     20.3004E-03
            5410            5493     18.5649E-03     20.3004E-03
            5411            5493     18.5649E-03     20.3004E-03
            5412            5494     26.8136E-03     28.1921E-03
            5421            5494     26.8136E-03     28.1921E-03
            5411            5494     26.8136E-03     28.1921E-03
            5420            5494     26.8136E-03     28.1921E-03
            5412            5495     38.6082E-03     39.3725E-03
            5422            5495     38.6082E-03     39.3725E-03
            5421            5495     38.6082E-03     39.3725E-03
            5413            5495     38.6082E-03     39.3725E-03
            5422            5496     51.3502E-03     51.2212E-03
            5413            5496     51.3502E-03     51.2212E-03
            5423            5496     51.3502E-03     51.2212E-03
            5414            5496     51.3502E-03     51.2212E-03
            5415            5497     49.4897E-03     49.1421E-03
            5416            5497     49.4897E-03     49.1421E-03
            5425            5497     49.4897E-03     49.1421E-03
            5424            5497     49.4897E-03     49.1421E-03
            5417            5498     37.2039E-03     37.5034E-03
            5425            5498     37.2039E-03     37.5034E-03
            5416            5498     37.2039E-03     37.5034E-03
            5426            5498     37.2039E-03     37.5034E-03
            5426            5499     26.2601E-03     27.0630E-03
            5417            5499     26.2601E-03     27.0630E-03
            5418            5499     26.2601E-03     27.0630E-03
            5427            5499     26.2601E-03     27.0630E-03
            5419            5500     18.9123E-03     20.0383E-03
            5427            5500     18.9123E-03     20.0383E-03
            5418            5500     18.9123E-03     20.0383E-03
            5428            5500     18.9123E-03     20.0383E-03
            5429            5501     18.9123E-03     20.0383E-03
            5428            5501     18.9123E-03     20.0383E-03
            5419            5501     18.9123E-03     20.0383E-03
            5420            5501     18.9123E-03     20.0383E-03
            5420            5502     26.2601E-03     27.0630E-03
            5429            5502     26.2601E-03     27.0630E-03
            5430            5502     26.2601E-03     27.0630E-03
            5421            5502     26.2601E-03     27.0630E-03
            5421            5503     37.2039E-03     37.5034E-03
            5422            5503     37.2039E-03     37.5034E-03
            5431            5503     37.2039E-03     37.5034E-03
            5430            5503     37.2039E-03     37.5034E-03
            5432            5504     49.4897E-03     49.1421E-03
            5431            5504     49.4897E-03     49.1421E-03
            5422            5504     49.4897E-03     49.1421E-03
            5423            5504     49.4897E-03     49.1421E-03
            5434            5505     47.4991E-03     47.1216E-03
            5433            5505     47.4991E-03     47.1216E-03
            5425            5505     47.4991E-03     47.1216E-03
            5424            5505     47.4991E-03     47.1216E-03
            5425            5506     35.8790E-03     36.0117E-03
            5434            5506     35.8790E-03     36.0117E-03
            5435            5506     35.8790E-03     36.0117E-03
            5426            5506     35.8790E-03     36.0117E-03
            5435            5507     25.5252E-03     25.8923E-03
            5436            5507     25.5252E-03     25.8923E-03
            5426            5507     25.5252E-03     25.8923E-03
            5427            5507     25.5252E-03     25.8923E-03
            5436            5508     18.6885E-03     19.0831E-03
            5428            5508     18.6885E-03     19.0831E-03
            5427            5508     18.6885E-03     19.0831E-03
            5437            5508     18.6885E-03     19.0831E-03
            5438            5509     18.6885E-03     19.0831E-03
            5437            5509     18.6885E-03     19.0831E-03
            5428            5509     18.6885E-03     19.0831E-03
            5429            5509     18.6885E-03     19.0831E-03
            5438            5510     25.5252E-03     25.8923E-03
            5430            5510     25.5252E-03     25.8923E-03
            5429            5510     25.5252E-03     25.8923E-03
            5439            5510     25.5252E-03     25.8923E-03
            5440            5511     35.8790E-03     36.0117E-03
            5431            5511     35.8790E-03     36.0117E-03
            5430            5511     35.8790E-03     36.0117E-03
            5439            5511     35.8790E-03     36.0117E-03
            5440            5512     47.4991E-03     47.1216E-03
            5431            5512     47.4991E-03     47.1216E-03
            5432            5512     47.4991E-03     47.1216E-03
            5441            5512     47.4991E-03     47.1216E-03
            5443            5513     45.5188E-03     45.2187E-03
            5434            5513     45.5188E-03     45.2187E-03
            5433            5513     45.5188E-03     45.2187E-03
            5442            5513     45.5188E-03     45.2187E-03
            5444            5514     34.4875E-03     34.6166E-03
            5434            5514     34.4875E-03     34.6166E-03
            5435            5514     34.4875E-03     34.6166E-03
            5443            5514     34.4875E-03     34.6166E-03
            5435            5515     24.8028E-03     24.8977E-03
            5436            5515     24.8028E-03     24.8977E-03
            5444            5515     24.8028E-03     24.8977E-03
            5445            5515     24.8028E-03     24.8977E-03
            5436            5516     18.3513E-03     18.1288E-03
            5446            5516     18.3513E-03     18.1288E-03
            5445            5516     18.3513E-03     18.1288E-03
            5437            5516     18.3513E-03     18.1288E-03
            5438            5517     18.3513E-03     18.1288E-03
            5447            5517     18.3513E-03     18.1288E-03
            5437            5517     18.3513E-03     18.1288E-03
            5446            5517     18.3513E-03     18.1288E-03
            5439            5518     24.8028E-03     24.8977E-03
            5447            5518     24.8028E-03     24.8977E-03
            5448            5518     24.8028E-03     24.8977E-03
            5438            5518     24.8028E-03     24.8977E-03
            5440            5519     34.4875E-03     34.6166E-03
            5448            5519     34.4875E-03     34.6166E-03
            5439            5519     34.4875E-03     34.6166E-03
            5449            5519     34.4875E-03     34.6166E-03
            5440            5520     45.5188E-03     45.2187E-03
            5449            5520     45.5188E-03     45.2187E-03
            5441            5520     45.5188E-03     45.2187E-03
            5450            5520     45.5188E-03     45.2187E-03
            5443            5521     43.5221E-03     43.4275E-03
            5451            5521     43.5221E-03     43.4275E-03
            5452            5521     43.5221E-03     43.4275E-03
            5442            5521     43.5221E-03     43.4275E-03
            5443            5522     33.1897E-03     33.4669E-03
            5444            5522     33.1897E-03     33.4669E-03
            5453            5522     33.1897E-03     33.4669E-03
            5452            5522     33.1897E-03     33.4669E-03
            5444            5523     24.0855E-03     24.0125E-03
            5454            5523     24.0855E-03     24.0125E-03
            5453            5523     24.0855E-03     24.0125E-03
            5445            5523     24.0855E-03     24.0125E-03
            5454            5524     18.0274E-03     17.1782E-03
            5446            5524     18.0274E-03     17.1782E-03
            5445            5524     18.0274E-03     17.1782E-03
            5455            5524     18.0274E-03     17.1782E-03
            5455            5525     18.0274E-03     17.1782E-03
            5456            5525     18.0274E-03     17.1782E-03
            5447            5525     18.0274E-03     17.1782E-03
            5446            5525     18.0274E-03     17.1782E-03
            5447            5526     24.0855E-03     24.0125E-03
            5456            5526     24.0855E-03     24.0125E-03
            5457            5526     24.0855E-03     24.0125E-03
            5448            5526     24.0855E-03     24.0125E-03
            5449            5527     33.1897E-03     33.4669E-03
            5457            5527     33.1897E-03     33.4669E-03
            5458            5527     33.1897E-03     33.4669E-03
            5448            5527     33.1897E-03     33.4669E-03
            5458            5528     43.5221E-03     43.4275E-03
            5449            5528     43.5221E-03     43.4275E-03
            5450            5528     43.5221E-03     43.4275E-03
            5459            5528     43.5221E-03     43.4275E-03
            5460            5529     41.3907E-03     41.6801E-03
            5452            5529     41.3907E-03     41.6801E-03
            5461            5529     41.3907E-03     41.6801E-03
            5451            5529     41.3907E-03     41.6801E-03
            5461            5530     31.9932E-03     32.5460E-03
            5453            5530     31.9932E-03     32.5460E-03
            5462            5530     31.9932E-03     32.5460E-03
            5452            5530     31.9932E-03     32.5460E-03
            5462            5531     23.5200E-03     23.1126E-03
            5453            5531     23.5200E-03     23.1126E-03
            5463            5531     23.5200E-03     23.1126E-03
            5454            5531     23.5200E-03     23.1126E-03
            5463            5532     17.6903E-03     16.1972E-03
            5464            5532     17.6903E-03     16.1972E-03
            5455            5532     17.6903E-03     16.1972E-03
            5454            5532     17.6903E-03     16.1972E-03
            5456            5533     17.6903E-03     16.1972E-03
            5455            5533     17.6903E-03     16.1972E-03
            5464            5533     17.6903E-03     16.1972E-03
            5465            5533     17.6903E-03     16.1972E-03
            5466            5534     23.5200E-03     23.1126E-03
            5457            5534     23.5200E-03     23.1126E-03
            5456            5534     23.5200E-03     23.1126E-03
            5465            5534     23.5200E-03     23.1126E-03
            5466            5535     31.9932E-03     32.5460E-03
            5458            5535     31.9932E-03     32.5460E-03
            5457            5535     31.9932E-03     32.5460E-03
            5467            5535     31.9932E-03     32.5460E-03
            5459            5536     41.3907E-03     41.6801E-03
            5467            5536     41.3907E-03     41.6801E-03
            5468            5536     41.3907E-03     41.6801E-03
            5458            5536     41.3907E-03     41.6801E-03
            5460            5537     39.2176E-03     39.8990E-03
            5469            5537     39.2176E-03     39.8990E-03
            5470            5537     39.2176E-03     39.8990E-03
            5461            5537     39.2176E-03     39.8990E-03
            5470            5538     30.8229E-03     30.8365E-03
            5462            5538     30.8229E-03     30.8365E-03
            5471            5538     30.8229E-03     30.8365E-03
            5461            5538     30.8229E-03     30.8365E-03
            5463            5539     22.9443E-03     21.7721E-03
            5472            5539     22.9443E-03     21.7721E-03
            5471            5539     22.9443E-03     21.7721E-03
            5462            5539     22.9443E-03     21.7721E-03
            5464            5540     17.6537E-03     15.7555E-03
            5472            5540     17.6537E-03     15.7555E-03
            5463            5540     17.6537E-03     15.7555E-03
            5473            5540     17.6537E-03     15.7555E-03
            5465            5541     17.6537E-03     15.7555E-03
            5474            5541     17.6537E-03     15.7555E-03
            5473            5541     17.6537E-03     15.7555E-03
            5464            5541     17.6537E-03     15.7555E-03
            5474            5542     22.9443E-03     21.7721E-03
            5475            5542     22.9443E-03     21.7721E-03
            5465            5542     22.9443E-03     21.7721E-03
            5466            5542     22.9443E-03     21.7721E-03
            5467            5543     30.8229E-03     30.8365E-03
            5475            5543     30.8229E-03     30.8365E-03
            5476            5543     30.8229E-03     30.8365E-03
            5466            5543     30.8229E-03     30.8365E-03
            5477            5544     39.2176E-03     39.8990E-03
            5476            5544     39.2176E-03     39.8990E-03
            5467            5544     39.2176E-03     39.8990E-03
            5468            5544     39.2176E-03     39.8990E-03
            5478            5545     36.4351E-03     34.4973E-03
            5470            5545     36.4351E-03     34.4973E-03
            5469            5545     36.4351E-03     34.4973E-03
            5479            5545     36.4351E-03     34.4973E-03
            5480            5546     29.2941E-03     27.1023E-03
            5470            5546     29.2941E-03     27.1023E-03
            5471            5546     29.2941E-03     27.1023E-03
            5479            5546     29.2941E-03     27.1023E-03
            5471            5547     22.6813E-03     20.7730E-03
            5481            5547     22.6813E-03     20.7730E-03
            5472            5547     22.6813E-03     20.7730E-03
            5480            5547     22.6813E-03     20.7730E-03
            5472            5548     18.5069E-03     16.8863E-03
            5481            5548     18.5069E-03     16.8863E-03
            5473            5548     18.5069E-03     16.8863E-03
            5482            5548     18.5069E-03     16.8863E-03
            5482            5549     18.5069E-03     16.8863E-03
            5483            5549     18.5069E-03     16.8863E-03
            5474            5549     18.5069E-03     16.8863E-03
            5473            5549     18.5069E-03     16.8863E-03
            5474            5550     22.6813E-03     20.7730E-03
            5484            5550     22.6813E-03     20.7730E-03
            5475            5550     22.6813E-03     20.7730E-03
            5483            5550     22.6813E-03     20.7730E-03
            5475            5551     29.2941E-03     27.1023E-03
            5476            5551     29.2941E-03     27.1023E-03
            5484            5551     29.2941E-03     27.1023E-03
            5485            5551     29.2941E-03     27.1023E-03
            5485            5552     36.4351E-03     34.4973E-03
            5477            5552     36.4351E-03     34.4973E-03
            5476            5552     36.4351E-03     34.4973E-03
            5486            5552     36.4351E-03     34.4973E-03
            5488            5553     38.5882E-03     34.8135E-03
            5479            5553     38.5882E-03     34.8135E-03
            5487            5553     38.5882E-03     34.8135E-03
            5478            5553     38.5882E-03     34.8135E-03
            5488            5554     28.3403E-03     25.6270E-03
            5489            5554     28.3403E-03     25.6270E-03
            5480            5554     28.3403E-03     25.6270E-03
            5479            5554     28.3403E-03     25.6270E-03
            5489            5555     20.7303E-03     19.3095E-03
            5480            5555     20.7303E-03     19.3095E-03
            5490            5555     20.7303E-03     19.3095E-03
            5481            5555     20.7303E-03     19.3095E-03
            5491            5556     15.8612E-03     15.3766E-03
            5481            5556     15.8612E-03     15.3766E-03
            5490            5556     15.8612E-03     15.3766E-03
            5482            5556     15.8612E-03     15.3766E-03
            5491            5557     15.8612E-03     15.3766E-03
            5492            5557     15.8612E-03     15.3766E-03
            5482            5557     15.8612E-03     15.3766E-03
            5483            5557     15.8612E-03     15.3766E-03
            5483            5558     20.7303E-03     19.3095E-03
            5484            5558     20.7303E-03     19.3095E-03
            5492            5558     20.7303E-03     19.3095E-03
            5493            5558     20.7303E-03     19.3095E-03
            5484            5559     28.3403E-03     25.6270E-03
            5485            5559     28.3403E-03     25.6270E-03
            5494            5559     28.3403E-03     25.6270E-03
            5493            5559     28.3403E-03     25.6270E-03
            5485            5560     38.5882E-03     34.8135E-03
            5495            5560     38.5882E-03     34.8135E-03
            5494            5560     38.5882E-03     34.8135E-03
            5486            5560     38.5882E-03     34.8135E-03
            5487            5561     41.8458E-03     40.6731E-03
            5488            5561     41.8458E-03     40.6731E-03
            5496            5561     41.8458E-03     40.6731E-03
            5497            5561     41.8458E-03     40.6731E-03
            5488            5562     29.3770E-03     28.8115E-03
            5497            5562     29.3770E-03     28.8115E-03
            5498            5562     29.3770E-03     28.8115E-03
            5489            5562     29.3770E-03     28.8115E-03
            5498            5563     19.7748E-03     19.8118E-03
            5489            5563     19.7748E-03     19.8118E-03
            5499            5563     19.7748E-03     19.8118E-03
            5490            5563     19.7748E-03     19.8118E-03
            5490            5564     13.9763E-03     14.7299E-03
            5499            5564     13.9763E-03     14.7299E-03
            5500            5564     13.9763E-03     14.7299E-03
            5491            5564     13.9763E-03     14.7299E-03
            5492            5565     13.9763E-03     14.7299E-03
            5501            5565     13.9763E-03     14.7299E-03
            5491            5565     13.9763E-03     14.7299E-03
            5500            5565     13.9763E-03     14.7299E-03
            5493            5566     19.7748E-03     19.8118E-03
            5501            5566     19.7748E-03     19.8118E-03
            5492            5566     19.7748E-03     19.8118E-03
            5502            5566     19.7748E-03     19.8118E-03
            5494            5567     29.3770E-03     28.8115E-03
            5493            5567     29.3770E-03     28.8115E-03
            5503            5567     29.3770E-03     28.8115E-03
            5502            5567     29.3770E-03     28.8115E-03
            5504            5568     41.8458E-03     40.6731E-03
            5495            5568     41.8458E-03     40.6731E-03
            5503            5568     41.8458E-03     40.6731E-03
            5494            5568     41.8458E-03     40.6731E-03
            5506            5569     39.7489E-03     39.9365E-03
            5496            5569     39.7489E-03     39.9365E-03
            5497            5569     39.7489E-03     39.9365E-03
            5505            5569     39.7489E-03     39.9365E-03
            5497            5570     30.1475E-03     30.8226E-03
            5506            5570     30.1475E-03     30.8226E-03
            5498            5570     30.1475E-03     30.8226E-03
            5507            5570     30.1475E-03     30.8226E-03
            5508            5571     21.4227E-03     22.3895E-03
            5498            5571     21.4227E-03     22.3895E-03
            5507            5571     21.4227E-03     22.3895E-03
            5499            5571     21.4227E-03     22.3895E-03
            5499            5572     16.2345E-03     17.5307E-03
            5509            5572     16.2345E-03     17.5307E-03
            5500            5572     16.2345E-03     17.5307E-03
            5508            5572     16.2345E-03     17.5307E-03
            5500            5573     16.2345E-03     17.5307E-03
            5510            5573     16.2345E-03     17.5307E-03
            5501            5573     16.2345E-03     17.5307E-03
            5509            5573     16.2345E-03     17.5307E-03
            5502            5574     21.4227E-03     22.3895E-03
            5501            5574     21.4227E-03     22.3895E-03
            5510            5574     21.4227E-03     22.3895E-03
            5511            5574     21.4227E-03     22.3895E-03
            5503            5575     30.1475E-03     30.8226E-03
            5502            5575     30.1475E-03     30.8226E-03
            5512            5575     30.1475E-03     30.8226E-03
            5511            5575     30.1475E-03     30.8226E-03
            5504            5576     39.7489E-03     39.9365E-03
            5503            5576     39.7489E-03     39.9365E-03
            5513            5576     39.7489E-03     39.9365E-03
            5512            5576     39.7489E-03     39.9365E-03
            5506            5577     37.2781E-03     37.1250E-03
            5515            5577     37.2781E-03     37.1250E-03
            5505            5577     37.2781E-03     37.1250E-03
            5514            5577     37.2781E-03     37.1250E-03
            5506            5578     29.0928E-03     29.5524E-03
            5515            5578     29.0928E-03     29.5524E-03
            5516            5578     29.0928E-03     29.5524E-03
            5507            5578     29.0928E-03     29.5524E-03
            5516            5579     21.9347E-03     22.8889E-03
            5507            5579     21.9347E-03     22.8889E-03
            5517            5579     21.9347E-03     22.8889E-03
            5508            5579     21.9347E-03     22.8889E-03
            5509            5580     17.2911E-03     18.4953E-03
            5517            5580     17.2911E-03     18.4953E-03
            5508            5580     17.2911E-03     18.4953E-03
            5518            5580     17.2911E-03     18.4953E-03
            5510            5581     17.2911E-03     18.4953E-03
            5509            5581     17.2911E-03     18.4953E-03
            5519            5581     17.2911E-03     18.4953E-03
            5518            5581     17.2911E-03     18.4953E-03
            5511            5582     21.9347E-03     22.8889E-03
            5519            5582     21.9347E-03     22.8889E-03
            5510            5582     21.9347E-03     22.8889E-03
            5520            5582     21.9347E-03     22.8889E-03
            5511            5583     29.0928E-03     29.5524E-03
            5521            5583     29.0928E-03     29.5524E-03
            5512            5583     29.0928E-03     29.5524E-03
            5520            5583     29.0928E-03     29.5524E-03
            5512            5584     37.2781E-03     37.1250E-03
            5522            5584     37.2781E-03     37.1250E-03
            5521            5584     37.2781E-03     37.1250E-03
            5513            5584     37.2781E-03     37.1250E-03
            5524            5585     35.4198E-03     35.1284E-03
            5523            5585     35.4198E-03     35.1284E-03
            5515            5585     35.4198E-03     35.1284E-03
            5514            5585     35.4198E-03     35.1284E-03
            5525            5586     27.7803E-03     27.9151E-03
            5515            5586     27.7803E-03     27.9151E-03
            5516            5586     27.7803E-03     27.9151E-03
            5524            5586     27.7803E-03     27.9151E-03
            5516            5587     21.4560E-03     21.9858E-03
            5526            5587     21.4560E-03     21.9858E-03
            5525            5587     21.4560E-03     21.9858E-03
            5517            5587     21.4560E-03     21.9858E-03
            5517            5588     17.6094E-03     18.4097E-03
            5518            5588     17.6094E-03     18.4097E-03
            5527            5588     17.6094E-03     18.4097E-03
            5526            5588     17.6094E-03     18.4097E-03
            5519            5589     17.6094E-03     18.4097E-03
            5528            5589     17.6094E-03     18.4097E-03
            5527            5589     17.6094E-03     18.4097E-03
            5518            5589     17.6094E-03     18.4097E-03
            5529            5590     21.4560E-03     21.9858E-03
            5520            5590     21.4560E-03     21.9858E-03
            5528            5590     21.4560E-03     21.9858E-03
            5519            5590     21.4560E-03     21.9858E-03
            5521            5591     27.7803E-03     27.9151E-03
            5530            5591     27.7803E-03     27.9151E-03
            5520            5591     27.7803E-03     27.9151E-03
            5529            5591     27.7803E-03     27.9151E-03
            5530            5592     35.4198E-03     35.1284E-03
            5522            5592     35.4198E-03     35.1284E-03
            5531            5592     35.4198E-03     35.1284E-03
            5521            5592     35.4198E-03     35.1284E-03
            5533            5593     33.5076E-03     33.1799E-03
            5523            5593     33.5076E-03     33.1799E-03
            5524            5593     33.5076E-03     33.1799E-03
            5532            5593     33.5076E-03     33.1799E-03
            5533            5594     26.5394E-03     26.5446E-03
            5534            5594     26.5394E-03     26.5446E-03
            5525            5594     26.5394E-03     26.5446E-03
            5524            5594     26.5394E-03     26.5446E-03
            5534            5595     20.8387E-03     21.0732E-03
            5535            5595     20.8387E-03     21.0732E-03
            5526            5595     20.8387E-03     21.0732E-03
            5525            5595     20.8387E-03     21.0732E-03
            5526            5596     17.4658E-03     17.8221E-03
            5535            5596     17.4658E-03     17.8221E-03
            5536            5596     17.4658E-03     17.8221E-03
            5527            5596     17.4658E-03     17.8221E-03
            5528            5597     17.4658E-03     17.8221E-03
            5536            5597     17.4658E-03     17.8221E-03
            5537            5597     17.4658E-03     17.8221E-03
            5527            5597     17.4658E-03     17.8221E-03
            5529            5598     20.8387E-03     21.0732E-03
            5528            5598     20.8387E-03     21.0732E-03
            5538            5598     20.8387E-03     21.0732E-03
            5537            5598     20.8387E-03     21.0732E-03
            5529            5599     26.5394E-03     26.5446E-03
            5530            5599     26.5394E-03     26.5446E-03
            5538            5599     26.5394E-03     26.5446E-03
            5539            5599     26.5394E-03     26.5446E-03
            5531            5600     33.5076E-03     33.1799E-03
            5540            5600     33.5076E-03     33.1799E-03
            5530            5600     33.5076E-03     33.1799E-03
            5539            5600     33.5076E-03     33.1799E-03
            5542            5601     31.6152E-03     31.3168E-03
            5541            5601     31.6152E-03     31.3168E-03
            5533            5601     31.6152E-03     31.3168E-03
            5532            5601     31.6152E-03     31.3168E-03
            5534            5602     25.2534E-03     25.2055E-03
            5533            5602     25.2534E-03     25.2055E-03
            5542            5602     25.2534E-03     25.2055E-03
            5543            5602     25.2534E-03     25.2055E-03
            5544            5603     20.2125E-03     20.2586E-03
            5535            5603     20.2125E-03     20.2586E-03
            5543            5603     20.2125E-03     20.2586E-03
            5534            5603     20.2125E-03     20.2586E-03
            5536            5604     17.2355E-03     17.2493E-03
            5545            5604     17.2355E-03     17.2493E-03
            5535            5604     17.2355E-03     17.2493E-03
            5544            5604     17.2355E-03     17.2493E-03
            5546            5605     17.2355E-03     17.2493E-03
            5536            5605     17.2355E-03     17.2493E-03
            5545            5605     17.2355E-03     17.2493E-03
            5537            5605     17.2355E-03     17.2493E-03
            5547            5606     20.2125E-03     20.2586E-03
            5538            5606     20.2125E-03     20.2586E-03
            5546            5606     20.2125E-03     20.2586E-03
            5537            5606     20.2125E-03     20.2586E-03
            5547            5607     25.2534E-03     25.2055E-03
            5548            5607     25.2534E-03     25.2055E-03
            5539            5607     25.2534E-03     25.2055E-03
            5538            5607     25.2534E-03     25.2055E-03
            5539            5608     31.6152E-03     31.3168E-03
            5540            5608     31.6152E-03     31.3168E-03
            5548            5608     31.6152E-03     31.3168E-03
            5549            5608     31.6152E-03     31.3168E-03
            5542            5609     29.7728E-03     29.5529E-03
            5551            5609     29.7728E-03     29.5529E-03
            5550            5609     29.7728E-03     29.5529E-03
            5541            5609     29.7728E-03     29.5529E-03
            5552            5610     24.0415E-03     24.0452E-03
            5542            5610     24.0415E-03     24.0452E-03
            5543            5610     24.0415E-03     24.0452E-03
            5551            5610     24.0415E-03     24.0452E-03
            5552            5611     19.5728E-03     19.4708E-03
            5543            5611     19.5728E-03     19.4708E-03
            5553            5611     19.5728E-03     19.4708E-03
            5544            5611     19.5728E-03     19.4708E-03
            5544            5612     17.0098E-03     16.6988E-03
            5545            5612     17.0098E-03     16.6988E-03
            5553            5612     17.0098E-03     16.6988E-03
            5554            5612     17.0098E-03     16.6988E-03
            5554            5613     17.0098E-03     16.6988E-03
            5545            5613     17.0098E-03     16.6988E-03
            5546            5613     17.0098E-03     16.6988E-03
            5555            5613     17.0098E-03     16.6988E-03
            5546            5614     19.5728E-03     19.4708E-03
            5556            5614     19.5728E-03     19.4708E-03
            5547            5614     19.5728E-03     19.4708E-03
            5555            5614     19.5728E-03     19.4708E-03
            5547            5615     24.0415E-03     24.0452E-03
            5556            5615     24.0415E-03     24.0452E-03
            5548            5615     24.0415E-03     24.0452E-03
            5557            5615     24.0415E-03     24.0452E-03
            5548            5616     29.7728E-03     29.5529E-03
            5557            5616     29.7728E-03     29.5529E-03
            5558            5616     29.7728E-03     29.5529E-03
            5549            5616     29.7728E-03     29.5529E-03
            5551            5617     27.8792E-03     27.8537E-03
            5550            5617     27.8792E-03     27.8537E-03
            5559            5617     27.8792E-03     27.8537E-03
            5560            5617     27.8792E-03     27.8537E-03
            5560            5618     22.8916E-03     22.9972E-03
            5552            5618     22.8916E-03     22.9972E-03
            5561            5618     22.8916E-03     22.9972E-03
            5551            5618     22.8916E-03     22.9972E-03
            5561            5619     19.0362E-03     18.8098E-03
            5562            5619     19.0362E-03     18.8098E-03
            5552            5619     19.0362E-03     18.8098E-03
            5553            5619     19.0362E-03     18.8098E-03
            5562            5620     16.7375E-03     16.0350E-03
            5554            5620     16.7375E-03     16.0350E-03
            5563            5620     16.7375E-03     16.0350E-03
            5553            5620     16.7375E-03     16.0350E-03
            5554            5621     16.7375E-03     16.0350E-03
            5564            5621     16.7375E-03     16.0350E-03
            5563            5621     16.7375E-03     16.0350E-03
            5555            5621     16.7375E-03     16.0350E-03
            5555            5622     19.0362E-03     18.8098E-03
            5564            5622     19.0362E-03     18.8098E-03
            5556            5622     19.0362E-03     18.8098E-03
            5565            5622     19.0362E-03     18.8098E-03
            5566            5623     22.8916E-03     22.9972E-03
            5556            5623     22.8916E-03     22.9972E-03
            5557            5623     22.8916E-03     22.9972E-03
            5565            5623     22.8916E-03     22.9972E-03
            5557            5624     27.8792E-03     27.8537E-03
            5566            5624     27.8792E-03     27.8537E-03
            5558            5624     27.8792E-03     27.8537E-03
            5567            5624     27.8792E-03     27.8537E-03
            5568            5625     25.9563E-03     26.1986E-03
            5569            5625     25.9563E-03     26.1986E-03
            5560            5625     25.9563E-03     26.1986E-03
            5559            5625     25.9563E-03     26.1986E-03
            5560            5626     21.8747E-03     22.1184E-03
            5561            5626     21.8747E-03     22.1184E-03
            5570            5626     21.8747E-03     22.1184E-03
            5569            5626     21.8747E-03     22.1184E-03
            5571            5627     18.5575E-03     18.0464E-03
            5570            5627     18.5575E-03     18.0464E-03
            5562            5627     18.5575E-03     18.0464E-03
            5561            5627     18.5575E-03     18.0464E-03
            5563            5628     16.4358E-03     15.3228E-03
            5571            5628     16.4358E-03     15.3228E-03
            5572            5628     16.4358E-03     15.3228E-03
            5562            5628     16.4358E-03     15.3228E-03
            5563            5629     16.4358E-03     15.3228E-03
            5572            5629     16.4358E-03     15.3228E-03
            5573            5629     16.4358E-03     15.3228E-03
            5564            5629     16.4358E-03     15.3228E-03
            5574            5630     18.5575E-03     18.0464E-03
            5573            5630     18.5575E-03     18.0464E-03
            5565            5630     18.5575E-03     18.0464E-03
            5564            5630     18.5575E-03     18.0464E-03
            5575            5631     21.8747E-03     22.1184E-03
            5574            5631     21.8747E-03     22.1184E-03
            5565            5631     21.8747E-03     22.1184E-03
            5566            5631     21.8747E-03     22.1184E-03
            5575            5632     25.9563E-03     26.1986E-03
            5566            5632     25.9563E-03     26.1986E-03
            5567            5632     25.9563E-03     26.1986E-03
            5576            5632     25.9563E-03     26.1986E-03
            5569            5633     23.9698E-03     24.4556E-03
            5568            5633     23.9698E-03     24.4556E-03
            5577            5633     23.9698E-03     24.4556E-03
            5578            5633     23.9698E-03     24.4556E-03
            5569            5634     20.9774E-03     20.7873E-03
            5578            5634     20.9774E-03     20.7873E-03
            5579            5634     20.9774E-03     20.7873E-03
            5570            5634     20.9774E-03     20.7873E-03
            5580            5635     18.1068E-03     17.1178E-03
            5570            5635     18.1068E-03     17.1178E-03
            5579            5635     18.1068E-03     17.1178E-03
            5571            5635     18.1068E-03     17.1178E-03
            5572            5636     16.2069E-03     14.8723E-03
            5581            5636     16.2069E-03     14.8723E-03
            5571            5636     16.2069E-03     14.8723E-03
            5580            5636     16.2069E-03     14.8723E-03
            5581            5637     16.2069E-03     14.8723E-03
            5582            5637     16.2069E-03     14.8723E-03
            5572            5637     16.2069E-03     14.8723E-03
            5573            5637     16.2069E-03     14.8723E-03
            5573            5638     18.1068E-03     17.1178E-03
            5582            5638     18.1068E-03     17.1178E-03
            5574            5638     18.1068E-03     17.1178E-03
            5583            5638     18.1068E-03     17.1178E-03
            5583            5639     20.9774E-03     20.7873E-03
            5574            5639     20.9774E-03     20.7873E-03
            5575            5639     20.9774E-03     20.7873E-03
            5584            5639     20.9774E-03     20.7873E-03
            5576            5640     23.9698E-03     24.4556E-03
            5584            5640     23.9698E-03     24.4556E-03
            5585            5640     23.9698E-03     24.4556E-03
            5575            5640     23.9698E-03     24.4556E-03
            5586            5641     21.6353E-03     20.4641E-03
            5577            5641     21.6353E-03     20.4641E-03
            5587            5641     21.6353E-03     20.4641E-03
            5578            5641     21.6353E-03     20.4641E-03
            5578            5642     19.9763E-03     18.5409E-03
            5579            5642     19.9763E-03     18.5409E-03
            5588            5642     19.9763E-03     18.5409E-03
            5587            5642     19.9763E-03     18.5409E-03
            5579            5643     17.8202E-03     16.5762E-03
            5588            5643     17.8202E-03     16.5762E-03
            5580            5643     17.8202E-03     16.5762E-03
            5589            5643     17.8202E-03     16.5762E-03
            5589            5644     16.4818E-03     15.4210E-03
            5580            5644     16.4818E-03     15.4210E-03
            5581            5644     16.4818E-03     15.4210E-03
            5590            5644     16.4818E-03     15.4210E-03
            5591            5645     16.4818E-03     15.4210E-03
            5581            5645     16.4818E-03     15.4210E-03
            5582            5645     16.4818E-03     15.4210E-03
            5590            5645     16.4818E-03     15.4210E-03
            5582            5646     17.8202E-03     16.5762E-03
            5591            5646     17.8202E-03     16.5762E-03
            5583            5646     17.8202E-03     16.5762E-03
            5592            5646     17.8202E-03     16.5762E-03
            5593            5647     19.9763E-03     18.5409E-03
            5584            5647     19.9763E-03     18.5409E-03
            5592            5647     19.9763E-03     18.5409E-03
            5583            5647     19.9763E-03     18.5409E-03
            5585            5648     21.6353E-03     20.4641E-03
            5593            5648     21.6353E-03     20.4641E-03
            5584            5648     21.6353E-03     20.4641E-03
            5594            5648     21.6353E-03     20.4641E-03
            5595            5649     23.8692E-03     21.8026E-03
            5586            5649     23.8692E-03     21.8026E-03
            5596            5649     23.8692E-03     21.8026E-03
            5587            5649     23.8692E-03     21.8026E-03
            5587            5650     19.4084E-03     18.0302E-03
            5597            5650     19.4084E-03     18.0302E-03
            5596            5650     19.4084E-03     18.0302E-03
            5588            5650     19.4084E-03     18.0302E-03
            5597            5651     16.4255E-03     15.7426E-03
            5598            5651     16.4255E-03     15.7426E-03
            5589            5651     16.4255E-03     15.7426E-03
            5588            5651     16.4255E-03     15.7426E-03
            5599            5652     14.8069E-03     14.5343E-03
            5598            5652     14.8069E-03     14.5343E-03
            5590            5652     14.8069E-03     14.5343E-03
            5589            5652     14.8069E-03     14.5343E-03
            5600            5653     14.8069E-03     14.5343E-03
            5599            5653     14.8069E-03     14.5343E-03
            5590            5653     14.8069E-03     14.5343E-03
            5591            5653     14.8069E-03     14.5343E-03
            5591            5654     16.4255E-03     15.7426E-03
            5600            5654     16.4255E-03     15.7426E-03
            5601            5654     16.4255E-03     15.7426E-03
            5592            5654     16.4255E-03     15.7426E-03
            5593            5655     19.4084E-03     18.0302E-03
            5601            5655     19.4084E-03     18.0302E-03
            5602            5655     19.4084E-03     18.0302E-03
            5592            5655     19.4084E-03     18.0302E-03
            5603            5656     23.8692E-03     21.8026E-03
            5602            5656     23.8692E-03     21.8026E-03
            5594            5656     23.8692E-03     21.8026E-03
            5593            5656     23.8692E-03     21.8026E-03
            5595            5657     26.6255E-03     26.1019E-03
            5605            5657     26.6255E-03     26.1019E-03
            5596            5657     26.6255E-03     26.1019E-03
            5604            5657     26.6255E-03     26.1019E-03
            5596            5658     20.1032E-03     20.0223E-03
            5606            5658     20.1032E-03     20.0223E-03
            5597            5658     20.1032E-03     20.0223E-03
            5605            5658     20.1032E-03     20.0223E-03
            5607            5659     15.8292E-03     16.0177E-03
            5606            5659     15.8292E-03     16.0177E-03
            5597            5659     15.8292E-03     16.0177E-03
            5598            5659     15.8292E-03     16.0177E-03
            5599            5660     13.8071E-03     14.2325E-03
            5607            5660     13.8071E-03     14.2325E-03
            5608            5660     13.8071E-03     14.2325E-03
            5598            5660     13.8071E-03     14.2325E-03
            5600            5661     13.8071E-03     14.2325E-03
            5609            5661     13.8071E-03     14.2325E-03
            5599            5661     13.8071E-03     14.2325E-03
            5608            5661     13.8071E-03     14.2325E-03
            5600            5662     15.8292E-03     16.0177E-03
            5610            5662     15.8292E-03     16.0177E-03
            5601            5662     15.8292E-03     16.0177E-03
            5609            5662     15.8292E-03     16.0177E-03
            5610            5663     20.1032E-03     20.0223E-03
            5602            5663     20.1032E-03     20.0223E-03
            5611            5663     20.1032E-03     20.0223E-03
            5601            5663     20.1032E-03     20.0223E-03
            5602            5664     26.6255E-03     26.1019E-03
            5612            5664     26.6255E-03     26.1019E-03
            5603            5664     26.6255E-03     26.1019E-03
            5611            5664     26.6255E-03     26.1019E-03
            5604            5665     24.3705E-03     24.3998E-03
            5614            5665     24.3705E-03     24.3998E-03
            5613            5665     24.3705E-03     24.3998E-03
            5605            5665     24.3705E-03     24.3998E-03
            5606            5666     20.4072E-03     20.7581E-03
            5614            5666     20.4072E-03     20.7581E-03
            5605            5666     20.4072E-03     20.7581E-03
            5615            5666     20.4072E-03     20.7581E-03
            5616            5667     17.0393E-03     17.5918E-03
            5615            5667     17.0393E-03     17.5918E-03
            5607            5667     17.0393E-03     17.5918E-03
            5606            5667     17.0393E-03     17.5918E-03
            5608            5668     15.3853E-03     16.0390E-03
            5607            5668     15.3853E-03     16.0390E-03
            5617            5668     15.3853E-03     16.0390E-03
            5616            5668     15.3853E-03     16.0390E-03
            5609            5669     15.3853E-03     16.0390E-03
            5617            5669     15.3853E-03     16.0390E-03
            5608            5669     15.3853E-03     16.0390E-03
            5618            5669     15.3853E-03     16.0390E-03
            5619            5670     17.0393E-03     17.5918E-03
            5609            5670     17.0393E-03     17.5918E-03
            5618            5670     17.0393E-03     17.5918E-03
            5610            5670     17.0393E-03     17.5918E-03
            5619            5671     20.4072E-03     20.7581E-03
            5620            5671     20.4072E-03     20.7581E-03
            5611            5671     20.4072E-03     20.7581E-03
            5610            5671     20.4072E-03     20.7581E-03
            5612            5672     24.3705E-03     24.3998E-03
            5620            5672     24.3705E-03     24.3998E-03
            5621            5672     24.3705E-03     24.3998E-03
            5611            5672     24.3705E-03     24.3998E-03
            5613            5673     22.0145E-03     21.8882E-03
            5622            5673     22.0145E-03     21.8882E-03
            5614            5673     22.0145E-03     21.8882E-03
            5623            5673     22.0145E-03     21.8882E-03
            5624            5674     19.3773E-03     19.5510E-03
            5623            5674     19.3773E-03     19.5510E-03
            5614            5674     19.3773E-03     19.5510E-03
            5615            5674     19.3773E-03     19.5510E-03
            5615            5675     17.4076E-03     17.8708E-03
            5624            5675     17.4076E-03     17.8708E-03
            5625            5675     17.4076E-03     17.8708E-03
            5616            5675     17.4076E-03     17.8708E-03
            5625            5676     16.2336E-03     16.8126E-03
            5626            5676     16.2336E-03     16.8126E-03
            5617            5676     16.2336E-03     16.8126E-03
            5616            5676     16.2336E-03     16.8126E-03
            5618            5677     16.2336E-03     16.8126E-03
            5627            5677     16.2336E-03     16.8126E-03
            5626            5677     16.2336E-03     16.8126E-03
            5617            5677     16.2336E-03     16.8126E-03
            5628            5678     17.4076E-03     17.8708E-03
            5619            5678     17.4076E-03     17.8708E-03
            5618            5678     17.4076E-03     17.8708E-03
            5627            5678     17.4076E-03     17.8708E-03
            5629            5679     19.3773E-03     19.5510E-03
            5628            5679     19.3773E-03     19.5510E-03
            5619            5679     19.3773E-03     19.5510E-03
            5620            5679     19.3773E-03     19.5510E-03
            5630            5680     22.0145E-03     21.8882E-03
            5621            5680     22.0145E-03     21.8882E-03
            5629            5680     22.0145E-03     21.8882E-03
            5620            5680     22.0145E-03     21.8882E-03
            5632            5681     20.2320E-03     20.0809E-03
            5631            5681     20.2320E-03     20.0809E-03
            5623            5681     20.2320E-03     20.0809E-03
            5622            5681     20.2320E-03     20.0809E-03
            5624            5682     18.2742E-03     18.3332E-03
            5623            5682     18.2742E-03     18.3332E-03
            5633            5682     18.2742E-03     18.3332E-03
            5632            5682     18.2742E-03     18.3332E-03
            5633            5683     17.0973E-03     17.3345E-03
            5625            5683     17.0973E-03     17.3345E-03
            5624            5683     17.0973E-03     17.3345E-03
            5634            5683     17.0973E-03     17.3345E-03
            5626            5684     16.5460E-03     16.9001E-03
            5635            5684     16.5460E-03     16.9001E-03
            5625            5684     16.5460E-03     16.9001E-03
            5634            5684     16.5460E-03     16.9001E-03
            5636            5685     16.5460E-03     16.9001E-03
            5635            5685     16.5460E-03     16.9001E-03
            5626            5685     16.5460E-03     16.9001E-03
            5627            5685     16.5460E-03     16.9001E-03
            5628            5686     17.0973E-03     17.3345E-03
            5627            5686     17.0973E-03     17.3345E-03
            5636            5686     17.0973E-03     17.3345E-03
            5637            5686     17.0973E-03     17.3345E-03
            5638            5687     18.2742E-03     18.3332E-03
            5628            5687     18.2742E-03     18.3332E-03
            5637            5687     18.2742E-03     18.3332E-03
            5629            5687     18.2742E-03     18.3332E-03
            5629            5688     20.2320E-03     20.0809E-03
            5638            5688     20.2320E-03     20.0809E-03
            5630            5688     20.2320E-03     20.0809E-03
            5639            5688     20.2320E-03     20.0809E-03
            5640            5689     18.4801E-03     18.3680E-03
            5632            5689     18.4801E-03     18.3680E-03
            5631            5689     18.4801E-03     18.3680E-03
            5641            5689     18.4801E-03     18.3680E-03
            5633            5690     17.2928E-03     17.3291E-03
            5632            5690     17.2928E-03     17.3291E-03
            5641            5690     17.2928E-03     17.3291E-03
            5642            5690     17.2928E-03     17.3291E-03
            5634            5691     16.7163E-03     16.8152E-03
            5643            5691     16.7163E-03     16.8152E-03
            5642            5691     16.7163E-03     16.8152E-03
            5633            5691     16.7163E-03     16.8152E-03
            5643            5692     16.5177E-03     16.6283E-03
            5635            5692     16.5177E-03     16.6283E-03
            5634            5692     16.5177E-03     16.6283E-03
            5644            5692     16.5177E-03     16.6283E-03
            5636            5693     16.5177E-03     16.6283E-03
            5644            5693     16.5177E-03     16.6283E-03
            5635            5693     16.5177E-03     16.6283E-03
            5645            5693     16.5177E-03     16.6283E-03
            5645            5694     16.7163E-03     16.8152E-03
            5637            5694     16.7163E-03     16.8152E-03
            5636            5694     16.7163E-03     16.8152E-03
            5646            5694     16.7163E-03     16.8152E-03
            5647            5695     17.2928E-03     17.3291E-03
            5638            5695     17.2928E-03     17.3291E-03
            5646            5695     17.2928E-03     17.3291E-03
            5637            5695     17.2928E-03     17.3291E-03
            5638            5696     18.4801E-03     18.3680E-03
            5639            5696     18.4801E-03     18.3680E-03
            5647            5696     18.4801E-03     18.3680E-03
            5648            5696     18.4801E-03     18.3680E-03
            5640            5697     16.8310E-03     16.7855E-03
            5650            5697     16.8310E-03     16.7855E-03
            5649            5697     16.8310E-03     16.7855E-03
            5641            5697     16.8310E-03     16.7855E-03
            5642            5698     16.3533E-03     16.3944E-03
            5651            5698     16.3533E-03     16.3944E-03
            5650            5698     16.3533E-03     16.3944E-03
            5641            5698     16.3533E-03     16.3944E-03
            5643            5699     16.3453E-03     16.3251E-03
            5651            5699     16.3453E-03     16.3251E-03
            5652            5699     16.3453E-03     16.3251E-03
            5642            5699     16.3453E-03     16.3251E-03
            5652            5700     16.3962E-03     16.2939E-03
            5644            5700     16.3962E-03     16.2939E-03
            5643            5700     16.3962E-03     16.2939E-03
            5653            5700     16.3962E-03     16.2939E-03
            5644            5701     16.3962E-03     16.2939E-03
            5645            5701     16.3962E-03     16.2939E-03
            5653            5701     16.3962E-03     16.2939E-03
            5654            5701     16.3962E-03     16.2939E-03
            5646            5702     16.3453E-03     16.3251E-03
            5655            5702     16.3453E-03     16.3251E-03
            5645            5702     16.3453E-03     16.3251E-03
            5654            5702     16.3453E-03     16.3251E-03
            5647            5703     16.3533E-03     16.3944E-03
            5656            5703     16.3533E-03     16.3944E-03
            5655            5703     16.3533E-03     16.3944E-03
            5646            5703     16.3533E-03     16.3944E-03
            5648            5704     16.8310E-03     16.7855E-03
            5656            5704     16.8310E-03     16.7855E-03
            5647            5704     16.8310E-03     16.7855E-03
            5657            5704     16.8310E-03     16.7855E-03
            5659            5705     15.2854E-03     15.3523E-03
            5649            5705     15.2854E-03     15.3523E-03
            5658            5705     15.2854E-03     15.3523E-03
            5650            5705     15.2854E-03     15.3523E-03
            5660            5706     15.5744E-03     15.6293E-03
            5650            5706     15.5744E-03     15.6293E-03
            5659            5706     15.5744E-03     15.6293E-03
            5651            5706     15.5744E-03     15.6293E-03
            5652            5707     15.9924E-03     15.8442E-03
            5651            5707     15.9924E-03     15.8442E-03
            5661            5707     15.9924E-03     15.8442E-03
            5660            5707     15.9924E-03     15.8442E-03
            5662            5708     16.2153E-03     15.8843E-03
            5653            5708     16.2153E-03     15.8843E-03
            5652            5708     16.2153E-03     15.8843E-03
            5661            5708     16.2153E-03     15.8843E-03
            5663            5709     16.2153E-03     15.8843E-03
            5662            5709     16.2153E-03     15.8843E-03
            5654            5709     16.2153E-03     15.8843E-03
            5653            5709     16.2153E-03     15.8843E-03
            5663            5710     15.9924E-03     15.8442E-03
            5664            5710     15.9924E-03     15.8442E-03
            5655            5710     15.9924E-03     15.8442E-03
            5654            5710     15.9924E-03     15.8442E-03
            5656            5711     15.5744E-03     15.6293E-03
            5655            5711     15.5744E-03     15.6293E-03
            5664            5711     15.5744E-03     15.6293E-03
            5665            5711     15.5744E-03     15.6293E-03
            5657            5712     15.2854E-03     15.3523E-03
            5656            5712     15.2854E-03     15.3523E-03
            5666            5712     15.2854E-03     15.3523E-03
            5665            5712     15.2854E-03     15.3523E-03
            5659            5713     13.8416E-03     14.0627E-03
            5658            5713     13.8416E-03     14.0627E-03
            5667            5713     13.8416E-03     14.0627E-03
            5668            5713     13.8416E-03     14.0627E-03
            5660            5714     14.9850E-03     15.0242E-03
            5659            5714     14.9850E-03     15.0242E-03
            5669            5714     14.9850E-03     15.0242E-03
            5668            5714     14.9850E-03     15.0242E-03
            5660            5715     15.7176E-03     15.3690E-03
            5669            5715     15.7176E-03     15.3690E-03
            5670            5715     15.7176E-03     15.3690E-03
            5661            5715     15.7176E-03     15.3690E-03
            5671            5716     15.8915E-03     15.3420E-03
            5661            5716     15.8915E-03     15.3420E-03
            5662            5716     15.8915E-03     15.3420E-03
            5670            5716     15.8915E-03     15.3420E-03
            5662            5717     15.8915E-03     15.3420E-03
            5663            5717     15.8915E-03     15.3420E-03
            5671            5717     15.8915E-03     15.3420E-03
            5672            5717     15.8915E-03     15.3420E-03
            5673            5718     15.7176E-03     15.3690E-03
            5664            5718     15.7176E-03     15.3690E-03
            5663            5718     15.7176E-03     15.3690E-03
            5672            5718     15.7176E-03     15.3690E-03
            5665            5719     14.9850E-03     15.0242E-03
            5664            5719     14.9850E-03     15.0242E-03
            5674            5719     14.9850E-03     15.0242E-03
            5673            5719     14.9850E-03     15.0242E-03
            5674            5720     13.8416E-03     14.0627E-03
            5675            5720     13.8416E-03     14.0627E-03
            5665            5720     13.8416E-03     14.0627E-03
            5666            5720     13.8416E-03     14.0627E-03
            5676            5721     12.6475E-03     12.9628E-03
            5677            5721     12.6475E-03     12.9628E-03
            5668            5721     12.6475E-03     12.9628E-03
            5667            5721     12.6475E-03     12.9628E-03
            5669            5722     14.6516E-03     14.4329E-03
            5677            5722     14.6516E-03     14.4329E-03
            5678            5722     14.6516E-03     14.4329E-03
            5668            5722     14.6516E-03     14.4329E-03
            5678            5723     15.3316E-03     14.7801E-03
            5679            5723     15.3316E-03     14.7801E-03
            5669            5723     15.3316E-03     14.7801E-03
            5670            5723     15.3316E-03     14.7801E-03
            5679            5724     15.4538E-03     14.8052E-03
            5670            5724     15.4538E-03     14.8052E-03
            5680            5724     15.4538E-03     14.8052E-03
            5671            5724     15.4538E-03     14.8052E-03
            5681            5725     15.4538E-03     14.8052E-03
            5671            5725     15.4538E-03     14.8052E-03
            5680            5725     15.4538E-03     14.8052E-03
            5672            5725     15.4538E-03     14.8052E-03
            5673            5726     15.3316E-03     14.7801E-03
            5672            5726     15.3316E-03     14.7801E-03
            5682            5726     15.3316E-03     14.7801E-03
            5681            5726     15.3316E-03     14.7801E-03
            5683            5727     14.6516E-03     14.4329E-03
            5673            5727     14.6516E-03     14.4329E-03
            5682            5727     14.6516E-03     14.4329E-03
            5674            5727     14.6516E-03     14.4329E-03
            5675            5728     12.6475E-03     12.9628E-03
            5674            5728     12.6475E-03     12.9628E-03
            5683            5728     12.6475E-03     12.9628E-03
            5684            5728     12.6475E-03     12.9628E-03
            5686            5729     11.6398E-03     11.5173E-03
            5677            5729     11.6398E-03     11.5173E-03
            5685            5729     11.6398E-03     11.5173E-03
            5676            5729     11.6398E-03     11.5173E-03
            5687            5730     14.1792E-03     13.6428E-03
            5677            5730     14.1792E-03     13.6428E-03
            5686            5730     14.1792E-03     13.6428E-03
            5678            5730     14.1792E-03     13.6428E-03
            5687            5731     14.8600E-03     14.3411E-03
            5679            5731     14.8600E-03     14.3411E-03
            5688            5731     14.8600E-03     14.3411E-03
            5678            5731     14.8600E-03     14.3411E-03
            5688            5732     15.1242E-03     14.6376E-03
            5680            5732     15.1242E-03     14.6376E-03
            5679            5732     15.1242E-03     14.6376E-03
            5689            5732     15.1242E-03     14.6376E-03
            5689            5733     15.1242E-03     14.6376E-03
            5680            5733     15.1242E-03     14.6376E-03
            5690            5733     15.1242E-03     14.6376E-03
            5681            5733     15.1242E-03     14.6376E-03
            5681            5734     14.8600E-03     14.3411E-03
            5691            5734     14.8600E-03     14.3411E-03
            5690            5734     14.8600E-03     14.3411E-03
            5682            5734     14.8600E-03     14.3411E-03
            5691            5735     14.1792E-03     13.6428E-03
            5682            5735     14.1792E-03     13.6428E-03
            5683            5735     14.1792E-03     13.6428E-03
            5692            5735     14.1792E-03     13.6428E-03
            5693            5736     11.6398E-03     11.5173E-03
            5692            5736     11.6398E-03     11.5173E-03
            5684            5736     11.6398E-03     11.5173E-03
            5683            5736     11.6398E-03     11.5173E-03
            5694            5737     12.8719E-03     12.5229E-03
            5686            5737     12.8719E-03     12.5229E-03
            5695            5737     12.8719E-03     12.5229E-03
            5685            5737     12.8719E-03     12.5229E-03
            5687            5738     13.8024E-03     13.5259E-03
            5696            5738     13.8024E-03     13.5259E-03
            5695            5738     13.8024E-03     13.5259E-03
            5686            5738     13.8024E-03     13.5259E-03
            5697            5739     14.2101E-03     14.0186E-03
            5696            5739     14.2101E-03     14.0186E-03
            5688            5739     14.2101E-03     14.0186E-03
            5687            5739     14.2101E-03     14.0186E-03
            5698            5740     14.5104E-03     14.3625E-03
            5688            5740     14.5104E-03     14.3625E-03
            5689            5740     14.5104E-03     14.3625E-03
            5697            5740     14.5104E-03     14.3625E-03
            5689            5741     14.5104E-03     14.3625E-03
            5690            5741     14.5104E-03     14.3625E-03
            5699            5741     14.5104E-03     14.3625E-03
            5698            5741     14.5104E-03     14.3625E-03
            5691            5742     14.2101E-03     14.0186E-03
            5690            5742     14.2101E-03     14.0186E-03
            5699            5742     14.2101E-03     14.0186E-03
            5700            5742     14.2101E-03     14.0186E-03
            5701            5743     13.8024E-03     13.5259E-03
            5700            5743     13.8024E-03     13.5259E-03
            5692            5743     13.8024E-03     13.5259E-03
            5691            5743     13.8024E-03     13.5259E-03
            5702            5744     12.8719E-03     12.5229E-03
            5693            5744     12.8719E-03     12.5229E-03
            5701            5744     12.8719E-03     12.5229E-03
            5692            5744     12.8719E-03     12.5229E-03
            5695            5745     13.8598E-03     13.8209E-03
            5704            5745     13.8598E-03     13.8209E-03
            5694            5745     13.8598E-03     13.8209E-03
            5703            5745     13.8598E-03     13.8209E-03
            5695            5746     14.1149E-03     14.2118E-03
            5696            5746     14.1149E-03     14.2118E-03
            5705            5746     14.1149E-03     14.2118E-03
            5704            5746     14.1149E-03     14.2118E-03
            5696            5747     14.2032E-03     14.2618E-03
            5705            5747     14.2032E-03     14.2618E-03
            5697            5747     14.2032E-03     14.2618E-03
            5706            5747     14.2032E-03     14.2618E-03
            5706            5748     14.3377E-03     14.3698E-03
            5707            5748     14.3377E-03     14.3698E-03
            5698            5748     14.3377E-03     14.3698E-03
            5697            5748     14.3377E-03     14.3698E-03
            5707            5749     14.3377E-03     14.3698E-03
            5698            5749     14.3377E-03     14.3698E-03
            5699            5749     14.3377E-03     14.3698E-03
            5708            5749     14.3377E-03     14.3698E-03
            5708            5750     14.2032E-03     14.2618E-03
            5699            5750     14.2032E-03     14.2618E-03
            5700            5750     14.2032E-03     14.2618E-03
            5709            5750     14.2032E-03     14.2618E-03
            5710            5751     14.1149E-03     14.2118E-03
            5709            5751     14.1149E-03     14.2118E-03
            5700            5751     14.1149E-03     14.2118E-03
            5701            5751     14.1149E-03     14.2118E-03
            5710            5752     13.8598E-03     13.8209E-03
            5701            5752     13.8598E-03     13.8209E-03
            5702            5752     13.8598E-03     13.8209E-03
            5711            5752     13.8598E-03     13.8209E-03
            5704            5753     12.1300E-03     12.1805E-03
            5712            5753     12.1300E-03     12.1805E-03
            5713            5753     12.1300E-03     12.1805E-03
            5703            5753     12.1300E-03     12.1805E-03
            5704            5754     14.3636E-03     14.4166E-03
            5713            5754     14.3636E-03     14.4166E-03
            5714            5754     14.3636E-03     14.4166E-03
            5705            5754     14.3636E-03     14.4166E-03
            5714            5755     14.8756E-03     14.9232E-03
            5715            5755     14.8756E-03     14.9232E-03
            5705            5755     14.8756E-03     14.9232E-03
            5706            5755     14.8756E-03     14.9232E-03
            5706            5756     14.8479E-03     14.8724E-03
            5707            5756     14.8479E-03     14.8724E-03
            5715            5756     14.8479E-03     14.8724E-03
            5716            5756     14.8479E-03     14.8724E-03
            5708            5757     14.8479E-03     14.8724E-03
            5716            5757     14.8479E-03     14.8724E-03
            5717            5757     14.8479E-03     14.8724E-03
            5707            5757     14.8479E-03     14.8724E-03
            5717            5758     14.8756E-03     14.9232E-03
            5709            5758     14.8756E-03     14.9232E-03
            5718            5758     14.8756E-03     14.9232E-03
            5708            5758     14.8756E-03     14.9232E-03
            5719            5759     14.3636E-03     14.4166E-03
            5718            5759     14.3636E-03     14.4166E-03
            5710            5759     14.3636E-03     14.4166E-03
            5709            5759     14.3636E-03     14.4166E-03
            5711            5760     12.1300E-03     12.1805E-03
            5720            5760     12.1300E-03     12.1805E-03
            5719            5760     12.1300E-03     12.1805E-03
            5710            5760     12.1300E-03     12.1805E-03
            5713            5761     11.2385E-03     11.2817E-03
            5712            5761     11.2385E-03     11.2817E-03
            5721            5761     11.2385E-03     11.2817E-03
            5722            5761     11.2385E-03     11.2817E-03
            5722            5762     14.1571E-03     14.0959E-03
            5713            5762     14.1571E-03     14.0959E-03
            5714            5762     14.1571E-03     14.0959E-03
            5723            5762     14.1571E-03     14.0959E-03
            5724            5763     14.9493E-03     14.9201E-03
            5723            5763     14.9493E-03     14.9201E-03
            5714            5763     14.9493E-03     14.9201E-03
            5715            5763     14.9493E-03     14.9201E-03
            5724            5764     14.9728E-03     14.9614E-03
            5715            5764     14.9728E-03     14.9614E-03
            5716            5764     14.9728E-03     14.9614E-03
            5725            5764     14.9728E-03     14.9614E-03
            5725            5765     14.9728E-03     14.9614E-03
            5717            5765     14.9728E-03     14.9614E-03
            5716            5765     14.9728E-03     14.9614E-03
            5726            5765     14.9728E-03     14.9614E-03
            5718            5766     14.9493E-03     14.9201E-03
            5727            5766     14.9493E-03     14.9201E-03
            5726            5766     14.9493E-03     14.9201E-03
            5717            5766     14.9493E-03     14.9201E-03
            5718            5767     14.1571E-03     14.0959E-03
            5719            5767     14.1571E-03     14.0959E-03
            5728            5767     14.1571E-03     14.0959E-03
            5727            5767     14.1571E-03     14.0959E-03
            5729            5768     11.2385E-03     11.2817E-03
            5728            5768     11.2385E-03     11.2817E-03
            5720            5768     11.2385E-03     11.2817E-03
            5719            5768     11.2385E-03     11.2817E-03
            5721            5769     11.4225E-03     11.4258E-03
            5722            5769     11.4225E-03     11.4258E-03
            5730            5769     11.4225E-03     11.4258E-03
            5731            5769     11.4225E-03     11.4258E-03
            5722            5770     13.7289E-03     13.6555E-03
            5732            5770     13.7289E-03     13.6555E-03
            5731            5770     13.7289E-03     13.6555E-03
            5723            5770     13.7289E-03     13.6555E-03
            5732            5771     14.4936E-03     14.4349E-03
            5723            5771     14.4936E-03     14.4349E-03
            5724            5771     14.4936E-03     14.4349E-03
            5733            5771     14.4936E-03     14.4349E-03
            5725            5772     14.8288E-03     14.7993E-03
            5734            5772     14.8288E-03     14.7993E-03
            5724            5772     14.8288E-03     14.7993E-03
            5733            5772     14.8288E-03     14.7993E-03
            5734            5773     14.8288E-03     14.7993E-03
            5725            5773     14.8288E-03     14.7993E-03
            5726            5773     14.8288E-03     14.7993E-03
            5735            5773     14.8288E-03     14.7993E-03
            5735            5774     14.4936E-03     14.4349E-03
            5736            5774     14.4936E-03     14.4349E-03
            5727            5774     14.4936E-03     14.4349E-03
            5726            5774     14.4936E-03     14.4349E-03
            5727            5775     13.7289E-03     13.6555E-03
            5736            5775     13.7289E-03     13.6555E-03
            5728            5775     13.7289E-03     13.6555E-03
            5737            5775     13.7289E-03     13.6555E-03
            5738            5776     11.4225E-03     11.4258E-03
            5729            5776     11.4225E-03     11.4258E-03
            5728            5776     11.4225E-03     11.4258E-03
            5737            5776     11.4225E-03     11.4258E-03


  Minimum                            720.353E-18     557.599E-18
      At Element                            5373            5355
            Node                             805            5443

  Maximum                            74.3126E-03     70.6881E-03
      At Element                            3958            3868
            Node                               8             182

           Total                         91.3537         90.5410


Field Output reported at element nodes for region: A320-1.Region_3
   Computation algorithm: EXTRAPOLATE_COMPUTE_AVERAGE
   Averaged at nodes
   Averaging regions: ODB_REGIONS

   Element Label      Node Label         S.Mises         S.Mises
                                          @Loc 1          @Loc 2
-----------------------------------------------------------------
            1760               1     13.1860E-15     11.4025E-15
               1               1     13.1860E-15     11.4025E-15
            3550               2     5.76207E-03     5.72855E-03
            1757               2     5.76207E-03     5.72855E-03
              29               2     5.76207E-03     5.72855E-03
               4               2     5.76207E-03     5.72855E-03
              28               3     1.42457E-03     2.25899E-03
             329               3     1.42457E-03     2.25899E-03
              25               4     17.8207E-15     16.5149E-15
              78               5     12.4080E-03     12.2595E-03
             379               5     12.4080E-03     12.2595E-03
            2348               5     12.4080E-03     12.2595E-03
            3501               5     12.4080E-03     12.2595E-03
             415               6     67.3530E-03     72.7332E-03
             378               6     67.3530E-03     72.7332E-03
            2343               7     13.8770E-03     13.3631E-03
            5288               7     13.8770E-03     13.3631E-03
             421               7     13.8770E-03     13.3631E-03
             384               7     13.8770E-03     13.3631E-03
             457               8     74.7232E-03     86.7927E-03
             420               8     74.7232E-03     86.7927E-03
             426               9     13.7931E-03     14.9676E-03
             505               9     13.7931E-03     14.9676E-03
            4106               9     13.7931E-03     14.9676E-03
            5283               9     13.7931E-03     14.9676E-03
             745              10     60.5745E-03     64.2033E-03
             462              10     60.5745E-03     64.2033E-03
             463              11     28.1201E-15     26.2246E-15
            6572              11     28.1201E-15     26.2246E-15
            4067              12     7.01612E-03     6.99315E-03
             468              12     7.01612E-03     6.99315E-03
            6567              12     7.01612E-03     6.99315E-03
             544              12     7.01612E-03     6.99315E-03
             504              13     1.40560E-03     2.43481E-03
            4307              13     1.40560E-03     2.43481E-03
             499              14     34.8692E-15     33.5996E-15
            6603              15     1.40560E-03     2.43481E-03
             784              15     1.40560E-03     2.43481E-03
            1781              17     1.42457E-03     2.25899E-03
            3850              17     1.42457E-03     2.25899E-03
            1784              18     15.4962E-15     17.2978E-15
            3801              21     67.3530E-03     72.7332E-03
            2384              21     67.3530E-03     72.7332E-03
            2379              22     74.7232E-03     86.7927E-03
            5324              22     74.7232E-03     86.7927E-03
            5319              25     60.5745E-03     64.2033E-03
            4346              25     60.5745E-03     64.2033E-03
            6608              27     44.1469E-15     41.0234E-15
            1760              29     19.3259E-15     18.5733E-15
               2              29     19.3259E-15     18.5733E-15
               1              29     19.3259E-15     18.5733E-15
            1759              29     19.3259E-15     18.5733E-15
            1759              30     24.6185E-15     25.2214E-15
               2              30     24.6185E-15     25.2214E-15
            1758              30     24.6185E-15     25.2214E-15
               3              30     24.6185E-15     25.2214E-15
               3              31     24.0579E-15     25.4247E-15
            1757              31     24.0579E-15     25.4247E-15
            1758              31     24.0579E-15     25.4247E-15
               4              31     24.0579E-15     25.4247E-15
               4              32     5.61371E-03     5.57314E-03
              29              32     5.61371E-03     5.57314E-03
               8              32     5.61371E-03     5.57314E-03
              79              32     5.61371E-03     5.57314E-03
               8              33     5.15972E-03     5.11329E-03
             129              33     5.15972E-03     5.11329E-03
              79              33     5.15972E-03     5.11329E-03
              12              33     5.15972E-03     5.11329E-03
              16              34     4.41308E-03     4.37426E-03
              12              34     4.41308E-03     4.37426E-03
             179              34     4.41308E-03     4.37426E-03
             129              34     4.41308E-03     4.37426E-03
              16              35     3.36748E-03     3.39673E-03
             229              35     3.36748E-03     3.39673E-03
              20              35     3.36748E-03     3.39673E-03
             179              35     3.36748E-03     3.39673E-03
              24              36     2.24852E-03     2.38112E-03
              20              36     2.24852E-03     2.38112E-03
             229              36     2.24852E-03     2.38112E-03
             279              36     2.24852E-03     2.38112E-03
             279              37     1.57935E-03     2.08371E-03
             329              37     1.57935E-03     2.08371E-03
              28              37     1.57935E-03     2.08371E-03
              24              37     1.57935E-03     2.08371E-03
              28              38     22.7125E-15     20.6644E-15
              27              38     22.7125E-15     20.6644E-15
              26              39     29.1124E-15     27.1164E-15
              27              39     29.1124E-15     27.1164E-15
              25              40     18.6805E-15     17.4573E-15
              26              40     18.6805E-15     17.4573E-15
              21              41     26.6556E-15     24.9454E-15
              25              41     26.6556E-15     24.9454E-15
              21              42     45.9299E-15     48.4255E-15
              17              42     45.9299E-15     48.4255E-15
              17              43     40.4344E-15     45.2166E-15
              13              43     40.4344E-15     45.2166E-15
               9              44     22.3559E-15     19.8491E-15
              13              44     22.3559E-15     19.8491E-15
               5              45     14.4790E-15     11.5367E-15
               9              45     14.4790E-15     11.5367E-15
               1              46     11.1688E-15     11.7468E-15
               5              46     11.1688E-15     11.7468E-15
              29              47     11.5934E-03     11.4986E-03
            3550              47     11.5934E-03     11.4986E-03
            3549              47     11.5934E-03     11.4986E-03
              30              47     11.5934E-03     11.4986E-03
            3549              48     11.6368E-03     11.5786E-03
              30              48     11.6368E-03     11.5786E-03
              31              48     11.6368E-03     11.5786E-03
            3548              48     11.6368E-03     11.5786E-03
            3547              49     11.5950E-03     11.5577E-03
            3548              49     11.5950E-03     11.5577E-03
              32              49     11.5950E-03     11.5577E-03
              31              49     11.5950E-03     11.5577E-03
            3547              50     11.5513E-03     11.5683E-03
            3546              50     11.5513E-03     11.5683E-03
              32              50     11.5513E-03     11.5683E-03
              33              50     11.5513E-03     11.5683E-03
              34              51     11.6667E-03     11.5981E-03
            3545              51     11.6667E-03     11.5981E-03
              33              51     11.6667E-03     11.5981E-03
            3546              51     11.6667E-03     11.5981E-03
              35              52     11.6214E-03     11.3679E-03
            3545              52     11.6214E-03     11.3679E-03
              34              52     11.6214E-03     11.3679E-03
            3544              52     11.6214E-03     11.3679E-03
            3544              53     11.6775E-03     11.5563E-03
            3543              53     11.6775E-03     11.5563E-03
              36              53     11.6775E-03     11.5563E-03
              35              53     11.6775E-03     11.5563E-03
              37              54     11.9590E-03     11.8314E-03
            3543              54     11.9590E-03     11.8314E-03
              36              54     11.9590E-03     11.8314E-03
            3542              54     11.9590E-03     11.8314E-03
              38              55     12.0445E-03     11.7682E-03
            3542              55     12.0445E-03     11.7682E-03
              37              55     12.0445E-03     11.7682E-03
            3541              55     12.0445E-03     11.7682E-03
              39              56     12.0639E-03     11.8196E-03
              38              56     12.0639E-03     11.8196E-03
            3540              56     12.0639E-03     11.8196E-03
            3541              56     12.0639E-03     11.8196E-03
            3540              57     12.0456E-03     11.8439E-03
              40              57     12.0456E-03     11.8439E-03
            3539              57     12.0456E-03     11.8439E-03
              39              57     12.0456E-03     11.8439E-03
            3539              58     11.9999E-03     11.8965E-03
              41              58     11.9999E-03     11.8965E-03
            3538              58     11.9999E-03     11.8965E-03
              40              58     11.9999E-03     11.8965E-03
            3537              59     11.9644E-03     11.9978E-03
            3538              59     11.9644E-03     11.9978E-03
              42              59     11.9644E-03     11.9978E-03
              41              59     11.9644E-03     11.9978E-03
            3537              60     11.9210E-03     11.9975E-03
              43              60     11.9210E-03     11.9975E-03
            3536              60     11.9210E-03     11.9975E-03
              42              60     11.9210E-03     11.9975E-03
              44              61     11.7784E-03     12.1127E-03
            3535              61     11.7784E-03     12.1127E-03
              43              61     11.7784E-03     12.1127E-03
            3536              61     11.7784E-03     12.1127E-03
            3535              62     12.0650E-03     12.1926E-03
            3534              62     12.0650E-03     12.1926E-03
              44              62     12.0650E-03     12.1926E-03
              45              62     12.0650E-03     12.1926E-03
            3534              63     12.0410E-03     11.6611E-03
            3533              63     12.0410E-03     11.6611E-03
              46              63     12.0410E-03     11.6611E-03
              45              63     12.0410E-03     11.6611E-03
              47              64     11.9794E-03     11.9151E-03
            3533              64     11.9794E-03     11.9151E-03
              46              64     11.9794E-03     11.9151E-03
            3532              64     11.9794E-03     11.9151E-03
              48              65     12.2862E-03     12.2354E-03
            3531              65     12.2862E-03     12.2354E-03
            3532              65     12.2862E-03     12.2354E-03
              47              65     12.2862E-03     12.2354E-03
            3531              66     12.4593E-03     11.9680E-03
              48              66     12.4593E-03     11.9680E-03
              49              66     12.4593E-03     11.9680E-03
            3530              66     12.4593E-03     11.9680E-03
              49              67     12.5733E-03     12.1330E-03
            3530              67     12.5733E-03     12.1330E-03
            3529              67     12.5733E-03     12.1330E-03
              50              67     12.5733E-03     12.1330E-03
              50              68     12.5273E-03     12.2146E-03
            3528              68     12.5273E-03     12.2146E-03
              51              68     12.5273E-03     12.2146E-03
            3529              68     12.5273E-03     12.2146E-03
            3528              69     12.4534E-03     12.3201E-03
            3527              69     12.4534E-03     12.3201E-03
              52              69     12.4534E-03     12.3201E-03
              51              69     12.4534E-03     12.3201E-03
              52              70     12.3892E-03     12.5035E-03
            3526              70     12.3892E-03     12.5035E-03
              53              70     12.3892E-03     12.5035E-03
            3527              70     12.3892E-03     12.5035E-03
            3525              71     12.3008E-03     12.4932E-03
              54              71     12.3008E-03     12.4932E-03
              53              71     12.3008E-03     12.4932E-03
            3526              71     12.3008E-03     12.4932E-03
              55              72     12.0540E-03     12.6644E-03
            3525              72     12.0540E-03     12.6644E-03
            3524              72     12.0540E-03     12.6644E-03
              54              72     12.0540E-03     12.6644E-03
              55              73     12.4954E-03     12.7413E-03
            3524              73     12.4954E-03     12.7413E-03
              56              73     12.4954E-03     12.7413E-03
            3523              73     12.4954E-03     12.7413E-03
              57              74     12.4316E-03     11.9279E-03
              56              74     12.4316E-03     11.9279E-03
            3522              74     12.4316E-03     11.9279E-03
            3523              74     12.4316E-03     11.9279E-03
            3521              75     12.3228E-03     12.3808E-03
            3522              75     12.3228E-03     12.3808E-03
              57              75     12.3228E-03     12.3808E-03
              58              75     12.3228E-03     12.3808E-03
              59              76     12.8180E-03     12.8172E-03
            3520              76     12.8180E-03     12.8172E-03
              58              76     12.8180E-03     12.8172E-03
            3521              76     12.8180E-03     12.8172E-03
              60              77     13.1065E-03     12.3933E-03
            3519              77     13.1065E-03     12.3933E-03
            3520              77     13.1065E-03     12.3933E-03
              59              77     13.1065E-03     12.3933E-03
            3518              78     13.2847E-03     12.6965E-03
            3519              78     13.2847E-03     12.6965E-03
              60              78     13.2847E-03     12.6965E-03
              61              78     13.2847E-03     12.6965E-03
            3517              79     13.2362E-03     12.8277E-03
              62              79     13.2362E-03     12.8277E-03
              61              79     13.2362E-03     12.8277E-03
            3518              79     13.2362E-03     12.8277E-03
            3517              80     13.1423E-03     12.9985E-03
            3516              80     13.1423E-03     12.9985E-03
              63              80     13.1423E-03     12.9985E-03
              62              80     13.1423E-03     12.9985E-03
            3516              81     13.0532E-03     13.2534E-03
            3515              81     13.0532E-03     13.2534E-03
              64              81     13.0532E-03     13.2534E-03
              63              81     13.0532E-03     13.2534E-03
              65              82     12.9199E-03     13.2154E-03
            3514              82     12.9199E-03     13.2154E-03
              64              82     12.9199E-03     13.2154E-03
            3515              82     12.9199E-03     13.2154E-03
            3514              83     12.5582E-03     13.4357E-03
            3513              83     12.5582E-03     13.4357E-03
              65              83     12.5582E-03     13.4357E-03
              66              83     12.5582E-03     13.4357E-03
              67              84     13.1547E-03     13.4765E-03
            3513              84     13.1547E-03     13.4765E-03
            3512              84     13.1547E-03     13.4765E-03
              66              84     13.1547E-03     13.4765E-03
              68              85     13.0141E-03     12.3921E-03
            3511              85     13.0141E-03     12.3921E-03
            3512              85     13.0141E-03     12.3921E-03
              67              85     13.0141E-03     12.3921E-03
              68              86     12.8204E-03     13.0865E-03
            3511              86     12.8204E-03     13.0865E-03
            3510              86     12.8204E-03     13.0865E-03
              69              86     12.8204E-03     13.0865E-03
            3509              87     13.5759E-03     13.6814E-03
            3510              87     13.5759E-03     13.6814E-03
              70              87     13.5759E-03     13.6814E-03
              69              87     13.5759E-03     13.6814E-03
              71              88     13.9307E-03     13.1682E-03
            3508              88     13.9307E-03     13.1682E-03
              70              88     13.9307E-03     13.1682E-03
            3509              88     13.9307E-03     13.1682E-03
            3508              89     14.1352E-03     13.6299E-03
              72              89     14.1352E-03     13.6299E-03
            3507              89     14.1352E-03     13.6299E-03
              71              89     14.1352E-03     13.6299E-03
            3507              90     13.9398E-03     13.7936E-03
              73              90     13.9398E-03     13.7936E-03
            3506              90     13.9398E-03     13.7936E-03
              72              90     13.9398E-03     13.7936E-03
              74              91     13.8934E-03     13.9765E-03
            3506              91     13.8934E-03     13.9765E-03
              73              91     13.8934E-03     13.9765E-03
            3505              91     13.8934E-03     13.9765E-03
            3505              92     13.6926E-03     13.9204E-03
              75              92     13.6926E-03     13.9204E-03
            3504              92     13.6926E-03     13.9204E-03
              74              92     13.6926E-03     13.9204E-03
              76              93     13.1989E-03     14.1630E-03
            3504              93     13.1989E-03     14.1630E-03
            3503              93     13.1989E-03     14.1630E-03
              75              93     13.1989E-03     14.1630E-03
              77              94     13.8680E-03     14.1411E-03
            3502              94     13.8680E-03     14.1411E-03
              76              94     13.8680E-03     14.1411E-03
            3503              94     13.8680E-03     14.1411E-03
            3501              95     13.6143E-03     12.8657E-03
              78              95     13.6143E-03     12.8657E-03
            3502              95     13.6143E-03     12.8657E-03
              77              95     13.6143E-03     12.8657E-03
             379              96     17.1762E-03     17.8714E-03
             385              96     17.1762E-03     17.8714E-03
              78              96     17.1762E-03     17.8714E-03
             128              96     17.1762E-03     17.8714E-03
             385              97     27.7373E-03     30.2383E-03
             391              97     27.7373E-03     30.2383E-03
             128              97     27.7373E-03     30.2383E-03
             178              97     27.7373E-03     30.2383E-03
             178              98     38.8290E-03     43.5254E-03
             391              98     38.8290E-03     43.5254E-03
             228              98     38.8290E-03     43.5254E-03
             397              98     38.8290E-03     43.5254E-03
             228              99     48.4903E-03     56.1252E-03
             403              99     48.4903E-03     56.1252E-03
             397              99     48.4903E-03     56.1252E-03
             278              99     48.4903E-03     56.1252E-03
             409             100     56.0339E-03     65.7475E-03
             278             100     56.0339E-03     65.7475E-03
             328             100     56.0339E-03     65.7475E-03
             403             100     56.0339E-03     65.7475E-03
             328             101     63.2840E-03     71.0176E-03
             378             101     63.2840E-03     71.0176E-03
             409             101     63.2840E-03     71.0176E-03
             415             101     63.2840E-03     71.0176E-03
             377             102     75.5451E-03     72.7966E-03
             378             102     75.5451E-03     72.7966E-03
             377             103     72.0944E-03     67.9731E-03
             376             103     72.0944E-03     67.9731E-03
             376             104     65.2081E-03     67.1450E-03
             375             104     65.2081E-03     67.1450E-03
             375             105     64.3312E-03     62.8627E-03
             374             105     64.3312E-03     62.8627E-03
             374             106     61.5914E-03     61.5477E-03
             373             106     61.5914E-03     61.5477E-03
             372             107     59.7524E-03     58.6041E-03
             373             107     59.7524E-03     58.6041E-03
             372             108     56.6509E-03     57.6082E-03
             371             108     56.6509E-03     57.6082E-03
             370             109     57.2735E-03     54.0819E-03
             371             109     57.2735E-03     54.0819E-03
             369             110     55.8903E-03     53.0381E-03
             370             110     55.8903E-03     53.0381E-03
             369             111     54.7863E-03     61.1795E-03
             368             111     54.7863E-03     61.1795E-03
             368             112     61.3355E-03     59.1878E-03
             367             112     61.3355E-03     59.1878E-03
             367             113     58.1174E-03     54.8501E-03
             366             113     58.1174E-03     54.8501E-03
             366             114     52.1281E-03     53.7569E-03
             365             114     52.1281E-03     53.7569E-03
             365             115     51.0535E-03     49.8815E-03
             364             115     51.0535E-03     49.8815E-03
             363             116     48.4813E-03     48.3786E-03
             364             116     48.4813E-03     48.3786E-03
             362             117     46.4285E-03     46.1314E-03
             363             117     46.4285E-03     46.1314E-03
             361             118     44.4733E-03     43.6669E-03
             362             118     44.4733E-03     43.6669E-03
             361             119     41.7346E-03     42.2741E-03
             360             119     41.7346E-03     42.2741E-03
             359             120     41.4553E-03     39.1902E-03
             360             120     41.4553E-03     39.1902E-03
             359             121     39.9569E-03     37.7182E-03
             358             121     39.9569E-03     37.7182E-03
             357             122     39.8317E-03     44.4531E-03
             358             122     39.8317E-03     44.4531E-03
             357             123     45.2032E-03     43.7551E-03
             356             123     45.2032E-03     43.7551E-03
             356             124     42.2455E-03     39.8673E-03
             355             124     42.2455E-03     39.8673E-03
             355             125     37.1711E-03     38.4569E-03
             354             125     37.1711E-03     38.4569E-03
             354             126     35.8374E-03     34.9812E-03
             353             126     35.8374E-03     34.9812E-03
             352             127     33.3659E-03     33.3268E-03
             353             127     33.3659E-03     33.3268E-03
             352             128     31.3140E-03     31.0809E-03
             351             128     31.3140E-03     31.0809E-03
             351             129     29.2599E-03     28.7693E-03
             350             129     29.2599E-03     28.7693E-03
             350             130     26.7798E-03     26.9779E-03
             349             130     26.7798E-03     26.9779E-03
             348             131     25.5847E-03     24.2135E-03
             349             131     25.5847E-03     24.2135E-03
             347             132     23.8397E-03     22.3023E-03
             348             132     23.8397E-03     22.3023E-03
             346             133     24.7801E-03     27.6357E-03
             347             133     24.7801E-03     27.6357E-03
             345             134     29.0787E-03     28.3303E-03
             346             134     29.0787E-03     28.3303E-03
             345             135     26.3749E-03     24.8898E-03
             344             135     26.3749E-03     24.8898E-03
             343             136     22.2189E-03     23.1636E-03
             344             136     22.2189E-03     23.1636E-03
             342             137     20.6319E-03     20.0919E-03
             343             137     20.6319E-03     20.0919E-03
             342             138     18.2650E-03     18.2896E-03
             341             138     18.2650E-03     18.2896E-03
             340             139     16.2179E-03     16.0492E-03
             341             139     16.2179E-03     16.0492E-03
             339             140     14.0679E-03     13.8933E-03
             340             140     14.0679E-03     13.8933E-03
             339             141     11.8392E-03     11.7049E-03
             338             141     11.8392E-03     11.7049E-03
             337             142     9.72174E-03     9.27188E-03
             338             142     9.72174E-03     9.27188E-03
             336             143     7.82143E-03     7.00808E-03
             337             143     7.82143E-03     7.00808E-03
             336             144     9.46993E-03     10.5215E-03
             335             144     9.46993E-03     10.5215E-03
             334             145     12.1024E-03     12.0364E-03
             335             145     12.1024E-03     12.0364E-03
             333             146     9.45041E-03     8.77962E-03
             334             146     9.45041E-03     8.77962E-03
             333             147     5.97645E-03     6.56161E-03
             332             147     5.97645E-03     6.56161E-03
             332             148     3.97405E-03     3.60037E-03
             331             148     3.97405E-03     3.60037E-03
             330             149     2.17822E-03     1.96281E-03
             331             149     2.17822E-03     1.96281E-03
             330             150     2.22979E-03     2.98103E-03
             329             150     2.22979E-03     2.98103E-03
            2348             151     12.9790E-03     13.8427E-03
             379             151     12.9790E-03     13.8427E-03
            2347             151     12.9790E-03     13.8427E-03
             380             151     12.9790E-03     13.8427E-03
             381             152     13.2949E-03     14.1493E-03
            2347             152     13.2949E-03     14.1493E-03
             380             152     13.2949E-03     14.1493E-03
            2346             152     13.2949E-03     14.1493E-03
            2345             153     13.3483E-03     13.8590E-03
             382             153     13.3483E-03     13.8590E-03
             381             153     13.3483E-03     13.8590E-03
            2346             153     13.3483E-03     13.8590E-03
            2345             154     14.6538E-03     14.0764E-03
             382             154     14.6538E-03     14.0764E-03
            2344             154     14.6538E-03     14.0764E-03
             383             154     14.6538E-03     14.0764E-03
             383             155     14.0602E-03     12.8597E-03
             384             155     14.0602E-03     12.8597E-03
            2343             155     14.0602E-03     12.8597E-03
            2344             155     14.0602E-03     12.8597E-03
             427             156     18.6426E-03     20.5332E-03
             390             156     18.6426E-03     20.5332E-03
             384             156     18.6426E-03     20.5332E-03
             421             156     18.6426E-03     20.5332E-03
             427             157     28.9770E-03     35.0114E-03
             390             157     28.9770E-03     35.0114E-03
             396             157     28.9770E-03     35.0114E-03
             433             157     28.9770E-03     35.0114E-03
             402             158     39.6186E-03     49.2019E-03
             396             158     39.6186E-03     49.2019E-03
             439             158     39.6186E-03     49.2019E-03
             433             158     39.6186E-03     49.2019E-03
             408             159     48.8109E-03     63.8108E-03
             439             159     48.8109E-03     63.8108E-03
             445             159     48.8109E-03     63.8108E-03
             402             159     48.8109E-03     63.8108E-03
             445             160     56.0370E-03     76.3779E-03
             414             160     56.0370E-03     76.3779E-03
             408             160     56.0370E-03     76.3779E-03
             451             160     56.0370E-03     76.3779E-03
             420             161     66.9334E-03     84.0056E-03
             414             161     66.9334E-03     84.0056E-03
             457             161     66.9334E-03     84.0056E-03
             451             161     66.9334E-03     84.0056E-03
             420             162     78.9026E-03     75.7952E-03
             419             162     78.9026E-03     75.7952E-03
             419             163     74.9627E-03     71.5221E-03
             418             163     74.9627E-03     71.5221E-03
             418             164     70.7607E-03     68.9648E-03
             417             164     70.7607E-03     68.9648E-03
             417             165     69.5240E-03     65.8617E-03
             416             165     69.5240E-03     65.8617E-03
             415             166     63.4146E-03     67.6606E-03
             416             166     63.4146E-03     67.6606E-03
             422             167     16.6577E-03     15.1840E-03
            5288             167     16.6577E-03     15.1840E-03
            5287             167     16.6577E-03     15.1840E-03
             421             167     16.6577E-03     15.1840E-03
            5287             168     16.9305E-03     16.4945E-03
            5286             168     16.9305E-03     16.4945E-03
             423             168     16.9305E-03     16.4945E-03
             422             168     16.9305E-03     16.4945E-03
            5286             169     16.0468E-03     16.5602E-03
             423             169     16.0468E-03     16.5602E-03
             424             169     16.0468E-03     16.5602E-03
            5285             169     16.0468E-03     16.5602E-03
            5284             170     16.2083E-03     15.9106E-03
             424             170     16.2083E-03     15.9106E-03
             425             170     16.2083E-03     15.9106E-03
            5285             170     16.2083E-03     15.9106E-03
             425             171     16.0218E-03     17.0250E-03
            5284             171     16.0218E-03     17.0250E-03
            5283             171     16.0218E-03     17.0250E-03
             426             171     16.0218E-03     17.0250E-03
             426             172     18.3070E-03     19.8831E-03
             432             172     18.3070E-03     19.8831E-03
             505             172     18.3070E-03     19.8831E-03
             545             172     18.3070E-03     19.8831E-03
             585             173     27.9210E-03     30.3824E-03
             545             173     27.9210E-03     30.3824E-03
             432             173     27.9210E-03     30.3824E-03
             438             173     27.9210E-03     30.3824E-03
             438             174     37.6987E-03     41.4371E-03
             625             174     37.6987E-03     41.4371E-03
             585             174     37.6987E-03     41.4371E-03
             444             174     37.6987E-03     41.4371E-03
             665             175     46.2468E-03     52.3778E-03
             625             175     46.2468E-03     52.3778E-03
             450             175     46.2468E-03     52.3778E-03
             444             175     46.2468E-03     52.3778E-03
             705             176     53.1500E-03     61.1122E-03
             456             176     53.1500E-03     61.1122E-03
             665             176     53.1500E-03     61.1122E-03
             450             176     53.1500E-03     61.1122E-03
             705             177     58.3786E-03     64.2901E-03
             745             177     58.3786E-03     64.2901E-03
             456             177     58.3786E-03     64.2901E-03
             462             177     58.3786E-03     64.2901E-03
             461             178     66.2726E-03     63.3586E-03
             462             178     66.2726E-03     63.3586E-03
             461             179     69.3339E-03     64.2824E-03
             460             179     69.3339E-03     64.2824E-03
             459             180     67.7952E-03     71.6186E-03
             460             180     67.7952E-03     71.6186E-03
             459             181     77.1688E-03     71.2388E-03
             458             181     77.1688E-03     71.2388E-03
             458             182     80.6470E-03     78.0313E-03
             457             182     80.6470E-03     78.0313E-03
            6572             183     20.9565E-15     17.3265E-15
             464             183     20.9565E-15     17.3265E-15
             463             183     20.9565E-15     17.3265E-15
            6571             183     20.9565E-15     17.3265E-15
             465             184     19.8161E-15     19.0034E-15
            6570             184     19.8161E-15     19.0034E-15
            6571             184     19.8161E-15     19.0034E-15
             464             184     19.8161E-15     19.0034E-15
             465             185     20.5967E-15     23.9699E-15
             466             185     20.5967E-15     23.9699E-15
            6570             185     20.5967E-15     23.9699E-15
            6569             185     20.5967E-15     23.9699E-15
            6569             186     12.7631E-15     14.6819E-15
             467             186     12.7631E-15     14.6819E-15
             466             186     12.7631E-15     14.6819E-15
            6568             186     12.7631E-15     14.6819E-15
             468             187     12.8600E-15     11.8389E-15
             467             187     12.8600E-15     11.8389E-15
            6567             187     12.8600E-15     11.8389E-15
            6568             187     12.8600E-15     11.8389E-15
             474             188     6.84754E-03     6.80747E-03
            4107             188     6.84754E-03     6.80747E-03
            4067             188     6.84754E-03     6.80747E-03
             468             188     6.84754E-03     6.80747E-03
             474             189     6.32701E-03     6.28351E-03
             480             189     6.32701E-03     6.28351E-03
            4147             189     6.32701E-03     6.28351E-03
            4107             189     6.32701E-03     6.28351E-03
             486             190     5.49447E-03     5.43396E-03
            4147             190     5.49447E-03     5.43396E-03
            4187             190     5.49447E-03     5.43396E-03
             480             190     5.49447E-03     5.43396E-03
            4187             191     4.32420E-03     4.25085E-03
             492             191     4.32420E-03     4.25085E-03
             486             191     4.32420E-03     4.25085E-03
            4227             191     4.32420E-03     4.25085E-03
             498             192     2.85492E-03     2.88593E-03
            4227             192     2.85492E-03     2.88593E-03
             492             192     2.85492E-03     2.88593E-03
            4267             192     2.85492E-03     2.88593E-03
            4307             193     1.74046E-03     2.31383E-03
             498             193     1.74046E-03     2.31383E-03
             504             193     1.74046E-03     2.31383E-03
            4267             193     1.74046E-03     2.31383E-03
             503             194     29.5633E-15     28.6594E-15
             504             194     29.5633E-15     28.6594E-15
             503             195     38.5269E-15     38.9194E-15
             502             195     38.5269E-15     38.9194E-15
             501             196     33.9374E-15     34.3318E-15
             502             196     33.9374E-15     34.3318E-15
             501             197     34.2857E-15     32.0189E-15
             500             197     34.2857E-15     32.0189E-15
             500             198     36.8430E-15     34.3937E-15
             499             198     36.8430E-15     34.3937E-15
             493             199     32.0209E-15     33.1270E-15
             499             199     32.0209E-15     33.1270E-15
             493             200     26.1061E-15     30.2736E-15
             487             200     26.1061E-15     30.2736E-15
             487             201     22.6929E-15     24.0561E-15
             481             201     22.6929E-15     24.0561E-15
             475             202     20.9638E-15     21.0769E-15
             481             202     20.9638E-15     21.0769E-15
             475             203     19.5090E-15     20.7794E-15
             469             203     19.5090E-15     20.7794E-15
             463             204     23.0102E-15     22.3133E-15
             469             204     23.0102E-15     22.3133E-15
            4105             205     13.2877E-03     13.0256E-03
            4106             205     13.2877E-03     13.0256E-03
             505             205     13.2877E-03     13.0256E-03
             506             205     13.2877E-03     13.0256E-03
             507             206     15.9932E-03     15.2212E-03
             506             206     15.9932E-03     15.2212E-03
            4105             206     15.9932E-03     15.2212E-03
            4104             206     15.9932E-03     15.2212E-03
             508             207     16.1790E-03     16.5211E-03
            4103             207     16.1790E-03     16.5211E-03
            4104             207     16.1790E-03     16.5211E-03
             507             207     16.1790E-03     16.5211E-03
             509             208     15.4588E-03     16.4827E-03
            4103             208     15.4588E-03     16.4827E-03
            4102             208     15.4588E-03     16.4827E-03
             508             208     15.4588E-03     16.4827E-03
            4101             209     15.8766E-03     16.2163E-03
             509             209     15.8766E-03     16.2163E-03
             510             209     15.8766E-03     16.2163E-03
            4102             209     15.8766E-03     16.2163E-03
             510             210     16.0483E-03     16.2685E-03
             511             210     16.0483E-03     16.2685E-03
            4100             210     16.0483E-03     16.2685E-03
            4101             210     16.0483E-03     16.2685E-03
             512             211     16.1522E-03     15.9932E-03
            4100             211     16.1522E-03     15.9932E-03
            4099             211     16.1522E-03     15.9932E-03
             511             211     16.1522E-03     15.9932E-03
            4099             212     16.2714E-03     15.8108E-03
             513             212     16.2714E-03     15.8108E-03
             512             212     16.2714E-03     15.8108E-03
            4098             212     16.2714E-03     15.8108E-03
            4097             213     16.3401E-03     15.6582E-03
            4098             213     16.3401E-03     15.6582E-03
             514             213     16.3401E-03     15.6582E-03
             513             213     16.3401E-03     15.6582E-03
            4097             214     16.1268E-03     15.3143E-03
            4096             214     16.1268E-03     15.3143E-03
             514             214     16.1268E-03     15.3143E-03
             515             214     16.1268E-03     15.3143E-03
            4095             215     15.8017E-03     15.8273E-03
             515             215     15.8017E-03     15.8273E-03
             516             215     15.8017E-03     15.8273E-03
            4096             215     15.8017E-03     15.8273E-03
             517             216     15.2598E-03     15.3126E-03
            4094             216     15.2598E-03     15.3126E-03
             516             216     15.2598E-03     15.3126E-03
            4095             216     15.2598E-03     15.3126E-03
            4093             217     15.4269E-03     14.7940E-03
             518             217     15.4269E-03     14.7940E-03
             517             217     15.4269E-03     14.7940E-03
            4094             217     15.4269E-03     14.7940E-03
            4092             218     15.4975E-03     15.7785E-03
            4093             218     15.4975E-03     15.7785E-03
             518             218     15.4975E-03     15.7785E-03
             519             218     15.4975E-03     15.7785E-03
             520             219     14.9304E-03     15.7053E-03
            4092             219     14.9304E-03     15.7053E-03
            4091             219     14.9304E-03     15.7053E-03
             519             219     14.9304E-03     15.7053E-03
            4090             220     15.1776E-03     15.4914E-03
             520             220     15.1776E-03     15.4914E-03
             521             220     15.1776E-03     15.4914E-03
            4091             220     15.1776E-03     15.4914E-03
            4089             221     15.2461E-03     15.4987E-03
             522             221     15.2461E-03     15.4987E-03
            4090             221     15.2461E-03     15.4987E-03
             521             221     15.2461E-03     15.4987E-03
            4089             222     15.3025E-03     15.2865E-03
             523             222     15.3025E-03     15.2865E-03
             522             222     15.3025E-03     15.2865E-03
            4088             222     15.3025E-03     15.2865E-03
             523             223     15.4148E-03     15.0752E-03
            4088             223     15.4148E-03     15.0752E-03
            4087             223     15.4148E-03     15.0752E-03
             524             223     15.4148E-03     15.0752E-03
             524             224     15.4185E-03     14.9679E-03
             525             224     15.4185E-03     14.9679E-03
            4087             224     15.4185E-03     14.9679E-03
            4086             224     15.4185E-03     14.9679E-03
            4085             225     15.4687E-03     14.8766E-03
             525             225     15.4687E-03     14.8766E-03
             526             225     15.4687E-03     14.8766E-03
            4086             225     15.4687E-03     14.8766E-03
            4085             226     15.3157E-03     14.7131E-03
            4084             226     15.3157E-03     14.7131E-03
             526             226     15.3157E-03     14.7131E-03
             527             226     15.3157E-03     14.7131E-03
            4084             227     15.1232E-03     15.0195E-03
             527             227     15.1232E-03     15.0195E-03
             528             227     15.1232E-03     15.0195E-03
            4083             227     15.1232E-03     15.0195E-03
             528             228     14.7695E-03     14.6668E-03
             529             228     14.7695E-03     14.6668E-03
            4083             228     14.7695E-03     14.6668E-03
            4082             228     14.7695E-03     14.6668E-03
             530             229     14.8581E-03     14.4107E-03
             529             229     14.8581E-03     14.4107E-03
            4081             229     14.8581E-03     14.4107E-03
            4082             229     14.8581E-03     14.4107E-03
             531             230     14.8965E-03     15.0017E-03
            4080             230     14.8965E-03     15.0017E-03
             530             230     14.8965E-03     15.0017E-03
            4081             230     14.8965E-03     15.0017E-03
            4080             231     14.5775E-03     14.9167E-03
            4079             231     14.5775E-03     14.9167E-03
             532             231     14.5775E-03     14.9167E-03
             531             231     14.5775E-03     14.9167E-03
            4078             232     14.7277E-03     14.7878E-03
             532             232     14.7277E-03     14.7878E-03
             533             232     14.7277E-03     14.7878E-03
            4079             232     14.7277E-03     14.7878E-03
             534             233     14.7778E-03     14.7941E-03
             533             233     14.7778E-03     14.7941E-03
            4077             233     14.7778E-03     14.7941E-03
            4078             233     14.7778E-03     14.7941E-03
            4076             234     14.8135E-03     14.6998E-03
             534             234     14.8135E-03     14.6998E-03
             535             234     14.8135E-03     14.6998E-03
            4077             234     14.8135E-03     14.6998E-03
             535             235     14.8617E-03     14.6493E-03
            4075             235     14.8617E-03     14.6493E-03
            4076             235     14.8617E-03     14.6493E-03
             536             235     14.8617E-03     14.6493E-03
            4075             236     14.8759E-03     14.6350E-03
             536             236     14.8759E-03     14.6350E-03
            4074             236     14.8759E-03     14.6350E-03
             537             236     14.8759E-03     14.6350E-03
            4074             237     14.8773E-03     14.5939E-03
            4073             237     14.8773E-03     14.5939E-03
             537             237     14.8773E-03     14.5939E-03
             538             237     14.8773E-03     14.5939E-03
            4072             238     14.7882E-03     14.6190E-03
             538             238     14.7882E-03     14.6190E-03
             539             238     14.7882E-03     14.6190E-03
            4073             238     14.7882E-03     14.6190E-03
             539             239     14.3466E-03     14.2033E-03
            4072             239     14.3466E-03     14.2033E-03
            4071             239     14.3466E-03     14.2033E-03
             540             239     14.3466E-03     14.2033E-03
            4070             240     14.1419E-03     13.8822E-03
             540             240     14.1419E-03     13.8822E-03
             541             240     14.1419E-03     13.8822E-03
            4071             240     14.1419E-03     13.8822E-03
             541             241     14.1693E-03     14.0987E-03
             542             241     14.1693E-03     14.0987E-03
            4070             241     14.1693E-03     14.0987E-03
            4069             241     14.1693E-03     14.0987E-03
            4068             242     14.0883E-03     14.0672E-03
            4069             242     14.0883E-03     14.0672E-03
             543             242     14.0883E-03     14.0672E-03
             542             242     14.0883E-03     14.0672E-03
            4068             243     14.0918E-03     13.9841E-03
             544             243     14.0918E-03     13.9841E-03
            4067             243     14.0918E-03     13.9841E-03
             543             243     14.0918E-03     13.9841E-03
            6567             244     6.84754E-03     6.80747E-03
            6573             244     6.84754E-03     6.80747E-03
             544             244     6.84754E-03     6.80747E-03
             584             244     6.84754E-03     6.80747E-03
            6573             245     6.32701E-03     6.28351E-03
             624             245     6.32701E-03     6.28351E-03
            6579             245     6.32701E-03     6.28351E-03
             584             245     6.32701E-03     6.28351E-03
            6579             246     5.49447E-03     5.43396E-03
             664             246     5.49447E-03     5.43396E-03
            6585             246     5.49447E-03     5.43396E-03
             624             246     5.49447E-03     5.43396E-03
             704             247     4.32420E-03     4.25085E-03
             664             247     4.32420E-03     4.25085E-03
            6591             247     4.32420E-03     4.25085E-03
            6585             247     4.32420E-03     4.25085E-03
            6597             248     2.85492E-03     2.88593E-03
             744             248     2.85492E-03     2.88593E-03
            6591             248     2.85492E-03     2.88593E-03
             704             248     2.85492E-03     2.88593E-03
             784             249     1.74046E-03     2.31383E-03
             744             249     1.74046E-03     2.31383E-03
            6603             249     1.74046E-03     2.31383E-03
            6597             249     1.74046E-03     2.31383E-03
             783             250     2.40580E-03     3.41726E-03
             784             250     2.40580E-03     3.41726E-03
             783             251     2.99267E-03     3.53954E-03
             782             251     2.99267E-03     3.53954E-03
             781             252     6.99822E-03     6.17060E-03
             782             252     6.99822E-03     6.17060E-03
             780             253     10.3491E-03     10.5120E-03
             781             253     10.3491E-03     10.5120E-03
             780             254     7.96007E-03     8.89522E-03
             779             254     7.96007E-03     8.89522E-03
             778             255     5.99373E-03     5.23112E-03
             779             255     5.99373E-03     5.23112E-03
             777             256     8.23866E-03     7.92199E-03
             778             256     8.23866E-03     7.92199E-03
             777             257     11.0483E-03     10.8110E-03
             776             257     11.0483E-03     10.8110E-03
             776             258     13.7236E-03     13.5849E-03
             775             258     13.7236E-03     13.5849E-03
             774             259     16.3795E-03     16.1919E-03
             775             259     16.3795E-03     16.1919E-03
             774             260     18.8930E-03     18.9232E-03
             773             260     18.8930E-03     18.9232E-03
             772             261     21.7523E-03     21.1802E-03
             773             261     21.7523E-03     21.1802E-03
             772             262     23.7709E-03     24.8619E-03
             771             262     23.7709E-03     24.8619E-03
             770             263     28.6976E-03     27.0129E-03
             771             263     28.6976E-03     27.0129E-03
             770             264     31.8910E-03     31.1570E-03
             769             264     31.8910E-03     31.1570E-03
             768             265     26.7904E-03     29.9391E-03
             769             265     26.7904E-03     29.9391E-03
             768             266     25.3601E-03     23.6152E-03
             767             266     25.3601E-03     23.6152E-03
             767             267     27.4985E-03     25.9248E-03
             766             267     27.4985E-03     25.9248E-03
             765             268     29.0428E-03     29.2308E-03
             766             268     29.0428E-03     29.2308E-03
             765             269     32.0046E-03     31.4204E-03
             764             269     32.0046E-03     31.4204E-03
             763             270     34.4555E-03     34.1972E-03
             764             270     34.4555E-03     34.1972E-03
             763             271     36.9583E-03     36.6858E-03
             762             271     36.9583E-03     36.6858E-03
             762             272     39.4236E-03     39.3611E-03
             761             272     39.4236E-03     39.3611E-03
             761             273     42.3563E-03     41.3917E-03
             760             273     42.3563E-03     41.3917E-03
             759             274     43.9883E-03     45.5691E-03
             760             274     43.9883E-03     45.5691E-03
             759             275     50.1423E-03     47.2264E-03
             758             275     50.1423E-03     47.2264E-03
             757             276     53.5811E-03     51.9323E-03
             758             276     53.5811E-03     51.9323E-03
             756             277     46.8221E-03     52.4119E-03
             757             277     46.8221E-03     52.4119E-03
             755             278     46.7087E-03     44.0583E-03
             756             278     46.7087E-03     44.0583E-03
             754             279     48.6250E-03     45.8827E-03
             755             279     48.6250E-03     45.8827E-03
             754             280     49.0378E-03     49.6525E-03
             753             280     49.0378E-03     49.6525E-03
             752             281     52.3317E-03     51.4095E-03
             753             281     52.3317E-03     51.4095E-03
             752             282     54.7589E-03     54.3962E-03
             751             282     54.7589E-03     54.3962E-03
             751             283     57.2837E-03     57.1406E-03
             750             283     57.2837E-03     57.1406E-03
             749             284     60.3922E-03     59.0362E-03
             750             284     60.3922E-03     59.0362E-03
             748             285     61.7879E-03     63.7533E-03
             749             285     61.7879E-03     63.7533E-03
             748             286     69.1040E-03     65.0642E-03
             747             286     69.1040E-03     65.0642E-03
             747             287     72.8922E-03     70.3868E-03
             746             287     72.8922E-03     70.3868E-03
             745             288     64.6017E-03     70.1146E-03
             746             288     64.6017E-03     70.1146E-03
            1782             306     24.6305E-15     26.2948E-15
            1781             306     24.6305E-15     26.2948E-15
            1783             307     37.7946E-15     36.2948E-15
            1782             307     37.7946E-15     36.2948E-15
            1784             308     26.4180E-15     25.5891E-15
            1783             308     26.4180E-15     25.5891E-15
            1760             412     16.4811E-15     13.7986E-15
            1764             412     16.4811E-15     13.7986E-15
            1764             413     15.7965E-15     14.2164E-15
            1768             413     15.7965E-15     14.2164E-15
            1772             414     16.7980E-15     14.4304E-15
            1768             414     16.7980E-15     14.4304E-15
            1776             415     20.0121E-15     19.0595E-15
            1772             415     20.0121E-15     19.0595E-15
            1776             416     17.6948E-15     18.1582E-15
            1780             416     17.6948E-15     18.1582E-15
            1780             417     16.5233E-15     16.9379E-15
            1784             417     16.5233E-15     16.9379E-15
            3800             418     1.57935E-03     2.08371E-03
            1777             418     1.57935E-03     2.08371E-03
            3850             418     1.57935E-03     2.08371E-03
            1781             418     1.57935E-03     2.08371E-03
            3800             419     2.24852E-03     2.38112E-03
            1777             419     2.24852E-03     2.38112E-03
            3750             419     2.24852E-03     2.38112E-03
            1773             419     2.24852E-03     2.38112E-03
            3700             420     3.36748E-03     3.39673E-03
            3750             420     3.36748E-03     3.39673E-03
            1769             420     3.36748E-03     3.39673E-03
            1773             420     3.36748E-03     3.39673E-03
            3650             421     4.41308E-03     4.37426E-03
            3700             421     4.41308E-03     4.37426E-03
            1769             421     4.41308E-03     4.37426E-03
            1765             421     4.41308E-03     4.37426E-03
            3650             422     5.15972E-03     5.11329E-03
            1765             422     5.15972E-03     5.11329E-03
            1761             422     5.15972E-03     5.11329E-03
            3600             422     5.15972E-03     5.11329E-03
            3600             423     5.61371E-03     5.57314E-03
            1761             423     5.61371E-03     5.57314E-03
            3550             423     5.61371E-03     5.57314E-03
            1757             423     5.61371E-03     5.57314E-03
            3801             440     75.5451E-03     72.7966E-03
            3802             440     75.5451E-03     72.7966E-03
            3803             441     72.0944E-03     67.9731E-03
            3802             441     72.0944E-03     67.9731E-03
            3804             442     65.2081E-03     67.1450E-03
            3803             442     65.2081E-03     67.1450E-03
            3805             443     64.3312E-03     62.8627E-03
            3804             443     64.3312E-03     62.8627E-03
            3806             444     61.5914E-03     61.5477E-03
            3805             444     61.5914E-03     61.5477E-03
            3807             445     59.7524E-03     58.6041E-03
            3806             445     59.7524E-03     58.6041E-03
            3808             446     56.6509E-03     57.6082E-03
            3807             446     56.6509E-03     57.6082E-03
            3808             447     57.2735E-03     54.0819E-03
            3809             447     57.2735E-03     54.0819E-03
            3809             448     55.8903E-03     53.0381E-03
            3810             448     55.8903E-03     53.0381E-03
            3811             449     54.7863E-03     61.1795E-03
            3810             449     54.7863E-03     61.1795E-03
            3812             450     61.3355E-03     59.1878E-03
            3811             450     61.3355E-03     59.1878E-03
            3813             451     58.1174E-03     54.8501E-03
            3812             451     58.1174E-03     54.8501E-03
            3813             452     52.1281E-03     53.7569E-03
            3814             452     52.1281E-03     53.7569E-03
            3814             453     51.0535E-03     49.8815E-03
            3815             453     51.0535E-03     49.8815E-03
            3816             454     48.4813E-03     48.3786E-03
            3815             454     48.4813E-03     48.3786E-03
            3816             455     46.4285E-03     46.1314E-03
            3817             455     46.4285E-03     46.1314E-03
            3817             456     44.4733E-03     43.6669E-03
            3818             456     44.4733E-03     43.6669E-03
            3819             457     41.7346E-03     42.2741E-03
            3818             457     41.7346E-03     42.2741E-03
            3819             458     41.4553E-03     39.1902E-03
            3820             458     41.4553E-03     39.1902E-03
            3821             459     39.9569E-03     37.7182E-03
            3820             459     39.9569E-03     37.7182E-03
            3821             460     39.8317E-03     44.4531E-03
            3822             460     39.8317E-03     44.4531E-03
            3823             461     45.2032E-03     43.7551E-03
            3822             461     45.2032E-03     43.7551E-03
            3824             462     42.2455E-03     39.8673E-03
            3823             462     42.2455E-03     39.8673E-03
            3825             463     37.1711E-03     38.4569E-03
            3824             463     37.1711E-03     38.4569E-03
            3825             464     35.8374E-03     34.9812E-03
            3826             464     35.8374E-03     34.9812E-03
            3827             465     33.3659E-03     33.3268E-03
            3826             465     33.3659E-03     33.3268E-03
            3828             466     31.3140E-03     31.0809E-03
            3827             466     31.3140E-03     31.0809E-03
            3829             467     29.2599E-03     28.7693E-03
            3828             467     29.2599E-03     28.7693E-03
            3829             468     26.7798E-03     26.9779E-03
            3830             468     26.7798E-03     26.9779E-03
            3830             469     25.5847E-03     24.2135E-03
            3831             469     25.5847E-03     24.2135E-03
            3832             470     23.8397E-03     22.3023E-03
            3831             470     23.8397E-03     22.3023E-03
            3833             471     24.7801E-03     27.6357E-03
            3832             471     24.7801E-03     27.6357E-03
            3834             472     29.0787E-03     28.3303E-03
            3833             472     29.0787E-03     28.3303E-03
            3834             473     26.3749E-03     24.8898E-03
            3835             473     26.3749E-03     24.8898E-03
            3836             474     22.2189E-03     23.1636E-03
            3835             474     22.2189E-03     23.1636E-03
            3836             475     20.6319E-03     20.0919E-03
            3837             475     20.6319E-03     20.0919E-03
            3837             476     18.2650E-03     18.2896E-03
            3838             476     18.2650E-03     18.2896E-03
            3838             477     16.2179E-03     16.0492E-03
            3839             477     16.2179E-03     16.0492E-03
            3839             478     14.0679E-03     13.8933E-03
            3840             478     14.0679E-03     13.8933E-03
            3841             479     11.8392E-03     11.7049E-03
            3840             479     11.8392E-03     11.7049E-03
            3842             480     9.72174E-03     9.27188E-03
            3841             480     9.72174E-03     9.27188E-03
            3843             481     7.82143E-03     7.00808E-03
            3842             481     7.82143E-03     7.00808E-03
            3844             482     9.46993E-03     10.5215E-03
            3843             482     9.46993E-03     10.5215E-03
            3845             483     12.1024E-03     12.0364E-03
            3844             483     12.1024E-03     12.0364E-03
            3846             484     9.45041E-03     8.77962E-03
            3845             484     9.45041E-03     8.77962E-03
            3846             485     5.97645E-03     6.56161E-03
            3847             485     5.97645E-03     6.56161E-03
            3848             486     3.97405E-03     3.60037E-03
            3847             486     3.97405E-03     3.60037E-03
            3849             487     2.17822E-03     1.96281E-03
            3848             487     2.17822E-03     1.96281E-03
            3850             488     2.22979E-03     2.98103E-03
            3849             488     2.22979E-03     2.98103E-03
            2354             514     17.1762E-03     17.8714E-03
            3501             514     17.1762E-03     17.8714E-03
            2348             514     17.1762E-03     17.8714E-03
            3551             514     17.1762E-03     17.8714E-03
            3601             515     27.7373E-03     30.2383E-03
            3551             515     27.7373E-03     30.2383E-03
            2354             515     27.7373E-03     30.2383E-03
            2360             515     27.7373E-03     30.2383E-03
            2366             516     38.8290E-03     43.5254E-03
            3601             516     38.8290E-03     43.5254E-03
            2360             516     38.8290E-03     43.5254E-03
            3651             516     38.8290E-03     43.5254E-03
            3701             517     48.4903E-03     56.1252E-03
            3651             517     48.4903E-03     56.1252E-03
            2366             517     48.4903E-03     56.1252E-03
            2372             517     48.4903E-03     56.1252E-03
            2372             518     56.0339E-03     65.7475E-03
            3701             518     56.0339E-03     65.7475E-03
            3751             518     56.0339E-03     65.7475E-03
            2378             518     56.0339E-03     65.7475E-03
            3751             519     63.2840E-03     71.0176E-03
            2378             519     63.2840E-03     71.0176E-03
            2384             519     63.2840E-03     71.0176E-03
            3801             519     63.2840E-03     71.0176E-03
            2384             520     63.4146E-03     67.6606E-03
            2383             520     63.4146E-03     67.6606E-03
            2383             521     69.5240E-03     65.8617E-03
            2382             521     69.5240E-03     65.8617E-03
            2381             522     70.7607E-03     68.9648E-03
            2382             522     70.7607E-03     68.9648E-03
            2380             523     74.9627E-03     71.5221E-03
            2381             523     74.9627E-03     71.5221E-03
            2380             524     78.9026E-03     75.7952E-03
            2379             524     78.9026E-03     75.7952E-03
            2379             525     66.9334E-03     84.0056E-03
            5324             525     66.9334E-03     84.0056E-03
            2373             525     66.9334E-03     84.0056E-03
            5318             525     66.9334E-03     84.0056E-03
            5312             526     56.0370E-03     76.3779E-03
            2367             526     56.0370E-03     76.3779E-03
            2373             526     56.0370E-03     76.3779E-03
            5318             526     56.0370E-03     76.3779E-03
            5306             527     48.8109E-03     63.8108E-03
            5312             527     48.8109E-03     63.8108E-03
            2361             527     48.8109E-03     63.8108E-03
            2367             527     48.8109E-03     63.8108E-03
            2361             528     39.6186E-03     49.2019E-03
            5306             528     39.6186E-03     49.2019E-03
            5300             528     39.6186E-03     49.2019E-03
            2355             528     39.6186E-03     49.2019E-03
            2349             529     28.9770E-03     35.0114E-03
            5294             529     28.9770E-03     35.0114E-03
            2355             529     28.9770E-03     35.0114E-03
            5300             529     28.9770E-03     35.0114E-03
            5288             530     18.6426E-03     20.5332E-03
            2349             530     18.6426E-03     20.5332E-03
            2343             530     18.6426E-03     20.5332E-03
            5294             530     18.6426E-03     20.5332E-03
            5320             625     66.2726E-03     63.3586E-03
            5319             625     66.2726E-03     63.3586E-03
            5321             626     69.3339E-03     64.2824E-03
            5320             626     69.3339E-03     64.2824E-03
            5321             627     67.7952E-03     71.6186E-03
            5322             627     67.7952E-03     71.6186E-03
            5323             628     77.1688E-03     71.2388E-03
            5322             628     77.1688E-03     71.2388E-03
            5324             629     80.6470E-03     78.0313E-03
            5323             629     80.6470E-03     78.0313E-03
            5283             630     18.3070E-03     19.8831E-03
            5289             630     18.3070E-03     19.8831E-03
            4106             630     18.3070E-03     19.8831E-03
            4146             630     18.3070E-03     19.8831E-03
            4186             631     27.9210E-03     30.3824E-03
            4146             631     27.9210E-03     30.3824E-03
            5289             631     27.9210E-03     30.3824E-03
            5295             631     27.9210E-03     30.3824E-03
            4186             632     37.6987E-03     41.4371E-03
            5295             632     37.6987E-03     41.4371E-03
            4226             632     37.6987E-03     41.4371E-03
            5301             632     37.6987E-03     41.4371E-03
            4226             633     46.2468E-03     52.3778E-03
            5307             633     46.2468E-03     52.3778E-03
            5301             633     46.2468E-03     52.3778E-03
            4266             633     46.2468E-03     52.3778E-03
            5313             634     53.1500E-03     61.1122E-03
            4266             634     53.1500E-03     61.1122E-03
            4306             634     53.1500E-03     61.1122E-03
            5307             634     53.1500E-03     61.1122E-03
            5319             635     58.3786E-03     64.2901E-03
            4306             635     58.3786E-03     64.2901E-03
            5313             635     58.3786E-03     64.2901E-03
            4346             635     58.3786E-03     64.2901E-03
            4346             636     64.6017E-03     70.1146E-03
            4345             636     64.6017E-03     70.1146E-03
            4345             637     72.8922E-03     70.3868E-03
            4344             637     72.8922E-03     70.3868E-03
            4344             638     69.1040E-03     65.0642E-03
            4343             638     69.1040E-03     65.0642E-03
            4342             639     61.7879E-03     63.7533E-03
            4343             639     61.7879E-03     63.7533E-03
            4341             640     60.3922E-03     59.0362E-03
            4342             640     60.3922E-03     59.0362E-03
            4341             641     57.2837E-03     57.1406E-03
            4340             641     57.2837E-03     57.1406E-03
            4339             642     54.7589E-03     54.3962E-03
            4340             642     54.7589E-03     54.3962E-03
            4338             643     52.3317E-03     51.4095E-03
            4339             643     52.3317E-03     51.4095E-03
            4337             644     49.0378E-03     49.6525E-03
            4338             644     49.0378E-03     49.6525E-03
            4336             645     48.6250E-03     45.8827E-03
            4337             645     48.6250E-03     45.8827E-03
            4335             646     46.7087E-03     44.0583E-03
            4336             646     46.7087E-03     44.0583E-03
            4335             647     46.8221E-03     52.4119E-03
            4334             647     46.8221E-03     52.4119E-03
            4333             648     53.5811E-03     51.9323E-03
            4334             648     53.5811E-03     51.9323E-03
            4332             649     50.1423E-03     47.2264E-03
            4333             649     50.1423E-03     47.2264E-03
            4332             650     43.9883E-03     45.5691E-03
            4331             650     43.9883E-03     45.5691E-03
            4330             651     42.3563E-03     41.3917E-03
            4331             651     42.3563E-03     41.3917E-03
            4329             652     39.4236E-03     39.3611E-03
            4330             652     39.4236E-03     39.3611E-03
            4328             653     36.9583E-03     36.6858E-03
            4329             653     36.9583E-03     36.6858E-03
            4328             654     34.4555E-03     34.1972E-03
            4327             654     34.4555E-03     34.1972E-03
            4326             655     32.0046E-03     31.4204E-03
            4327             655     32.0046E-03     31.4204E-03
            4326             656     29.0428E-03     29.2308E-03
            4325             656     29.0428E-03     29.2308E-03
            4324             657     27.4985E-03     25.9248E-03
            4325             657     27.4985E-03     25.9248E-03
            4324             658     25.3601E-03     23.6152E-03
            4323             658     25.3601E-03     23.6152E-03
            4323             659     26.7904E-03     29.9391E-03
            4322             659     26.7904E-03     29.9391E-03
            4321             660     31.8910E-03     31.1570E-03
            4322             660     31.8910E-03     31.1570E-03
            4320             661     28.6976E-03     27.0129E-03
            4321             661     28.6976E-03     27.0129E-03
            4320             662     23.7709E-03     24.8619E-03
            4319             662     23.7709E-03     24.8619E-03
            4319             663     21.7523E-03     21.1802E-03
            4318             663     21.7523E-03     21.1802E-03
            4318             664     18.8930E-03     18.9232E-03
            4317             664     18.8930E-03     18.9232E-03
            4317             665     16.3795E-03     16.1919E-03
            4316             665     16.3795E-03     16.1919E-03
            4316             666     13.7236E-03     13.5849E-03
            4315             666     13.7236E-03     13.5849E-03
            4315             667     11.0483E-03     10.8110E-03
            4314             667     11.0483E-03     10.8110E-03
            4314             668     8.23866E-03     7.92199E-03
            4313             668     8.23866E-03     7.92199E-03
            4313             669     5.99373E-03     5.23112E-03
            4312             669     5.99373E-03     5.23112E-03
            4312             670     7.96007E-03     8.89522E-03
            4311             670     7.96007E-03     8.89522E-03
            4310             671     10.3491E-03     10.5120E-03
            4311             671     10.3491E-03     10.5120E-03
            4309             672     6.99822E-03     6.17060E-03
            4310             672     6.99822E-03     6.17060E-03
            4308             673     2.99267E-03     3.53954E-03
            4309             673     2.99267E-03     3.53954E-03
            4308             674     2.40580E-03     3.41726E-03
            4307             674     2.40580E-03     3.41726E-03
            6604             765     32.3803E-15     33.3520E-15
            6603             765     32.3803E-15     33.3520E-15
            6605             766     25.7161E-15     25.6855E-15
            6604             766     25.7161E-15     25.6855E-15
            6606             767     22.6352E-15     24.0550E-15
            6605             767     22.6352E-15     24.0550E-15
            6607             768     29.5368E-15     31.4102E-15
            6606             768     29.5368E-15     31.4102E-15
            6608             769     42.7493E-15     40.8040E-15
            6607             769     42.7493E-15     40.8040E-15
            6578             825     21.1717E-15     18.3418E-15
            6572             825     21.1717E-15     18.3418E-15
            6584             826     8.70258E-15     8.41526E-15
            6578             826     8.70258E-15     8.41526E-15
            6584             827     8.56848E-15     11.3326E-15
            6590             827     8.56848E-15     11.3326E-15
            6596             828     13.8852E-15     16.8978E-15
            6590             828     13.8852E-15     16.8978E-15
            6596             829     15.5082E-15     16.8824E-15
            6602             829     15.5082E-15     16.8824E-15
            6608             830     29.9059E-15     28.0320E-15
            6602             830     29.9059E-15     28.0320E-15
               2             831     16.8454E-15     16.0986E-15
               5             831     16.8454E-15     16.0986E-15
               6             831     16.8454E-15     16.0986E-15
               1             831     16.8454E-15     16.0986E-15
               3             832     23.2826E-15     24.0630E-15
               6             832     23.2826E-15     24.0630E-15
               7             832     23.2826E-15     24.0630E-15
               2             832     23.2826E-15     24.0630E-15
               8             833     25.3260E-15     28.3868E-15
               3             833     25.3260E-15     28.3868E-15
               7             833     25.3260E-15     28.3868E-15
               4             833     25.3260E-15     28.3868E-15
               5             834     11.5167E-15     9.94805E-15
              10             834     11.5167E-15     9.94805E-15
               6             834     11.5167E-15     9.94805E-15
               9             834     11.5167E-15     9.94805E-15
              10             835     13.8344E-15     16.2840E-15
               6             835     13.8344E-15     16.2840E-15
               7             835     13.8344E-15     16.2840E-15
              11             835     13.8344E-15     16.2840E-15
               8             836     17.6173E-15     21.0864E-15
              11             836     17.6173E-15     21.0864E-15
               7             836     17.6173E-15     21.0864E-15
              12             836     17.6173E-15     21.0864E-15
               9             837     20.8618E-15     23.4576E-15
              13             837     20.8618E-15     23.4576E-15
              10             837     20.8618E-15     23.4576E-15
              14             837     20.8618E-15     23.4576E-15
              11             838     24.9321E-15     29.9391E-15
              14             838     24.9321E-15     29.9391E-15
              10             838     24.9321E-15     29.9391E-15
              15             838     24.9321E-15     29.9391E-15
              16             839     19.3139E-15     20.1266E-15
              15             839     19.3139E-15     20.1266E-15
              12             839     19.3139E-15     20.1266E-15
              11             839     19.3139E-15     20.1266E-15
              13             840     37.0432E-15     41.4891E-15
              17             840     37.0432E-15     41.4891E-15
              14             840     37.0432E-15     41.4891E-15
              18             840     37.0432E-15     41.4891E-15
              15             841     38.1431E-15     38.1055E-15
              18             841     38.1431E-15     38.1055E-15
              14             841     38.1431E-15     38.1055E-15
              19             841     38.1431E-15     38.1055E-15
              19             842     27.9324E-15     25.2804E-15
              20             842     27.9324E-15     25.2804E-15
              15             842     27.9324E-15     25.2804E-15
              16             842     27.9324E-15     25.2804E-15
              17             843     35.2767E-15     33.5105E-15
              21             843     35.2767E-15     33.5105E-15
              18             843     35.2767E-15     33.5105E-15
              22             843     35.2767E-15     33.5105E-15
              19             844     35.4482E-15     29.6867E-15
              22             844     35.4482E-15     29.6867E-15
              18             844     35.4482E-15     29.6867E-15
              23             844     35.4482E-15     29.6867E-15
              23             845     29.9332E-15     27.7196E-15
              24             845     29.9332E-15     27.7196E-15
              19             845     29.9332E-15     27.7196E-15
              20             845     29.9332E-15     27.7196E-15
              25             846     22.3072E-15     18.7300E-15
              21             846     22.3072E-15     18.7300E-15
              22             846     22.3072E-15     18.7300E-15
              26             846     22.3072E-15     18.7300E-15
              27             847     28.2341E-15     24.2978E-15
              22             847     28.2341E-15     24.2978E-15
              26             847     28.2341E-15     24.2978E-15
              23             847     28.2341E-15     24.2978E-15
              23             848     23.2303E-15     22.2871E-15
              27             848     23.2303E-15     22.2871E-15
              28             848     23.2303E-15     22.2871E-15
              24             848     23.2303E-15     22.2871E-15
              30             849     11.2915E-03     11.1959E-03
              80             849     11.2915E-03     11.1959E-03
              79             849     11.2915E-03     11.1959E-03
              29             849     11.2915E-03     11.1959E-03
              30             850     11.3435E-03     11.2726E-03
              81             850     11.3435E-03     11.2726E-03
              80             850     11.3435E-03     11.2726E-03
              31             850     11.3435E-03     11.2726E-03
              32             851     11.3439E-03     11.2838E-03
              81             851     11.3439E-03     11.2838E-03
              82             851     11.3439E-03     11.2838E-03
              31             851     11.3439E-03     11.2838E-03
              83             852     11.3230E-03     11.3613E-03
              82             852     11.3230E-03     11.3613E-03
              33             852     11.3230E-03     11.3613E-03
              32             852     11.3230E-03     11.3613E-03
              33             853     11.4932E-03     11.4213E-03
              34             853     11.4932E-03     11.4213E-03
              84             853     11.4932E-03     11.4213E-03
              83             853     11.4932E-03     11.4213E-03
              34             854     11.4846E-03     11.2714E-03
              35             854     11.4846E-03     11.2714E-03
              85             854     11.4846E-03     11.2714E-03
              84             854     11.4846E-03     11.2714E-03
              35             855     11.4642E-03     11.4088E-03
              86             855     11.4642E-03     11.4088E-03
              36             855     11.4642E-03     11.4088E-03
              85             855     11.4642E-03     11.4088E-03
              36             856     11.7369E-03     11.6098E-03
              87             856     11.7369E-03     11.6098E-03
              37             856     11.7369E-03     11.6098E-03
              86             856     11.7369E-03     11.6098E-03
              37             857     11.8839E-03     11.6597E-03
              88             857     11.8839E-03     11.6597E-03
              38             857     11.8839E-03     11.6597E-03
              87             857     11.8839E-03     11.6597E-03
              38             858     12.0087E-03     11.8415E-03
              88             858     12.0087E-03     11.8415E-03
              39             858     12.0087E-03     11.8415E-03
              89             858     12.0087E-03     11.8415E-03
              90             859     12.1155E-03     11.9927E-03
              39             859     12.1155E-03     11.9927E-03
              89             859     12.1155E-03     11.9927E-03
              40             859     12.1155E-03     11.9927E-03
              90             860     12.2244E-03     12.2058E-03
              41             860     12.2244E-03     12.2058E-03
              40             860     12.2244E-03     12.2058E-03
              91             860     12.2244E-03     12.2058E-03
              92             861     12.3870E-03     12.4168E-03
              41             861     12.3870E-03     12.4168E-03
              91             861     12.3870E-03     12.4168E-03
              42             861     12.3870E-03     12.4168E-03
              42             862     12.5258E-03     12.5361E-03
              93             862     12.5258E-03     12.5361E-03
              92             862     12.5258E-03     12.5361E-03
              43             862     12.5258E-03     12.5361E-03
              43             863     12.4737E-03     12.8527E-03
              44             863     12.4737E-03     12.8527E-03
              94             863     12.4737E-03     12.8527E-03
              93             863     12.4737E-03     12.8527E-03
              95             864     13.0215E-03     12.9017E-03
              94             864     13.0215E-03     12.9017E-03
              44             864     13.0215E-03     12.9017E-03
              45             864     13.0215E-03     12.9017E-03
              96             865     12.9761E-03     12.5163E-03
              46             865     12.9761E-03     12.5163E-03
              45             865     12.9761E-03     12.5163E-03
              95             865     12.9761E-03     12.5163E-03
              47             866     12.4739E-03     12.7131E-03
              46             866     12.4739E-03     12.7131E-03
              97             866     12.4739E-03     12.7131E-03
              96             866     12.4739E-03     12.7131E-03
              97             867     12.9578E-03     12.8152E-03
              47             867     12.9578E-03     12.8152E-03
              98             867     12.9578E-03     12.8152E-03
              48             867     12.9578E-03     12.8152E-03
              48             868     13.3464E-03     12.8919E-03
              98             868     13.3464E-03     12.8919E-03
              99             868     13.3464E-03     12.8919E-03
              49             868     13.3464E-03     12.8919E-03
              50             869     13.5697E-03     13.3655E-03
             100             869     13.5697E-03     13.3655E-03
              99             869     13.5697E-03     13.3655E-03
              49             869     13.5697E-03     13.3655E-03
             100             870     13.8149E-03     13.6305E-03
              50             870     13.8149E-03     13.6305E-03
             101             870     13.8149E-03     13.6305E-03
              51             870     13.8149E-03     13.6305E-03
             101             871     14.0143E-03     14.0061E-03
             102             871     14.0143E-03     14.0061E-03
              51             871     14.0143E-03     14.0061E-03
              52             871     14.0143E-03     14.0061E-03
              52             872     14.2529E-03     14.3386E-03
             102             872     14.2529E-03     14.3386E-03
             103             872     14.2529E-03     14.3386E-03
              53             872     14.2529E-03     14.3386E-03
             104             873     14.4133E-03     14.4726E-03
              53             873     14.4133E-03     14.4726E-03
              54             873     14.4133E-03     14.4726E-03
             103             873     14.4133E-03     14.4726E-03
              55             874     14.2370E-03     14.9316E-03
             105             874     14.2370E-03     14.9316E-03
             104             874     14.2370E-03     14.9316E-03
              54             874     14.2370E-03     14.9316E-03
              56             875     15.0636E-03     14.8590E-03
             105             875     15.0636E-03     14.8590E-03
              55             875     15.0636E-03     14.8590E-03
             106             875     15.0636E-03     14.8590E-03
              57             876     14.8641E-03     14.2058E-03
             107             876     14.8641E-03     14.2058E-03
             106             876     14.8641E-03     14.2058E-03
              56             876     14.8641E-03     14.2058E-03
             107             877     13.9245E-03     14.5963E-03
             108             877     13.9245E-03     14.5963E-03
              57             877     13.9245E-03     14.5963E-03
              58             877     13.9245E-03     14.5963E-03
              59             878     14.8820E-03     14.6655E-03
             109             878     14.8820E-03     14.6655E-03
             108             878     14.8820E-03     14.6655E-03
              58             878     14.8820E-03     14.6655E-03
              60             879     15.5426E-03     14.8145E-03
              59             879     15.5426E-03     14.8145E-03
             110             879     15.5426E-03     14.8145E-03
             109             879     15.5426E-03     14.8145E-03
             111             880     15.7523E-03     15.5894E-03
             110             880     15.7523E-03     15.5894E-03
              60             880     15.7523E-03     15.5894E-03
              61             880     15.7523E-03     15.5894E-03
              61             881     16.1416E-03     15.9005E-03
             112             881     16.1416E-03     15.9005E-03
             111             881     16.1416E-03     15.9005E-03
              62             881     16.1416E-03     15.9005E-03
              62             882     16.3977E-03     16.4095E-03
             112             882     16.3977E-03     16.4095E-03
             113             882     16.3977E-03     16.4095E-03
              63             882     16.3977E-03     16.4095E-03
              63             883     16.6687E-03     16.8177E-03
             113             883     16.6687E-03     16.8177E-03
              64             883     16.6687E-03     16.8177E-03
             114             883     16.6687E-03     16.8177E-03
              64             884     16.8149E-03     16.9157E-03
              65             884     16.8149E-03     16.9157E-03
             114             884     16.8149E-03     16.9157E-03
             115             884     16.8149E-03     16.9157E-03
              66             885     16.4814E-03     17.4757E-03
             116             885     16.4814E-03     17.4757E-03
             115             885     16.4814E-03     17.4757E-03
              65             885     16.4814E-03     17.4757E-03
             117             886     17.5492E-03     17.2259E-03
              66             886     17.5492E-03     17.2259E-03
              67             886     17.5492E-03     17.2259E-03
             116             886     17.5492E-03     17.2259E-03
              67             887     17.1452E-03     16.2976E-03
             117             887     17.1452E-03     16.2976E-03
             118             887     17.1452E-03     16.2976E-03
              68             887     17.1452E-03     16.2976E-03
             118             888     15.7828E-03     16.9456E-03
              68             888     15.7828E-03     16.9456E-03
              69             888     15.7828E-03     16.9456E-03
             119             888     15.7828E-03     16.9456E-03
             119             889     17.2785E-03     17.0449E-03
             120             889     17.2785E-03     17.0449E-03
              69             889     17.2785E-03     17.0449E-03
              70             889     17.2785E-03     17.0449E-03
             120             890     18.2147E-03     17.3135E-03
              70             890     18.2147E-03     17.3135E-03
             121             890     18.2147E-03     17.3135E-03
              71             890     18.2147E-03     17.3135E-03
              72             891     18.2977E-03     18.3456E-03
              71             891     18.2977E-03     18.3456E-03
             121             891     18.2977E-03     18.3456E-03
             122             891     18.2977E-03     18.3456E-03
             123             892     18.7116E-03     18.7277E-03
              73             892     18.7116E-03     18.7277E-03
              72             892     18.7116E-03     18.7277E-03
             122             892     18.7116E-03     18.7277E-03
              74             893     19.0802E-03     19.2225E-03
             123             893     19.0802E-03     19.2225E-03
              73             893     19.0802E-03     19.2225E-03
             124             893     19.0802E-03     19.2225E-03
              75             894     19.1842E-03     19.3726E-03
             125             894     19.1842E-03     19.3726E-03
             124             894     19.1842E-03     19.3726E-03
              74             894     19.1842E-03     19.3726E-03
              75             895     18.7109E-03     19.9640E-03
             126             895     18.7109E-03     19.9640E-03
             125             895     18.7109E-03     19.9640E-03
              76             895     18.7109E-03     19.9640E-03
             127             896     19.9571E-03     19.5345E-03
              76             896     19.9571E-03     19.5345E-03
             126             896     19.9571E-03     19.5345E-03
              77             896     19.9571E-03     19.5345E-03
              78             897     19.3251E-03     18.3570E-03
             127             897     19.3251E-03     18.3570E-03
             128             897     19.3251E-03     18.3570E-03
              77             897     19.3251E-03     18.3570E-03
              79             898     10.3821E-03     10.2936E-03
              80             898     10.3821E-03     10.2936E-03
             130             898     10.3821E-03     10.2936E-03
             129             898     10.3821E-03     10.2936E-03
              81             899     10.4732E-03     10.4123E-03
              80             899     10.4732E-03     10.4123E-03
             130             899     10.4732E-03     10.4123E-03
             131             899     10.4732E-03     10.4123E-03
              82             900     10.5386E-03     10.4827E-03
             131             900     10.5386E-03     10.4827E-03
             132             900     10.5386E-03     10.4827E-03
              81             900     10.5386E-03     10.4827E-03
              83             901     10.6312E-03     10.7522E-03
             132             901     10.6312E-03     10.7522E-03
             133             901     10.6312E-03     10.7522E-03
              82             901     10.6312E-03     10.7522E-03
             134             902     11.0765E-03     10.9118E-03
              83             902     11.0765E-03     10.9118E-03
             133             902     11.0765E-03     10.9118E-03
              84             902     11.0765E-03     10.9118E-03
              84             903     11.1081E-03     10.9292E-03
             134             903     11.1081E-03     10.9292E-03
              85             903     11.1081E-03     10.9292E-03
             135             903     11.1081E-03     10.9292E-03
             135             904     10.8579E-03     11.0193E-03
             136             904     10.8579E-03     11.0193E-03
              85             904     10.8579E-03     11.0193E-03
              86             904     10.8579E-03     11.0193E-03
              86             905     11.1778E-03     11.0905E-03
             137             905     11.1778E-03     11.0905E-03
             136             905     11.1778E-03     11.0905E-03
              87             905     11.1778E-03     11.0905E-03
             138             906     11.5258E-03     11.4790E-03
              88             906     11.5258E-03     11.4790E-03
             137             906     11.5258E-03     11.4790E-03
              87             906     11.5258E-03     11.4790E-03
              89             907     11.8887E-03     11.9818E-03
             139             907     11.8887E-03     11.9818E-03
              88             907     11.8887E-03     11.9818E-03
             138             907     11.8887E-03     11.9818E-03
             139             908     12.3686E-03     12.4176E-03
             140             908     12.3686E-03     12.4176E-03
              90             908     12.3686E-03     12.4176E-03
              89             908     12.3686E-03     12.4176E-03
             141             909     12.8226E-03     12.9288E-03
              90             909     12.8226E-03     12.9288E-03
             140             909     12.8226E-03     12.9288E-03
              91             909     12.8226E-03     12.9288E-03
              91             910     13.4244E-03     13.3779E-03
             142             910     13.4244E-03     13.3779E-03
             141             910     13.4244E-03     13.3779E-03
              92             910     13.4244E-03     13.3779E-03
              93             911     13.9591E-03     13.7417E-03
             143             911     13.9591E-03     13.7417E-03
              92             911     13.9591E-03     13.7417E-03
             142             911     13.9591E-03     13.7417E-03
             144             912     14.1845E-03     14.6311E-03
              93             912     14.1845E-03     14.6311E-03
              94             912     14.1845E-03     14.6311E-03
             143             912     14.1845E-03     14.6311E-03
             144             913     15.5099E-03     14.7318E-03
             145             913     15.5099E-03     14.7318E-03
              94             913     15.5099E-03     14.7318E-03
              95             913     15.5099E-03     14.7318E-03
              96             914     15.3115E-03     14.7129E-03
              95             914     15.3115E-03     14.7129E-03
             145             914     15.3115E-03     14.7129E-03
             146             914     15.3115E-03     14.7129E-03
             146             915     13.8789E-03     15.0239E-03
             147             915     13.8789E-03     15.0239E-03
              97             915     13.8789E-03     15.0239E-03
              96             915     13.8789E-03     15.0239E-03
              98             916     14.9111E-03     14.6289E-03
             148             916     14.9111E-03     14.6289E-03
             147             916     14.9111E-03     14.6289E-03
              97             916     14.9111E-03     14.6289E-03
              98             917     15.8179E-03     15.4297E-03
              99             917     15.8179E-03     15.4297E-03
             149             917     15.8179E-03     15.4297E-03
             148             917     15.8179E-03     15.4297E-03
              99             918     16.1388E-03     16.5166E-03
             150             918     16.1388E-03     16.5166E-03
             100             918     16.1388E-03     16.5166E-03
             149             918     16.1388E-03     16.5166E-03
             101             919     17.0141E-03     16.9862E-03
             100             919     17.0141E-03     16.9862E-03
             151             919     17.0141E-03     16.9862E-03
             150             919     17.0141E-03     16.9862E-03
             151             920     17.6662E-03     17.7533E-03
             152             920     17.6662E-03     17.7533E-03
             102             920     17.6662E-03     17.7533E-03
             101             920     17.6662E-03     17.7533E-03
             153             921     18.4665E-03     18.3625E-03
             102             921     18.4665E-03     18.3625E-03
             103             921     18.4665E-03     18.3625E-03
             152             921     18.4665E-03     18.3625E-03
             153             922     19.1402E-03     18.7796E-03
             154             922     19.1402E-03     18.7796E-03
             103             922     19.1402E-03     18.7796E-03
             104             922     19.1402E-03     18.7796E-03
             105             923     19.2260E-03     20.0651E-03
             155             923     19.2260E-03     20.0651E-03
             104             923     19.2260E-03     20.0651E-03
             154             923     19.2260E-03     20.0651E-03
             155             924     21.1307E-03     19.8706E-03
             106             924     21.1307E-03     19.8706E-03
             105             924     21.1307E-03     19.8706E-03
             156             924     21.1307E-03     19.8706E-03
             106             925     20.5284E-03     19.6057E-03
             157             925     20.5284E-03     19.6057E-03
             107             925     20.5284E-03     19.6057E-03
             156             925     20.5284E-03     19.6057E-03
             107             926     18.0138E-03     20.2658E-03
             108             926     18.0138E-03     20.2658E-03
             157             926     18.0138E-03     20.2658E-03
             158             926     18.0138E-03     20.2658E-03
             159             927     20.0658E-03     19.5184E-03
             158             927     20.0658E-03     19.5184E-03
             108             927     20.0658E-03     19.5184E-03
             109             927     20.0658E-03     19.5184E-03
             110             928     21.5151E-03     20.6701E-03
             160             928     21.5151E-03     20.6701E-03
             109             928     21.5151E-03     20.6701E-03
             159             928     21.5151E-03     20.6701E-03
             111             929     21.5450E-03     22.2634E-03
             160             929     21.5450E-03     22.2634E-03
             161             929     21.5450E-03     22.2634E-03
             110             929     21.5450E-03     22.2634E-03
             162             930     22.7331E-03     22.6037E-03
             111             930     22.7331E-03     22.6037E-03
             161             930     22.7331E-03     22.6037E-03
             112             930     22.7331E-03     22.6037E-03
             163             931     23.4729E-03     23.5362E-03
             112             931     23.4729E-03     23.5362E-03
             162             931     23.4729E-03     23.5362E-03
             113             931     23.4729E-03     23.5362E-03
             114             932     24.3538E-03     24.2126E-03
             113             932     24.3538E-03     24.2126E-03
             163             932     24.3538E-03     24.2126E-03
             164             932     24.3538E-03     24.2126E-03
             114             933     25.0773E-03     24.5941E-03
             115             933     25.0773E-03     24.5941E-03
             165             933     25.0773E-03     24.5941E-03
             164             933     25.0773E-03     24.5941E-03
             116             934     24.9561E-03     26.1778E-03
             165             934     24.9561E-03     26.1778E-03
             115             934     24.9561E-03     26.1778E-03
             166             934     24.9561E-03     26.1778E-03
             167             935     27.3493E-03     25.6156E-03
             116             935     27.3493E-03     25.6156E-03
             166             935     27.3493E-03     25.6156E-03
             117             935     27.3493E-03     25.6156E-03
             167             936     26.2960E-03     25.0663E-03
             118             936     26.2960E-03     25.0663E-03
             117             936     26.2960E-03     25.0663E-03
             168             936     26.2960E-03     25.0663E-03
             118             937     22.7391E-03     26.0840E-03
             119             937     22.7391E-03     26.0840E-03
             169             937     22.7391E-03     26.0840E-03
             168             937     22.7391E-03     26.0840E-03
             170             938     25.8476E-03     25.0396E-03
             120             938     25.8476E-03     25.0396E-03
             119             938     25.8476E-03     25.0396E-03
             169             938     25.8476E-03     25.0396E-03
             121             939     27.8552E-03     26.5593E-03
             170             939     27.8552E-03     26.5593E-03
             171             939     27.8552E-03     26.5593E-03
             120             939     27.8552E-03     26.5593E-03
             171             940     27.5526E-03     28.5857E-03
             172             940     27.5526E-03     28.5857E-03
             122             940     27.5526E-03     28.5857E-03
             121             940     27.5526E-03     28.5857E-03
             123             941     28.8672E-03     28.9270E-03
             172             941     28.8672E-03     28.9270E-03
             173             941     28.8672E-03     28.9270E-03
             122             941     28.8672E-03     28.9270E-03
             124             942     29.9789E-03     29.8063E-03
             173             942     29.9789E-03     29.8063E-03
             174             942     29.9789E-03     29.8063E-03
             123             942     29.9789E-03     29.8063E-03
             174             943     30.5506E-03     30.2736E-03
             125             943     30.5506E-03     30.2736E-03
             175             943     30.5506E-03     30.2736E-03
             124             943     30.5506E-03     30.2736E-03
             125             944     30.3071E-03     31.9460E-03
             176             944     30.3071E-03     31.9460E-03
             126             944     30.3071E-03     31.9460E-03
             175             944     30.3071E-03     31.9460E-03
             176             945     33.0518E-03     31.0124E-03
             126             945     33.0518E-03     31.0124E-03
             127             945     33.0518E-03     31.0124E-03
             177             945     33.0518E-03     31.0124E-03
             127             946     31.5561E-03     30.1204E-03
             128             946     31.5561E-03     30.1204E-03
             177             946     31.5561E-03     30.1204E-03
             178             946     31.5561E-03     30.1204E-03
             129             947     8.87781E-03     8.85551E-03
             180             947     8.87781E-03     8.85551E-03
             130             947     8.87781E-03     8.85551E-03
             179             947     8.87781E-03     8.85551E-03
             131             948     9.00579E-03     9.04874E-03
             181             948     9.00579E-03     9.04874E-03
             130             948     9.00579E-03     9.04874E-03
             180             948     9.00579E-03     9.04874E-03
             132             949     9.22657E-03     9.27864E-03
             182             949     9.22657E-03     9.27864E-03
             131             949     9.22657E-03     9.27864E-03
             181             949     9.22657E-03     9.27864E-03
             182             950     9.51055E-03     9.76629E-03
             133             950     9.51055E-03     9.76629E-03
             183             950     9.51055E-03     9.76629E-03
             132             950     9.51055E-03     9.76629E-03
             133             951     10.4519E-03     9.97333E-03
             183             951     10.4519E-03     9.97333E-03
             184             951     10.4519E-03     9.97333E-03
             134             951     10.4519E-03     9.97333E-03
             184             952     10.6140E-03     10.3692E-03
             185             952     10.6140E-03     10.3692E-03
             135             952     10.6140E-03     10.3692E-03
             134             952     10.6140E-03     10.3692E-03
             136             953     10.0700E-03     10.6639E-03
             135             953     10.0700E-03     10.6639E-03
             186             953     10.0700E-03     10.6639E-03
             185             953     10.0700E-03     10.6639E-03
             136             954     10.6105E-03     10.6663E-03
             137             954     10.6105E-03     10.6663E-03
             187             954     10.6105E-03     10.6663E-03
             186             954     10.6105E-03     10.6663E-03
             138             955     11.2401E-03     11.4616E-03
             188             955     11.2401E-03     11.4616E-03
             187             955     11.2401E-03     11.4616E-03
             137             955     11.2401E-03     11.4616E-03
             189             956     11.8764E-03     12.2631E-03
             139             956     11.8764E-03     12.2631E-03
             138             956     11.8764E-03     12.2631E-03
             188             956     11.8764E-03     12.2631E-03
             140             957     12.7444E-03     12.8420E-03
             190             957     12.7444E-03     12.8420E-03
             139             957     12.7444E-03     12.8420E-03
             189             957     12.7444E-03     12.8420E-03
             140             958     13.5358E-03     13.6410E-03
             190             958     13.5358E-03     13.6410E-03
             141             958     13.5358E-03     13.6410E-03
             191             958     13.5358E-03     13.6410E-03
             142             959     14.5454E-03     14.3981E-03
             141             959     14.5454E-03     14.3981E-03
             192             959     14.5454E-03     14.3981E-03
             191             959     14.5454E-03     14.3981E-03
             143             960     15.4976E-03     15.1086E-03
             193             960     15.4976E-03     15.1086E-03
             192             960     15.4976E-03     15.1086E-03
             142             960     15.4976E-03     15.1086E-03
             144             961     16.0860E-03     16.7251E-03
             143             961     16.0860E-03     16.7251E-03
             194             961     16.0860E-03     16.7251E-03
             193             961     16.0860E-03     16.7251E-03
             145             962     18.5748E-03     17.0277E-03
             194             962     18.5748E-03     17.0277E-03
             195             962     18.5748E-03     17.0277E-03
             144             962     18.5748E-03     17.0277E-03
             146             963     18.3940E-03     17.7325E-03
             196             963     18.3940E-03     17.7325E-03
             145             963     18.3940E-03     17.7325E-03
             195             963     18.3940E-03     17.7325E-03
             196             964     15.9752E-03     18.6206E-03
             146             964     15.9752E-03     18.6206E-03
             147             964     15.9752E-03     18.6206E-03
             197             964     15.9752E-03     18.6206E-03
             197             965     17.9238E-03     17.6810E-03
             198             965     17.9238E-03     17.6810E-03
             148             965     17.9238E-03     17.6810E-03
             147             965     17.9238E-03     17.6810E-03
             199             966     19.3165E-03     18.9098E-03
             148             966     19.3165E-03     18.9098E-03
             198             966     19.3165E-03     18.9098E-03
             149             966     19.3165E-03     18.9098E-03
             199             967     19.4093E-03     20.2866E-03
             149             967     19.4093E-03     20.2866E-03
             150             967     19.4093E-03     20.2866E-03
             200             967     19.4093E-03     20.2866E-03
             150             968     20.6579E-03     20.5727E-03
             201             968     20.6579E-03     20.5727E-03
             151             968     20.6579E-03     20.5727E-03
             200             968     20.6579E-03     20.5727E-03
             201             969     21.5537E-03     21.5985E-03
             151             969     21.5537E-03     21.5985E-03
             202             969     21.5537E-03     21.5985E-03
             152             969     21.5537E-03     21.5985E-03
             202             970     22.7472E-03     22.4982E-03
             153             970     22.7472E-03     22.4982E-03
             152             970     22.7472E-03     22.4982E-03
             203             970     22.7472E-03     22.4982E-03
             203             971     23.9214E-03     23.2656E-03
             154             971     23.9214E-03     23.2656E-03
             153             971     23.9214E-03     23.2656E-03
             204             971     23.9214E-03     23.2656E-03
             155             972     24.4287E-03     25.5505E-03
             205             972     24.4287E-03     25.5505E-03
             204             972     24.4287E-03     25.5505E-03
             154             972     24.4287E-03     25.5505E-03
             156             973     27.9312E-03     25.5720E-03
             205             973     27.9312E-03     25.5720E-03
             206             973     27.9312E-03     25.5720E-03
             155             973     27.9312E-03     25.5720E-03
             207             974     27.2087E-03     26.1868E-03
             157             974     27.2087E-03     26.1868E-03
             156             974     27.2087E-03     26.1868E-03
             206             974     27.2087E-03     26.1868E-03
             208             975     23.1715E-03     27.7737E-03
             157             975     23.1715E-03     27.7737E-03
             158             975     23.1715E-03     27.7737E-03
             207             975     23.1715E-03     27.7737E-03
             209             976     26.7026E-03     26.1382E-03
             159             976     26.7026E-03     26.1382E-03
             158             976     26.7026E-03     26.1382E-03
             208             976     26.7026E-03     26.1382E-03
             209             977     28.7390E-03     27.5989E-03
             210             977     28.7390E-03     27.5989E-03
             160             977     28.7390E-03     27.5989E-03
             159             977     28.7390E-03     27.5989E-03
             160             978     28.0343E-03     29.4103E-03
             211             978     28.0343E-03     29.4103E-03
             161             978     28.0343E-03     29.4103E-03
             210             978     28.0343E-03     29.4103E-03
             211             979     29.5276E-03     29.2353E-03
             212             979     29.5276E-03     29.2353E-03
             161             979     29.5276E-03     29.2353E-03
             162             979     29.5276E-03     29.2353E-03
             163             980     30.3998E-03     30.3736E-03
             213             980     30.3998E-03     30.3736E-03
             212             980     30.3998E-03     30.3736E-03
             162             980     30.3998E-03     30.3736E-03
             163             981     31.6489E-03     31.3171E-03
             164             981     31.6489E-03     31.3171E-03
             213             981     31.6489E-03     31.3171E-03
             214             981     31.6489E-03     31.3171E-03
             164             982     32.9454E-03     32.0581E-03
             214             982     32.9454E-03     32.0581E-03
             165             982     32.9454E-03     32.0581E-03
             215             982     32.9454E-03     32.0581E-03
             166             983     33.2993E-03     34.9100E-03
             165             983     33.2993E-03     34.9100E-03
             215             983     33.2993E-03     34.9100E-03
             216             983     33.2993E-03     34.9100E-03
             216             984     37.7145E-03     34.5934E-03
             217             984     37.7145E-03     34.5934E-03
             166             984     37.7145E-03     34.5934E-03
             167             984     37.7145E-03     34.5934E-03
             167             985     36.4274E-03     35.0696E-03
             168             985     36.4274E-03     35.0696E-03
             217             985     36.4274E-03     35.0696E-03
             218             985     36.4274E-03     35.0696E-03
             168             986     30.7633E-03     37.2112E-03
             169             986     30.7633E-03     37.2112E-03
             219             986     30.7633E-03     37.2112E-03
             218             986     30.7633E-03     37.2112E-03
             220             987     35.7891E-03     34.8854E-03
             169             987     35.7891E-03     34.8854E-03
             170             987     35.7891E-03     34.8854E-03
             219             987     35.7891E-03     34.8854E-03
             171             988     38.5333E-03     36.5813E-03
             220             988     38.5333E-03     36.5813E-03
             221             988     38.5333E-03     36.5813E-03
             170             988     38.5333E-03     36.5813E-03
             172             989     37.0896E-03     38.7765E-03
             221             989     37.0896E-03     38.7765E-03
             171             989     37.0896E-03     38.7765E-03
             222             989     37.0896E-03     38.7765E-03
             222             990     38.6954E-03     38.4626E-03
             173             990     38.6954E-03     38.4626E-03
             223             990     38.6954E-03     38.4626E-03
             172             990     38.6954E-03     38.4626E-03
             174             991     40.1285E-03     39.4544E-03
             224             991     40.1285E-03     39.4544E-03
             223             991     40.1285E-03     39.4544E-03
             173             991     40.1285E-03     39.4544E-03
             175             992     41.0799E-03     40.2560E-03
             225             992     41.0799E-03     40.2560E-03
             174             992     41.0799E-03     40.2560E-03
             224             992     41.0799E-03     40.2560E-03
             175             993     41.3281E-03     43.2811E-03
             176             993     41.3281E-03     43.2811E-03
             226             993     41.3281E-03     43.2811E-03
             225             993     41.3281E-03     43.2811E-03
             176             994     46.4167E-03     42.6187E-03
             226             994     46.4167E-03     42.6187E-03
             227             994     46.4167E-03     42.6187E-03
             177             994     46.4167E-03     42.6187E-03
             177             995     44.5451E-03     42.8867E-03
             227             995     44.5451E-03     42.8867E-03
             178             995     44.5451E-03     42.8867E-03
             228             995     44.5451E-03     42.8867E-03
             180             996     6.76418E-03     6.97154E-03
             179             996     6.76418E-03     6.97154E-03
             229             996     6.76418E-03     6.97154E-03
             230             996     6.76418E-03     6.97154E-03
             181             997     7.07167E-03     7.25308E-03
             230             997     7.07167E-03     7.25308E-03
             180             997     7.07167E-03     7.25308E-03
             231             997     7.07167E-03     7.25308E-03
             182             998     7.56840E-03     7.56925E-03
             231             998     7.56840E-03     7.56925E-03
             232             998     7.56840E-03     7.56925E-03
             181             998     7.56840E-03     7.56925E-03
             182             999     8.05540E-03     8.45923E-03
             232             999     8.05540E-03     8.45923E-03
             233             999     8.05540E-03     8.45923E-03
             183             999     8.05540E-03     8.45923E-03
             184            1000     9.59069E-03     8.78066E-03
             233            1000     9.59069E-03     8.78066E-03
             234            1000     9.59069E-03     8.78066E-03
             183            1000     9.59069E-03     8.78066E-03
             185            1001     9.90317E-03     9.72181E-03
             234            1001     9.90317E-03     9.72181E-03
             184            1001     9.90317E-03     9.72181E-03
             235            1001     9.90317E-03     9.72181E-03
             236            1002     9.23041E-03     10.7194E-03
             186            1002     9.23041E-03     10.7194E-03
             235            1002     9.23041E-03     10.7194E-03
             185            1002     9.23041E-03     10.7194E-03
             237            1003     10.3751E-03     10.6056E-03
             187            1003     10.3751E-03     10.6056E-03
             186            1003     10.3751E-03     10.6056E-03
             236            1003     10.3751E-03     10.6056E-03
             187            1004     11.2309E-03     11.4720E-03
             237            1004     11.2309E-03     11.4720E-03
             238            1004     11.2309E-03     11.4720E-03
             188            1004     11.2309E-03     11.4720E-03
             239            1005     11.8389E-03     12.3416E-03
             188            1005     11.8389E-03     12.3416E-03
             189            1005     11.8389E-03     12.3416E-03
             238            1005     11.8389E-03     12.3416E-03
             189            1006     13.0003E-03     13.0208E-03
             190            1006     13.0003E-03     13.0208E-03
             239            1006     13.0003E-03     13.0208E-03
             240            1006     13.0003E-03     13.0208E-03
             240            1007     14.0158E-03     14.2818E-03
             190            1007     14.0158E-03     14.2818E-03
             241            1007     14.0158E-03     14.2818E-03
             191            1007     14.0158E-03     14.2818E-03
             192            1008     15.4577E-03     15.4855E-03
             242            1008     15.4577E-03     15.4855E-03
             191            1008     15.4577E-03     15.4855E-03
             241            1008     15.4577E-03     15.4855E-03
             242            1009     16.8313E-03     16.6428E-03
             192            1009     16.8313E-03     16.6428E-03
             193            1009     16.8313E-03     16.6428E-03
             243            1009     16.8313E-03     16.6428E-03
             194            1010     17.7038E-03     19.0767E-03
             244            1010     17.7038E-03     19.0767E-03
             193            1010     17.7038E-03     19.0767E-03
             243            1010     17.7038E-03     19.0767E-03
             195            1011     21.3959E-03     19.3662E-03
             244            1011     21.3959E-03     19.3662E-03
             194            1011     21.3959E-03     19.3662E-03
             245            1011     21.3959E-03     19.3662E-03
             195            1012     21.4069E-03     20.9394E-03
             196            1012     21.4069E-03     20.9394E-03
             246            1012     21.4069E-03     20.9394E-03
             245            1012     21.4069E-03     20.9394E-03
             246            1013     18.3064E-03     23.1125E-03
             197            1013     18.3064E-03     23.1125E-03
             247            1013     18.3064E-03     23.1125E-03
             196            1013     18.3064E-03     23.1125E-03
             198            1014     21.3461E-03     21.3141E-03
             197            1014     21.3461E-03     21.3141E-03
             248            1014     21.3461E-03     21.3141E-03
             247            1014     21.3461E-03     21.3141E-03
             249            1015     22.8538E-03     22.1222E-03
             198            1015     22.8538E-03     22.1222E-03
             199            1015     22.8538E-03     22.1222E-03
             248            1015     22.8538E-03     22.1222E-03
             199            1016     22.2062E-03     23.5119E-03
             250            1016     22.2062E-03     23.5119E-03
             249            1016     22.2062E-03     23.5119E-03
             200            1016     22.2062E-03     23.5119E-03
             200            1017     23.6530E-03     23.6124E-03
             251            1017     23.6530E-03     23.6124E-03
             201            1017     23.6530E-03     23.6124E-03
             250            1017     23.6530E-03     23.6124E-03
             252            1018     24.6338E-03     25.1079E-03
             202            1018     24.6338E-03     25.1079E-03
             251            1018     24.6338E-03     25.1079E-03
             201            1018     24.6338E-03     25.1079E-03
             253            1019     26.1967E-03     26.4104E-03
             202            1019     26.1967E-03     26.4104E-03
             203            1019     26.1967E-03     26.4104E-03
             252            1019     26.1967E-03     26.4104E-03
             204            1020     27.8155E-03     27.5390E-03
             203            1020     27.8155E-03     27.5390E-03
             254            1020     27.8155E-03     27.5390E-03
             253            1020     27.8155E-03     27.5390E-03
             254            1021     28.6016E-03     30.7976E-03
             255            1021     28.6016E-03     30.7976E-03
             205            1021     28.6016E-03     30.7976E-03
             204            1021     28.6016E-03     30.7976E-03
             205            1022     33.8158E-03     30.7533E-03
             255            1022     33.8158E-03     30.7533E-03
             256            1022     33.8158E-03     30.7533E-03
             206            1022     33.8158E-03     30.7533E-03
             257            1023     33.3571E-03     32.6305E-03
             256            1023     33.3571E-03     32.6305E-03
             207            1023     33.3571E-03     32.6305E-03
             206            1023     33.3571E-03     32.6305E-03
             208            1024     28.2174E-03     36.1385E-03
             257            1024     28.2174E-03     36.1385E-03
             207            1024     28.2174E-03     36.1385E-03
             258            1024     28.2174E-03     36.1385E-03
             208            1025     33.2915E-03     33.0284E-03
             209            1025     33.2915E-03     33.0284E-03
             258            1025     33.2915E-03     33.0284E-03
             259            1025     33.2915E-03     33.0284E-03
             210            1026     35.3298E-03     33.6143E-03
             259            1026     35.3298E-03     33.6143E-03
             209            1026     35.3298E-03     33.6143E-03
             260            1026     35.3298E-03     33.6143E-03
             261            1027     33.2787E-03     35.4040E-03
             260            1027     33.2787E-03     35.4040E-03
             210            1027     33.2787E-03     35.4040E-03
             211            1027     33.2787E-03     35.4040E-03
             262            1028     34.9063E-03     34.7908E-03
             261            1028     34.9063E-03     34.7908E-03
             212            1028     34.9063E-03     34.7908E-03
             211            1028     34.9063E-03     34.7908E-03
             263            1029     35.7596E-03     36.4187E-03
             212            1029     35.7596E-03     36.4187E-03
             213            1029     35.7596E-03     36.4187E-03
             262            1029     35.7596E-03     36.4187E-03
             263            1030     37.3529E-03     37.7463E-03
             214            1030     37.3529E-03     37.7463E-03
             213            1030     37.3529E-03     37.7463E-03
             264            1030     37.3529E-03     37.7463E-03
             215            1031     39.1516E-03     38.7939E-03
             214            1031     39.1516E-03     38.7939E-03
             265            1031     39.1516E-03     38.7939E-03
             264            1031     39.1516E-03     38.7939E-03
             215            1032     39.8040E-03     42.8217E-03
             266            1032     39.8040E-03     42.8217E-03
             265            1032     39.8040E-03     42.8217E-03
             216            1032     39.8040E-03     42.8217E-03
             216            1033     46.4709E-03     42.4231E-03
             267            1033     46.4709E-03     42.4231E-03
             266            1033     46.4709E-03     42.4231E-03
             217            1033     46.4709E-03     42.4231E-03
             217            1034     45.5270E-03     44.5699E-03
             218            1034     45.5270E-03     44.5699E-03
             267            1034     45.5270E-03     44.5699E-03
             268            1034     45.5270E-03     44.5699E-03
             218            1035     38.2757E-03     49.1665E-03
             219            1035     38.2757E-03     49.1665E-03
             269            1035     38.2757E-03     49.1665E-03
             268            1035     38.2757E-03     49.1665E-03
             219            1036     45.1706E-03     44.6687E-03
             220            1036     45.1706E-03     44.6687E-03
             270            1036     45.1706E-03     44.6687E-03
             269            1036     45.1706E-03     44.6687E-03
             220            1037     47.8688E-03     45.0856E-03
             221            1037     47.8688E-03     45.0856E-03
             271            1037     47.8688E-03     45.0856E-03
             270            1037     47.8688E-03     45.0856E-03
             272            1038     44.5429E-03     47.1798E-03
             271            1038     44.5429E-03     47.1798E-03
             222            1038     44.5429E-03     47.1798E-03
             221            1038     44.5429E-03     47.1798E-03
             222            1039     46.1512E-03     46.3502E-03
             223            1039     46.1512E-03     46.3502E-03
             273            1039     46.1512E-03     46.3502E-03
             272            1039     46.1512E-03     46.3502E-03
             223            1040     47.8267E-03     47.7790E-03
             273            1040     47.8267E-03     47.7790E-03
             274            1040     47.8267E-03     47.7790E-03
             224            1040     47.8267E-03     47.7790E-03
             274            1041     49.0768E-03     48.8750E-03
             225            1041     49.0768E-03     48.8750E-03
             224            1041     49.0768E-03     48.8750E-03
             275            1041     49.0768E-03     48.8750E-03
             276            1042     49.7213E-03     53.1977E-03
             226            1042     49.7213E-03     53.1977E-03
             225            1042     49.7213E-03     53.1977E-03
             275            1042     49.7213E-03     53.1977E-03
             227            1043     57.5466E-03     52.5401E-03
             277            1043     57.5466E-03     52.5401E-03
             226            1043     57.5466E-03     52.5401E-03
             276            1043     57.5466E-03     52.5401E-03
             227            1044     56.0824E-03     54.8960E-03
             228            1044     56.0824E-03     54.8960E-03
             278            1044     56.0824E-03     54.8960E-03
             277            1044     56.0824E-03     54.8960E-03
             230            1045     4.52572E-03     4.78750E-03
             229            1045     4.52572E-03     4.78750E-03
             280            1045     4.52572E-03     4.78750E-03
             279            1045     4.52572E-03     4.78750E-03
             281            1046     4.80699E-03     4.79188E-03
             230            1046     4.80699E-03     4.79188E-03
             280            1046     4.80699E-03     4.79188E-03
             231            1046     4.80699E-03     4.79188E-03
             282            1047     5.54474E-03     5.27729E-03
             232            1047     5.54474E-03     5.27729E-03
             231            1047     5.54474E-03     5.27729E-03
             281            1047     5.54474E-03     5.27729E-03
             282            1048     6.45213E-03     7.12933E-03
             232            1048     6.45213E-03     7.12933E-03
             233            1048     6.45213E-03     7.12933E-03
             283            1048     6.45213E-03     7.12933E-03
             283            1049     8.97081E-03     8.11875E-03
             284            1049     8.97081E-03     8.11875E-03
             233            1049     8.97081E-03     8.11875E-03
             234            1049     8.97081E-03     8.11875E-03
             284            1050     9.57908E-03     9.64541E-03
             234            1050     9.57908E-03     9.64541E-03
             235            1050     9.57908E-03     9.64541E-03
             285            1050     9.57908E-03     9.64541E-03
             285            1051     8.74602E-03     10.9943E-03
             286            1051     8.74602E-03     10.9943E-03
             235            1051     8.74602E-03     10.9943E-03
             236            1051     8.74602E-03     10.9943E-03
             286            1052     10.3250E-03     10.3951E-03
             236            1052     10.3250E-03     10.3951E-03
             287            1052     10.3250E-03     10.3951E-03
             237            1052     10.3250E-03     10.3951E-03
             288            1053     10.9964E-03     11.0774E-03
             287            1053     10.9964E-03     11.0774E-03
             238            1053     10.9964E-03     11.0774E-03
             237            1053     10.9964E-03     11.0774E-03
             239            1054     11.5466E-03     12.1774E-03
             238            1054     11.5466E-03     12.1774E-03
             288            1054     11.5466E-03     12.1774E-03
             289            1054     11.5466E-03     12.1774E-03
             290            1055     13.1177E-03     13.3167E-03
             239            1055     13.1177E-03     13.3167E-03
             240            1055     13.1177E-03     13.3167E-03
             289            1055     13.1177E-03     13.3167E-03
             291            1056     14.4438E-03     15.1226E-03
             290            1056     14.4438E-03     15.1226E-03
             241            1056     14.4438E-03     15.1226E-03
             240            1056     14.4438E-03     15.1226E-03
             242            1057     16.3165E-03     16.8315E-03
             291            1057     16.3165E-03     16.8315E-03
             292            1057     16.3165E-03     16.8315E-03
             241            1057     16.3165E-03     16.8315E-03
             242            1058     18.2102E-03     18.3564E-03
             292            1058     18.2102E-03     18.3564E-03
             243            1058     18.2102E-03     18.3564E-03
             293            1058     18.2102E-03     18.3564E-03
             243            1059     19.2334E-03     21.4909E-03
             244            1059     19.2334E-03     21.4909E-03
             293            1059     19.2334E-03     21.4909E-03
             294            1059     19.2334E-03     21.4909E-03
             294            1060     23.8883E-03     22.0950E-03
             295            1060     23.8883E-03     22.0950E-03
             244            1060     23.8883E-03     22.0950E-03
             245            1060     23.8883E-03     22.0950E-03
             245            1061     24.1404E-03     24.0590E-03
             295            1061     24.1404E-03     24.0590E-03
             246            1061     24.1404E-03     24.0590E-03
             296            1061     24.1404E-03     24.0590E-03
             247            1062     20.5135E-03     26.6914E-03
             296            1062     20.5135E-03     26.6914E-03
             246            1062     20.5135E-03     26.6914E-03
             297            1062     20.5135E-03     26.6914E-03
             248            1063     24.0455E-03     24.0019E-03
             297            1063     24.0455E-03     24.0019E-03
             247            1063     24.0455E-03     24.0019E-03
             298            1063     24.0455E-03     24.0019E-03
             298            1064     25.0739E-03     24.3380E-03
             248            1064     25.0739E-03     24.3380E-03
             249            1064     25.0739E-03     24.3380E-03
             299            1064     25.0739E-03     24.3380E-03
             249            1065     23.9793E-03     25.9492E-03
             299            1065     23.9793E-03     25.9492E-03
             250            1065     23.9793E-03     25.9492E-03
             300            1065     23.9793E-03     25.9492E-03
             301            1066     25.9615E-03     26.3853E-03
             300            1066     25.9615E-03     26.3853E-03
             250            1066     25.9615E-03     26.3853E-03
             251            1066     25.9615E-03     26.3853E-03
             301            1067     27.1382E-03     28.4350E-03
             302            1067     27.1382E-03     28.4350E-03
             251            1067     27.1382E-03     28.4350E-03
             252            1067     27.1382E-03     28.4350E-03
             253            1068     29.0632E-03     30.1862E-03
             302            1068     29.0632E-03     30.1862E-03
             252            1068     29.0632E-03     30.1862E-03
             303            1068     29.0632E-03     30.1862E-03
             253            1069     31.2006E-03     31.5590E-03
             254            1069     31.2006E-03     31.5590E-03
             304            1069     31.2006E-03     31.5590E-03
             303            1069     31.2006E-03     31.5590E-03
             305            1070     31.9255E-03     35.5251E-03
             255            1070     31.9255E-03     35.5251E-03
             304            1070     31.9255E-03     35.5251E-03
             254            1070     31.9255E-03     35.5251E-03
             256            1071     38.3752E-03     35.7446E-03
             255            1071     38.3752E-03     35.7446E-03
             306            1071     38.3752E-03     35.7446E-03
             305            1071     38.3752E-03     35.7446E-03
             257            1072     38.3696E-03     38.1981E-03
             256            1072     38.3696E-03     38.1981E-03
             307            1072     38.3696E-03     38.1981E-03
             306            1072     38.3696E-03     38.1981E-03
             258            1073     32.4912E-03     42.5128E-03
             257            1073     32.4912E-03     42.5128E-03
             308            1073     32.4912E-03     42.5128E-03
             307            1073     32.4912E-03     42.5128E-03
             259            1074     38.2777E-03     38.1523E-03
             309            1074     38.2777E-03     38.1523E-03
             308            1074     38.2777E-03     38.1523E-03
             258            1074     38.2777E-03     38.1523E-03
             260            1075     39.5837E-03     38.0265E-03
             310            1075     39.5837E-03     38.0265E-03
             259            1075     39.5837E-03     38.0265E-03
             309            1075     39.5837E-03     38.0265E-03
             310            1076     36.7393E-03     40.0379E-03
             261            1076     36.7393E-03     40.0379E-03
             311            1076     36.7393E-03     40.0379E-03
             260            1076     36.7393E-03     40.0379E-03
             312            1077     39.0529E-03     39.6826E-03
             262            1077     39.0529E-03     39.6826E-03
             311            1077     39.0529E-03     39.6826E-03
             261            1077     39.0529E-03     39.6826E-03
             263            1078     40.0275E-03     41.9200E-03
             312            1078     40.0275E-03     41.9200E-03
             313            1078     40.0275E-03     41.9200E-03
             262            1078     40.0275E-03     41.9200E-03
             314            1079     41.9644E-03     43.6809E-03
             264            1079     41.9644E-03     43.6809E-03
             313            1079     41.9644E-03     43.6809E-03
             263            1079     41.9644E-03     43.6809E-03
             314            1080     44.3248E-03     44.8861E-03
             315            1080     44.3248E-03     44.8861E-03
             265            1080     44.3248E-03     44.8861E-03
             264            1080     44.3248E-03     44.8861E-03
             316            1081     44.7416E-03     49.6694E-03
             265            1081     44.7416E-03     49.6694E-03
             315            1081     44.7416E-03     49.6694E-03
             266            1081     44.7416E-03     49.6694E-03
             316            1082     52.9661E-03     49.5148E-03
             317            1082     52.9661E-03     49.5148E-03
             267            1082     52.9661E-03     49.5148E-03
             266            1082     52.9661E-03     49.5148E-03
             267            1083     52.7016E-03     52.4527E-03
             318            1083     52.7016E-03     52.4527E-03
             268            1083     52.7016E-03     52.4527E-03
             317            1083     52.7016E-03     52.4527E-03
             269            1084     44.4567E-03     58.2340E-03
             318            1084     44.4567E-03     58.2340E-03
             268            1084     44.4567E-03     58.2340E-03
             319            1084     44.4567E-03     58.2340E-03
             319            1085     52.3002E-03     52.0851E-03
             269            1085     52.3002E-03     52.0851E-03
             320            1085     52.3002E-03     52.0851E-03
             270            1085     52.3002E-03     52.0851E-03
             270            1086     53.9362E-03     51.6044E-03
             271            1086     53.9362E-03     51.6044E-03
             321            1086     53.9362E-03     51.6044E-03
             320            1086     53.9362E-03     51.6044E-03
             271            1087     49.5990E-03     53.8726E-03
             272            1087     49.5990E-03     53.8726E-03
             322            1087     49.5990E-03     53.8726E-03
             321            1087     49.5990E-03     53.8726E-03
             272            1088     51.8397E-03     53.2160E-03
             273            1088     51.8397E-03     53.2160E-03
             323            1088     51.8397E-03     53.2160E-03
             322            1088     51.8397E-03     53.2160E-03
             274            1089     53.6511E-03     55.4480E-03
             273            1089     53.6511E-03     55.4480E-03
             323            1089     53.6511E-03     55.4480E-03
             324            1089     53.6511E-03     55.4480E-03
             275            1090     55.5274E-03     56.5960E-03
             324            1090     55.5274E-03     56.5960E-03
             274            1090     55.5274E-03     56.5960E-03
             325            1090     55.5274E-03     56.5960E-03
             275            1091     55.9523E-03     61.8038E-03
             276            1091     55.9523E-03     61.8038E-03
             325            1091     55.9523E-03     61.8038E-03
             326            1091     55.9523E-03     61.8038E-03
             277            1092     65.6290E-03     61.4648E-03
             276            1092     65.6290E-03     61.4648E-03
             326            1092     65.6290E-03     61.4648E-03
             327            1092     65.6290E-03     61.4648E-03
             277            1093     65.1516E-03     64.8440E-03
             278            1093     65.1516E-03     64.8440E-03
             328            1093     65.1516E-03     64.8440E-03
             327            1093     65.1516E-03     64.8440E-03
             280            1094     2.86692E-03     3.31496E-03
             330            1094     2.86692E-03     3.31496E-03
             279            1094     2.86692E-03     3.31496E-03
             329            1094     2.86692E-03     3.31496E-03
             281            1095     2.88211E-03     2.63992E-03
             331            1095     2.88211E-03     2.63992E-03
             280            1095     2.88211E-03     2.63992E-03
             330            1095     2.88211E-03     2.63992E-03
             281            1096     4.19776E-03     3.80909E-03
             332            1096     4.19776E-03     3.80909E-03
             282            1096     4.19776E-03     3.80909E-03
             331            1096     4.19776E-03     3.80909E-03
             333            1097     5.81169E-03     6.54213E-03
             283            1097     5.81169E-03     6.54213E-03
             282            1097     5.81169E-03     6.54213E-03
             332            1097     5.81169E-03     6.54213E-03
             283            1098     9.14066E-03     8.41166E-03
             333            1098     9.14066E-03     8.41166E-03
             284            1098     9.14066E-03     8.41166E-03
             334            1098     9.14066E-03     8.41166E-03
             285            1099     10.9069E-03     10.9692E-03
             334            1099     10.9069E-03     10.9692E-03
             335            1099     10.9069E-03     10.9692E-03
             284            1099     10.9069E-03     10.9692E-03
             285            1100     9.08805E-03     10.8109E-03
             335            1100     9.08805E-03     10.8109E-03
             286            1100     9.08805E-03     10.8109E-03
             336            1100     9.08805E-03     10.8109E-03
             287            1101     9.05068E-03     8.56348E-03
             286            1101     9.05068E-03     8.56348E-03
             336            1101     9.05068E-03     8.56348E-03
             337            1101     9.05068E-03     8.56348E-03
             287            1102     10.2023E-03     9.99944E-03
             288            1102     10.2023E-03     9.99944E-03
             338            1102     10.2023E-03     9.99944E-03
             337            1102     10.2023E-03     9.99944E-03
             338            1103     11.5918E-03     11.9013E-03
             288            1103     11.5918E-03     11.9013E-03
             289            1103     11.5918E-03     11.9013E-03
             339            1103     11.5918E-03     11.9013E-03
             289            1104     13.6198E-03     13.7376E-03
             340            1104     13.6198E-03     13.7376E-03
             290            1104     13.6198E-03     13.7376E-03
             339            1104     13.6198E-03     13.7376E-03
             291            1105     15.4745E-03     15.8351E-03
             340            1105     15.4745E-03     15.8351E-03
             290            1105     15.4745E-03     15.8351E-03
             341            1105     15.4745E-03     15.8351E-03
             341            1106     17.5172E-03     17.9289E-03
             342            1106     17.5172E-03     17.9289E-03
             291            1106     17.5172E-03     17.9289E-03
             292            1106     17.5172E-03     17.9289E-03
             293            1107     19.7986E-03     19.6637E-03
             342            1107     19.7986E-03     19.6637E-03
             292            1107     19.7986E-03     19.6637E-03
             343            1107     19.7986E-03     19.6637E-03
             344            1108     21.1251E-03     22.8862E-03
             294            1108     21.1251E-03     22.8862E-03
             293            1108     21.1251E-03     22.8862E-03
             343            1108     21.1251E-03     22.8862E-03
             294            1109     25.7337E-03     24.2749E-03
             344            1109     25.7337E-03     24.2749E-03
             295            1109     25.7337E-03     24.2749E-03
             345            1109     25.7337E-03     24.2749E-03
             346            1110     27.3110E-03     26.9901E-03
             295            1110     27.3110E-03     26.9901E-03
             345            1110     27.3110E-03     26.9901E-03
             296            1110     27.3110E-03     26.9901E-03
             297            1111     23.1777E-03     27.7491E-03
             346            1111     23.1777E-03     27.7491E-03
             347            1111     23.1777E-03     27.7491E-03
             296            1111     23.1777E-03     27.7491E-03
             298            1112     24.4467E-03     23.5886E-03
             297            1112     24.4467E-03     23.5886E-03
             347            1112     24.4467E-03     23.5886E-03
             348            1112     24.4467E-03     23.5886E-03
             298            1113     25.6278E-03     24.7106E-03
             348            1113     25.6278E-03     24.7106E-03
             349            1113     25.6278E-03     24.7106E-03
             299            1113     25.6278E-03     24.7106E-03
             350            1114     25.7166E-03     26.9952E-03
             300            1114     25.7166E-03     26.9952E-03
             349            1114     25.7166E-03     26.9952E-03
             299            1114     25.7166E-03     26.9952E-03
             350            1115     28.1335E-03     28.2673E-03
             351            1115     28.1335E-03     28.2673E-03
             300            1115     28.1335E-03     28.2673E-03
             301            1115     28.1335E-03     28.2673E-03
             302            1116     29.8366E-03     30.5588E-03
             351            1116     29.8366E-03     30.5588E-03
             301            1116     29.8366E-03     30.5588E-03
             352            1116     29.8366E-03     30.5588E-03
             353            1117     31.8884E-03     32.6618E-03
             302            1117     31.8884E-03     32.6618E-03
             352            1117     31.8884E-03     32.6618E-03
             303            1117     31.8884E-03     32.6618E-03
             304            1118     34.3479E-03     34.2226E-03
             303            1118     34.3479E-03     34.2226E-03
             354            1118     34.3479E-03     34.2226E-03
             353            1118     34.3479E-03     34.2226E-03
             305            1119     35.3221E-03     38.0409E-03
             304            1119     35.3221E-03     38.0409E-03
             354            1119     35.3221E-03     38.0409E-03
             355            1119     35.3221E-03     38.0409E-03
             355            1120     41.2986E-03     39.1147E-03
             305            1120     41.2986E-03     39.1147E-03
             356            1120     41.2986E-03     39.1147E-03
             306            1120     41.2986E-03     39.1147E-03
             306            1121     42.9428E-03     42.2680E-03
             356            1121     42.9428E-03     42.2680E-03
             307            1121     42.9428E-03     42.2680E-03
             357            1121     42.9428E-03     42.2680E-03
             307            1122     37.1105E-03     44.5146E-03
             357            1122     37.1105E-03     44.5146E-03
             358            1122     37.1105E-03     44.5146E-03
             308            1122     37.1105E-03     44.5146E-03
             359            1123     40.0745E-03     38.8598E-03
             309            1123     40.0745E-03     38.8598E-03
             308            1123     40.0745E-03     38.8598E-03
             358            1123     40.0745E-03     38.8598E-03
             360            1124     41.1948E-03     39.5540E-03
             359            1124     41.1948E-03     39.5540E-03
             310            1124     41.1948E-03     39.5540E-03
             309            1124     41.1948E-03     39.5540E-03
             360            1125     39.9271E-03     42.1589E-03
             311            1125     39.9271E-03     42.1589E-03
             310            1125     39.9271E-03     42.1589E-03
             361            1125     39.9271E-03     42.1589E-03
             361            1126     42.7012E-03     42.8436E-03
             312            1126     42.7012E-03     42.8436E-03
             362            1126     42.7012E-03     42.8436E-03
             311            1126     42.7012E-03     42.8436E-03
             362            1127     44.2356E-03     45.3146E-03
             312            1127     44.2356E-03     45.3146E-03
             313            1127     44.2356E-03     45.3146E-03
             363            1127     44.2356E-03     45.3146E-03
             363            1128     46.2893E-03     47.4195E-03
             364            1128     46.2893E-03     47.4195E-03
             313            1128     46.2893E-03     47.4195E-03
             314            1128     46.2893E-03     47.4195E-03
             364            1129     48.9230E-03     48.8049E-03
             365            1129     48.9230E-03     48.8049E-03
             314            1129     48.9230E-03     48.8049E-03
             315            1129     48.9230E-03     48.8049E-03
             316            1130     49.5470E-03     53.2163E-03
             315            1130     49.5470E-03     53.2163E-03
             366            1130     49.5470E-03     53.2163E-03
             365            1130     49.5470E-03     53.2163E-03
             316            1131     56.8910E-03     53.9822E-03
             317            1131     56.8910E-03     53.9822E-03
             367            1131     56.8910E-03     53.9822E-03
             366            1131     56.8910E-03     53.9822E-03
             317            1132     58.6119E-03     57.5814E-03
             318            1132     58.6119E-03     57.5814E-03
             367            1132     58.6119E-03     57.5814E-03
             368            1132     58.6119E-03     57.5814E-03
             318            1133     50.9710E-03     61.1868E-03
             369            1133     50.9710E-03     61.1868E-03
             319            1133     50.9710E-03     61.1868E-03
             368            1133     50.9710E-03     61.1868E-03
             320            1134     55.5068E-03     53.9856E-03
             319            1134     55.5068E-03     53.9856E-03
             369            1134     55.5068E-03     53.9856E-03
             370            1134     55.5068E-03     53.9856E-03
             320            1135     56.6316E-03     54.3111E-03
             321            1135     56.6316E-03     54.3111E-03
             370            1135     56.6316E-03     54.3111E-03
             371            1135     56.6316E-03     54.3111E-03
             322            1136     54.1488E-03     57.2183E-03
             371            1136     54.1488E-03     57.2183E-03
             372            1136     54.1488E-03     57.2183E-03
             321            1136     54.1488E-03     57.2183E-03
             322            1137     57.1346E-03     57.5343E-03
             373            1137     57.1346E-03     57.5343E-03
             323            1137     57.1346E-03     57.5343E-03
             372            1137     57.1346E-03     57.5343E-03
             323            1138     58.9031E-03     60.3252E-03
             373            1138     58.9031E-03     60.3252E-03
             374            1138     58.9031E-03     60.3252E-03
             324            1138     58.9031E-03     60.3252E-03
             325            1139     61.4835E-03     61.5472E-03
             324            1139     61.4835E-03     61.5472E-03
             375            1139     61.4835E-03     61.5472E-03
             374            1139     61.4835E-03     61.5472E-03
             375            1140     61.9676E-03     66.3961E-03
             326            1140     61.9676E-03     66.3961E-03
             376            1140     61.9676E-03     66.3961E-03
             325            1140     61.9676E-03     66.3961E-03
             326            1141     70.5175E-03     66.9815E-03
             377            1141     70.5175E-03     66.9815E-03
             376            1141     70.5175E-03     66.9815E-03
             327            1141     70.5175E-03     66.9815E-03
             378            1142     72.3487E-03     71.0367E-03
             327            1142     72.3487E-03     71.0367E-03
             377            1142     72.3487E-03     71.0367E-03
             328            1142     72.3487E-03     71.0367E-03
             379            1143     17.9777E-03     19.3938E-03
             385            1143     17.9777E-03     19.3938E-03
             380            1143     17.9777E-03     19.3938E-03
             386            1143     17.9777E-03     19.3938E-03
             380            1144     19.5902E-03     19.9178E-03
             387            1144     19.5902E-03     19.9178E-03
             381            1144     19.5902E-03     19.9178E-03
             386            1144     19.5902E-03     19.9178E-03
             388            1145     19.8775E-03     20.1579E-03
             381            1145     19.8775E-03     20.1579E-03
             382            1145     19.8775E-03     20.1579E-03
             387            1145     19.8775E-03     20.1579E-03
             383            1146     21.1395E-03     20.3927E-03
             388            1146     21.1395E-03     20.3927E-03
             382            1146     21.1395E-03     20.3927E-03
             389            1146     21.1395E-03     20.3927E-03
             390            1147     20.3383E-03     19.3287E-03
             383            1147     20.3383E-03     19.3287E-03
             384            1147     20.3383E-03     19.3287E-03
             389            1147     20.3383E-03     19.3287E-03
             386            1148     28.5559E-03     31.0263E-03
             385            1148     28.5559E-03     31.0263E-03
             391            1148     28.5559E-03     31.0263E-03
             392            1148     28.5559E-03     31.0263E-03
             387            1149     32.2917E-03     31.5793E-03
             393            1149     32.2917E-03     31.5793E-03
             386            1149     32.2917E-03     31.5793E-03
             392            1149     32.2917E-03     31.5793E-03
             394            1150     33.6971E-03     33.7408E-03
             388            1150     33.6971E-03     33.7408E-03
             393            1150     33.6971E-03     33.7408E-03
             387            1150     33.6971E-03     33.7408E-03
             389            1151     34.9671E-03     34.0254E-03
             395            1151     34.9671E-03     34.0254E-03
             394            1151     34.9671E-03     34.0254E-03
             388            1151     34.9671E-03     34.0254E-03
             390            1152     33.4519E-03     32.4849E-03
             389            1152     33.4519E-03     32.4849E-03
             395            1152     33.4519E-03     32.4849E-03
             396            1152     33.4519E-03     32.4849E-03
             397            1153     39.0602E-03     42.7616E-03
             391            1153     39.0602E-03     42.7616E-03
             392            1153     39.0602E-03     42.7616E-03
             398            1153     39.0602E-03     42.7616E-03
             393            1154     44.5127E-03     42.9741E-03
             399            1154     44.5127E-03     42.9741E-03
             392            1154     44.5127E-03     42.9741E-03
             398            1154     44.5127E-03     42.9741E-03
             394            1155     47.6047E-03     46.9529E-03
             393            1155     47.6047E-03     46.9529E-03
             400            1155     47.6047E-03     46.9529E-03
             399            1155     47.6047E-03     46.9529E-03
             401            1156     49.2995E-03     47.3796E-03
             400            1156     49.2995E-03     47.3796E-03
             395            1156     49.2995E-03     47.3796E-03
             394            1156     49.2995E-03     47.3796E-03
             401            1157     46.8520E-03     45.2716E-03
             402            1157     46.8520E-03     45.2716E-03
             396            1157     46.8520E-03     45.2716E-03
             395            1157     46.8520E-03     45.2716E-03
             398            1158     48.2057E-03     54.0630E-03
             404            1158     48.2057E-03     54.0630E-03
             403            1158     48.2057E-03     54.0630E-03
             397            1158     48.2057E-03     54.0630E-03
             404            1159     55.1551E-03     53.4578E-03
             398            1159     55.1551E-03     53.4578E-03
             405            1159     55.1551E-03     53.4578E-03
             399            1159     55.1551E-03     53.4578E-03
             399            1160     59.0472E-03     57.0471E-03
             405            1160     59.0472E-03     57.0471E-03
             400            1160     59.0472E-03     57.0471E-03
             406            1160     59.0472E-03     57.0471E-03
             406            1161     61.1877E-03     57.2762E-03
             407            1161     61.1877E-03     57.2762E-03
             400            1161     61.1877E-03     57.2762E-03
             401            1161     61.1877E-03     57.2762E-03
             407            1162     58.3633E-03     56.3819E-03
             402            1162     58.3633E-03     56.3819E-03
             401            1162     58.3633E-03     56.3819E-03
             408            1162     58.3633E-03     56.3819E-03
             403            1163     55.4389E-03     63.2415E-03
             404            1163     55.4389E-03     63.2415E-03
             409            1163     55.4389E-03     63.2415E-03
             410            1163     55.4389E-03     63.2415E-03
             411            1164     63.5589E-03     62.0211E-03
             404            1164     63.5589E-03     62.0211E-03
             410            1164     63.5589E-03     62.0211E-03
             405            1164     63.5589E-03     62.0211E-03
             412            1165     66.0459E-03     65.0585E-03
             411            1165     66.0459E-03     65.0585E-03
             406            1165     66.0459E-03     65.0585E-03
             405            1165     66.0459E-03     65.0585E-03
             412            1166     68.6971E-03     65.5292E-03
             407            1166     68.6971E-03     65.5292E-03
             413            1166     68.6971E-03     65.5292E-03
             406            1166     68.6971E-03     65.5292E-03
             408            1167     67.3340E-03     65.9650E-03
             414            1167     67.3340E-03     65.9650E-03
             407            1167     67.3340E-03     65.9650E-03
             413            1167     67.3340E-03     65.9650E-03
             410            1168     60.9332E-03     67.2164E-03
             415            1168     60.9332E-03     67.2164E-03
             416            1168     60.9332E-03     67.2164E-03
             409            1168     60.9332E-03     67.2164E-03
             410            1169     68.3294E-03     65.7322E-03
             416            1169     68.3294E-03     65.7322E-03
             411            1169     68.3294E-03     65.7322E-03
             417            1169     68.3294E-03     65.7322E-03
             411            1170     69.4901E-03     68.9342E-03
             412            1170     69.4901E-03     68.9342E-03
             417            1170     69.4901E-03     68.9342E-03
             418            1170     69.4901E-03     68.9342E-03
             412            1171     73.1358E-03     70.7227E-03
             419            1171     73.1358E-03     70.7227E-03
             413            1171     73.1358E-03     70.7227E-03
             418            1171     73.1358E-03     70.7227E-03
             420            1172     75.1304E-03     73.1662E-03
             419            1172     75.1304E-03     73.1662E-03
             413            1172     75.1304E-03     73.1662E-03
             414            1172     75.1304E-03     73.1662E-03
             421            1173     22.3119E-03     21.1736E-03
             428            1173     22.3119E-03     21.1736E-03
             427            1173     22.3119E-03     21.1736E-03
             422            1173     22.3119E-03     21.1736E-03
             423            1174     22.9384E-03     22.0646E-03
             428            1174     22.9384E-03     22.0646E-03
             422            1174     22.9384E-03     22.0646E-03
             429            1174     22.9384E-03     22.0646E-03
             423            1175     21.1211E-03     22.6703E-03
             424            1175     21.1211E-03     22.6703E-03
             429            1175     21.1211E-03     22.6703E-03
             430            1175     21.1211E-03     22.6703E-03
             424            1176     21.9850E-03     21.1970E-03
             425            1176     21.9850E-03     21.1970E-03
             431            1176     21.9850E-03     21.1970E-03
             430            1176     21.9850E-03     21.1970E-03
             432            1177     21.2100E-03     21.5095E-03
             426            1177     21.2100E-03     21.5095E-03
             431            1177     21.2100E-03     21.5095E-03
             425            1177     21.2100E-03     21.5095E-03
             433            1178     34.6096E-03     33.5291E-03
             427            1178     34.6096E-03     33.5291E-03
             434            1178     34.6096E-03     33.5291E-03
             428            1178     34.6096E-03     33.5291E-03
             428            1179     36.2570E-03     34.1666E-03
             434            1179     36.2570E-03     34.1666E-03
             429            1179     36.2570E-03     34.1666E-03
             435            1179     36.2570E-03     34.1666E-03
             429            1180     32.5452E-03     36.0348E-03
             435            1180     32.5452E-03     36.0348E-03
             430            1180     32.5452E-03     36.0348E-03
             436            1180     32.5452E-03     36.0348E-03
             430            1181     34.3488E-03     32.5392E-03
             437            1181     34.3488E-03     32.5392E-03
             436            1181     34.3488E-03     32.5392E-03
             431            1181     34.3488E-03     32.5392E-03
             437            1182     32.2568E-03     31.2539E-03
             431            1182     32.2568E-03     31.2539E-03
             432            1182     32.2568E-03     31.2539E-03
             438            1182     32.2568E-03     31.2539E-03
             439            1183     47.7616E-03     45.9696E-03
             433            1183     47.7616E-03     45.9696E-03
             434            1183     47.7616E-03     45.9696E-03
             440            1183     47.7616E-03     45.9696E-03
             440            1184     50.4297E-03     46.1013E-03
             434            1184     50.4297E-03     46.1013E-03
             441            1184     50.4297E-03     46.1013E-03
             435            1184     50.4297E-03     46.1013E-03
             441            1185     44.5765E-03     49.0819E-03
             436            1185     44.5765E-03     49.0819E-03
             435            1185     44.5765E-03     49.0819E-03
             442            1185     44.5765E-03     49.0819E-03
             437            1186     47.1151E-03     44.0493E-03
             443            1186     47.1151E-03     44.0493E-03
             436            1186     47.1151E-03     44.0493E-03
             442            1186     47.1151E-03     44.0493E-03
             444            1187     43.5942E-03     41.8960E-03
             437            1187     43.5942E-03     41.8960E-03
             443            1187     43.5942E-03     41.8960E-03
             438            1187     43.5942E-03     41.8960E-03
             446            1188     59.3362E-03     57.3138E-03
             439            1188     59.3362E-03     57.3138E-03
             440            1188     59.3362E-03     57.3138E-03
             445            1188     59.3362E-03     57.3138E-03
             447            1189     62.1164E-03     55.1452E-03
             440            1189     62.1164E-03     55.1452E-03
             446            1189     62.1164E-03     55.1452E-03
             441            1189     62.1164E-03     55.1452E-03
             447            1190     53.6416E-03     59.3793E-03
             448            1190     53.6416E-03     59.3793E-03
             442            1190     53.6416E-03     59.3793E-03
             441            1190     53.6416E-03     59.3793E-03
             442            1191     57.8873E-03     53.1945E-03
             448            1191     57.8873E-03     53.1945E-03
             449            1191     57.8873E-03     53.1945E-03
             443            1191     57.8873E-03     53.1945E-03
             443            1192     53.8986E-03     52.1837E-03
             449            1192     53.8986E-03     52.1837E-03
             444            1192     53.8986E-03     52.1837E-03
             450            1192     53.8986E-03     52.1837E-03
             445            1193     68.4729E-03     67.7011E-03
             452            1193     68.4729E-03     67.7011E-03
             451            1193     68.4729E-03     67.7011E-03
             446            1193     68.4729E-03     67.7011E-03
             446            1194     70.2986E-03     63.5307E-03
             453            1194     70.2986E-03     63.5307E-03
             447            1194     70.2986E-03     63.5307E-03
             452            1194     70.2986E-03     63.5307E-03
             453            1195     58.9207E-03     67.5361E-03
             448            1195     58.9207E-03     67.5361E-03
             454            1195     58.9207E-03     67.5361E-03
             447            1195     58.9207E-03     67.5361E-03
             448            1196     65.0894E-03     60.4223E-03
             454            1196     65.0894E-03     60.4223E-03
             455            1196     65.0894E-03     60.4223E-03
             449            1196     65.0894E-03     60.4223E-03
             456            1197     61.9332E-03     60.8266E-03
             450            1197     61.9332E-03     60.8266E-03
             449            1197     61.9332E-03     60.8266E-03
             455            1197     61.9332E-03     60.8266E-03
             451            1198     76.5953E-03     75.4251E-03
             452            1198     76.5953E-03     75.4251E-03
             458            1198     76.5953E-03     75.4251E-03
             457            1198     76.5953E-03     75.4251E-03
             453            1199     75.4125E-03     69.7569E-03
             459            1199     75.4125E-03     69.7569E-03
             458            1199     75.4125E-03     69.7569E-03
             452            1199     75.4125E-03     69.7569E-03
             460            1200     64.3058E-03     71.4034E-03
             459            1200     64.3058E-03     71.4034E-03
             453            1200     64.3058E-03     71.4034E-03
             454            1200     64.3058E-03     71.4034E-03
             454            1201     68.5161E-03     64.1209E-03
             460            1201     68.5161E-03     64.1209E-03
             461            1201     68.5161E-03     64.1209E-03
             455            1201     68.5161E-03     64.1209E-03
             455            1202     65.7074E-03     63.9613E-03
             462            1202     65.7074E-03     63.9613E-03
             456            1202     65.7074E-03     63.9613E-03
             461            1202     65.7074E-03     63.9613E-03
             469            1203     22.9788E-15     20.7301E-15
             464            1203     22.9788E-15     20.7301E-15
             470            1203     22.9788E-15     20.7301E-15
             463            1203     22.9788E-15     20.7301E-15
             470            1204     22.3695E-15     20.8895E-15
             464            1204     22.3695E-15     20.8895E-15
             465            1204     22.3695E-15     20.8895E-15
             471            1204     22.3695E-15     20.8895E-15
             465            1205     17.5672E-15     17.0035E-15
             471            1205     17.5672E-15     17.0035E-15
             466            1205     17.5672E-15     17.0035E-15
             472            1205     17.5672E-15     17.0035E-15
             467            1206     12.0996E-15     12.7072E-15
             472            1206     12.0996E-15     12.7072E-15
             473            1206     12.0996E-15     12.7072E-15
             466            1206     12.0996E-15     12.7072E-15
             467            1207     13.8412E-15     13.5185E-15
             468            1207     13.8412E-15     13.5185E-15
             474            1207     13.8412E-15     13.5185E-15
             473            1207     13.8412E-15     13.5185E-15
             476            1208     24.4360E-15     25.2186E-15
             469            1208     24.4360E-15     25.2186E-15
             475            1208     24.4360E-15     25.2186E-15
             470            1208     24.4360E-15     25.2186E-15
             471            1209     30.3047E-15     29.3382E-15
             470            1209     30.3047E-15     29.3382E-15
             477            1209     30.3047E-15     29.3382E-15
             476            1209     30.3047E-15     29.3382E-15
             477            1210     25.1159E-15     23.0310E-15
             472            1210     25.1159E-15     23.0310E-15
             478            1210     25.1159E-15     23.0310E-15
             471            1210     25.1159E-15     23.0310E-15
             473            1211     18.4393E-15     17.6628E-15
             478            1211     18.4393E-15     17.6628E-15
             472            1211     18.4393E-15     17.6628E-15
             479            1211     18.4393E-15     17.6628E-15
             473            1212     19.4496E-15     16.9781E-15
             480            1212     19.4496E-15     16.9781E-15
             479            1212     19.4496E-15     16.9781E-15
             474            1212     19.4496E-15     16.9781E-15
             475            1213     20.4632E-15     20.7959E-15
             481            1213     20.4632E-15     20.7959E-15
             476            1213     20.4632E-15     20.7959E-15
             482            1213     20.4632E-15     20.7959E-15
             482            1214     26.6092E-15     26.5326E-15
             477            1214     26.6092E-15     26.5326E-15
             476            1214     26.6092E-15     26.5326E-15
             483            1214     26.6092E-15     26.5326E-15
             483            1215     26.5389E-15     27.1179E-15
             484            1215     26.5389E-15     27.1179E-15
             478            1215     26.5389E-15     27.1179E-15
             477            1215     26.5389E-15     27.1179E-15
             484            1216     20.8722E-15     20.3105E-15
             485            1216     20.8722E-15     20.3105E-15
             478            1216     20.8722E-15     20.3105E-15
             479            1216     20.8722E-15     20.3105E-15
             486            1217     20.2680E-15     18.0496E-15
             479            1217     20.2680E-15     18.0496E-15
             485            1217     20.2680E-15     18.0496E-15
             480            1217     20.2680E-15     18.0496E-15
             482            1218     21.3557E-15     21.7982E-15
             488            1218     21.3557E-15     21.7982E-15
             481            1218     21.3557E-15     21.7982E-15
             487            1218     21.3557E-15     21.7982E-15
             488            1219     20.0197E-15     20.6783E-15
             489            1219     20.0197E-15     20.6783E-15
             483            1219     20.0197E-15     20.6783E-15
             482            1219     20.0197E-15     20.6783E-15
             490            1220     15.6561E-15     18.7836E-15
             483            1220     15.6561E-15     18.7836E-15
             484            1220     15.6561E-15     18.7836E-15
             489            1220     15.6561E-15     18.7836E-15
             485            1221     17.2696E-15     17.8354E-15
             484            1221     17.2696E-15     17.8354E-15
             491            1221     17.2696E-15     17.8354E-15
             490            1221     17.2696E-15     17.8354E-15
             486            1222     17.7292E-15     16.4969E-15
             492            1222     17.7292E-15     16.4969E-15
             491            1222     17.7292E-15     16.4969E-15
             485            1222     17.7292E-15     16.4969E-15
             493            1223     23.2124E-15     26.1946E-15
             494            1223     23.2124E-15     26.1946E-15
             487            1223     23.2124E-15     26.1946E-15
             488            1223     23.2124E-15     26.1946E-15
             495            1224     24.9559E-15     26.5861E-15
             494            1224     24.9559E-15     26.5861E-15
             488            1224     24.9559E-15     26.5861E-15
             489            1224     24.9559E-15     26.5861E-15
             490            1225     19.2679E-15     22.3599E-15
             495            1225     19.2679E-15     22.3599E-15
             489            1225     19.2679E-15     22.3599E-15
             496            1225     19.2679E-15     22.3599E-15
             496            1226     15.0152E-15     16.8183E-15
             497            1226     15.0152E-15     16.8183E-15
             491            1226     15.0152E-15     16.8183E-15
             490            1226     15.0152E-15     16.8183E-15
             492            1227     17.7056E-15     17.8853E-15
             491            1227     17.7056E-15     17.8853E-15
             498            1227     17.7056E-15     17.8853E-15
             497            1227     17.7056E-15     17.8853E-15
             500            1228     28.8833E-15     29.6365E-15
             493            1228     28.8833E-15     29.6365E-15
             499            1228     28.8833E-15     29.6365E-15
             494            1228     28.8833E-15     29.6365E-15
             495            1229     30.6376E-15     30.8780E-15
             500            1229     30.6376E-15     30.8780E-15
             501            1229     30.6376E-15     30.8780E-15
             494            1229     30.6376E-15     30.8780E-15
             495            1230     29.3738E-15     31.0086E-15
             501            1230     29.3738E-15     31.0086E-15
             502            1230     29.3738E-15     31.0086E-15
             496            1230     29.3738E-15     31.0086E-15
             502            1231     24.9034E-15     27.2673E-15
             496            1231     24.9034E-15     27.2673E-15
             503            1231     24.9034E-15     27.2673E-15
             497            1231     24.9034E-15     27.2673E-15
             498            1232     22.0461E-15     23.7231E-15
             503            1232     22.0461E-15     23.7231E-15
             497            1232     22.0461E-15     23.7231E-15
             504            1232     22.0461E-15     23.7231E-15
             546            1233     17.7370E-03     18.2961E-03
             505            1233     17.7370E-03     18.2961E-03
             545            1233     17.7370E-03     18.2961E-03
             506            1233     17.7370E-03     18.2961E-03
             507            1234     20.7613E-03     19.7413E-03
             546            1234     20.7613E-03     19.7413E-03
             547            1234     20.7613E-03     19.7413E-03
             506            1234     20.7613E-03     19.7413E-03
             508            1235     21.2638E-03     20.8409E-03
             507            1235     21.2638E-03     20.8409E-03
             547            1235     21.2638E-03     20.8409E-03
             548            1235     21.2638E-03     20.8409E-03
             509            1236     19.9708E-03     21.1560E-03
             549            1236     19.9708E-03     21.1560E-03
             508            1236     19.9708E-03     21.1560E-03
             548            1236     19.9708E-03     21.1560E-03
             509            1237     20.3395E-03     20.4902E-03
             510            1237     20.3395E-03     20.4902E-03
             549            1237     20.3395E-03     20.4902E-03
             550            1237     20.3395E-03     20.4902E-03
             550            1238     20.1841E-03     20.3595E-03
             551            1238     20.1841E-03     20.3595E-03
             511            1238     20.1841E-03     20.3595E-03
             510            1238     20.1841E-03     20.3595E-03
             511            1239     19.8588E-03     19.8865E-03
             551            1239     19.8588E-03     19.8865E-03
             552            1239     19.8588E-03     19.8865E-03
             512            1239     19.8588E-03     19.8865E-03
             552            1240     19.5551E-03     19.2955E-03
             513            1240     19.5551E-03     19.2955E-03
             512            1240     19.5551E-03     19.2955E-03
             553            1240     19.5551E-03     19.2955E-03
             514            1241     19.1194E-03     18.9190E-03
             513            1241     19.1194E-03     18.9190E-03
             554            1241     19.1194E-03     18.9190E-03
             553            1241     19.1194E-03     18.9190E-03
             554            1242     18.8638E-03     18.0153E-03
             555            1242     18.8638E-03     18.0153E-03
             515            1242     18.8638E-03     18.0153E-03
             514            1242     18.8638E-03     18.0153E-03
             515            1243     18.0963E-03     17.8660E-03
             555            1243     18.0963E-03     17.8660E-03
             556            1243     18.0963E-03     17.8660E-03
             516            1243     18.0963E-03     17.8660E-03
             556            1244     17.0225E-03     17.8104E-03
             557            1244     17.0225E-03     17.8104E-03
             517            1244     17.0225E-03     17.8104E-03
             516            1244     17.0225E-03     17.8104E-03
             557            1245     18.1698E-03     17.3591E-03
             558            1245     18.1698E-03     17.3591E-03
             518            1245     18.1698E-03     17.3591E-03
             517            1245     18.1698E-03     17.3591E-03
             519            1246     18.4099E-03     18.1109E-03
             558            1246     18.4099E-03     18.1109E-03
             518            1246     18.4099E-03     18.1109E-03
             559            1246     18.4099E-03     18.1109E-03
             560            1247     17.3830E-03     18.1990E-03
             520            1247     17.3830E-03     18.1990E-03
             519            1247     17.3830E-03     18.1990E-03
             559            1247     17.3830E-03     18.1990E-03
             560            1248     17.5615E-03     17.6463E-03
             561            1248     17.5615E-03     17.6463E-03
             521            1248     17.5615E-03     17.6463E-03
             520            1248     17.5615E-03     17.6463E-03
             562            1249     17.3769E-03     17.4738E-03
             561            1249     17.3769E-03     17.4738E-03
             521            1249     17.3769E-03     17.4738E-03
             522            1249     17.3769E-03     17.4738E-03
             562            1250     17.0830E-03     17.1393E-03
             523            1250     17.0830E-03     17.1393E-03
             563            1250     17.0830E-03     17.1393E-03
             522            1250     17.0830E-03     17.1393E-03
             524            1251     16.8716E-03     16.6995E-03
             563            1251     16.8716E-03     16.6995E-03
             564            1251     16.8716E-03     16.6995E-03
             523            1251     16.8716E-03     16.6995E-03
             524            1252     16.5905E-03     16.3243E-03
             564            1252     16.5905E-03     16.3243E-03
             565            1252     16.5905E-03     16.3243E-03
             525            1252     16.5905E-03     16.3243E-03
             525            1253     16.3048E-03     15.9971E-03
             566            1253     16.3048E-03     15.9971E-03
             526            1253     16.3048E-03     15.9971E-03
             565            1253     16.3048E-03     15.9971E-03
             526            1254     16.0521E-03     15.5128E-03
             527            1254     16.0521E-03     15.5128E-03
             567            1254     16.0521E-03     15.5128E-03
             566            1254     16.0521E-03     15.5128E-03
             527            1255     15.6230E-03     15.4612E-03
             568            1255     15.6230E-03     15.4612E-03
             567            1255     15.6230E-03     15.4612E-03
             528            1255     15.6230E-03     15.4612E-03
             529            1256     15.1521E-03     15.3519E-03
             569            1256     15.1521E-03     15.3519E-03
             528            1256     15.1521E-03     15.3519E-03
             568            1256     15.1521E-03     15.3519E-03
             570            1257     15.6835E-03     15.1620E-03
             529            1257     15.6835E-03     15.1620E-03
             530            1257     15.6835E-03     15.1620E-03
             569            1257     15.6835E-03     15.1620E-03
             570            1258     15.7308E-03     15.5810E-03
             530            1258     15.7308E-03     15.5810E-03
             571            1258     15.7308E-03     15.5810E-03
             531            1258     15.7308E-03     15.5810E-03
             572            1259     15.1295E-03     15.5216E-03
             531            1259     15.1295E-03     15.5216E-03
             532            1259     15.1295E-03     15.5216E-03
             571            1259     15.1295E-03     15.5216E-03
             532            1260     15.1702E-03     15.1782E-03
             573            1260     15.1702E-03     15.1782E-03
             572            1260     15.1702E-03     15.1782E-03
             533            1260     15.1702E-03     15.1782E-03
             574            1261     15.0259E-03     15.0472E-03
             573            1261     15.0259E-03     15.0472E-03
             534            1261     15.0259E-03     15.0472E-03
             533            1261     15.0259E-03     15.0472E-03
             574            1262     14.8567E-03     14.8337E-03
             575            1262     14.8567E-03     14.8337E-03
             534            1262     14.8567E-03     14.8337E-03
             535            1262     14.8567E-03     14.8337E-03
             535            1263     14.7531E-03     14.6195E-03
             536            1263     14.7531E-03     14.6195E-03
             575            1263     14.7531E-03     14.6195E-03
             576            1263     14.7531E-03     14.6195E-03
             537            1264     14.6558E-03     14.4778E-03
             536            1264     14.6558E-03     14.4778E-03
             576            1264     14.6558E-03     14.4778E-03
             577            1264     14.6558E-03     14.4778E-03
             577            1265     14.5496E-03     14.3175E-03
             538            1265     14.5496E-03     14.3175E-03
             578            1265     14.5496E-03     14.3175E-03
             537            1265     14.5496E-03     14.3175E-03
             578            1266     14.4158E-03     14.2536E-03
             538            1266     14.4158E-03     14.2536E-03
             539            1266     14.4158E-03     14.2536E-03
             579            1266     14.4158E-03     14.2536E-03
             580            1267     14.0013E-03     13.8992E-03
             579            1267     14.0013E-03     13.8992E-03
             540            1267     14.0013E-03     13.8992E-03
             539            1267     14.0013E-03     13.8992E-03
             581            1268     13.8519E-03     13.6273E-03
             580            1268     13.8519E-03     13.6273E-03
             540            1268     13.8519E-03     13.6273E-03
             541            1268     13.8519E-03     13.6273E-03
             541            1269     13.8676E-03     13.7882E-03
             582            1269     13.8676E-03     13.7882E-03
             581            1269     13.8676E-03     13.7882E-03
             542            1269     13.8676E-03     13.7882E-03
             542            1270     13.7541E-03     13.7495E-03
             543            1270     13.7541E-03     13.7495E-03
             583            1270     13.7541E-03     13.7495E-03
             582            1270     13.7541E-03     13.7495E-03
             543            1271     13.7509E-03     13.6364E-03
             544            1271     13.7509E-03     13.6364E-03
             584            1271     13.7509E-03     13.6364E-03
             583            1271     13.7509E-03     13.6364E-03
             545            1272     27.3981E-03     29.8070E-03
             546            1272     27.3981E-03     29.8070E-03
             586            1272     27.3981E-03     29.8070E-03
             585            1272     27.3981E-03     29.8070E-03
             586            1273     31.3809E-03     29.9369E-03
             547            1273     31.3809E-03     29.9369E-03
             587            1273     31.3809E-03     29.9369E-03
             546            1273     31.3809E-03     29.9369E-03
             588            1274     32.6938E-03     30.5574E-03
             547            1274     32.6938E-03     30.5574E-03
             548            1274     32.6938E-03     30.5574E-03
             587            1274     32.6938E-03     30.5574E-03
             548            1275     29.8116E-03     31.2780E-03
             588            1275     29.8116E-03     31.2780E-03
             549            1275     29.8116E-03     31.2780E-03
             589            1275     29.8116E-03     31.2780E-03
             589            1276     29.8995E-03     29.4066E-03
             590            1276     29.8995E-03     29.4066E-03
             549            1276     29.8995E-03     29.4066E-03
             550            1276     29.8995E-03     29.4066E-03
             550            1277     29.0730E-03     28.9069E-03
             591            1277     29.0730E-03     28.9069E-03
             551            1277     29.0730E-03     28.9069E-03
             590            1277     29.0730E-03     28.9069E-03
             551            1278     28.0068E-03     28.0983E-03
             591            1278     28.0068E-03     28.0983E-03
             552            1278     28.0068E-03     28.0983E-03
             592            1278     28.0068E-03     28.0983E-03
             552            1279     27.0932E-03     26.9921E-03
             593            1279     27.0932E-03     26.9921E-03
             592            1279     27.0932E-03     26.9921E-03
             553            1279     27.0932E-03     26.9921E-03
             593            1280     25.7127E-03     26.5379E-03
             594            1280     25.7127E-03     26.5379E-03
             553            1280     25.7127E-03     26.5379E-03
             554            1280     25.7127E-03     26.5379E-03
             554            1281     25.6469E-03     24.6317E-03
             594            1281     25.6469E-03     24.6317E-03
             555            1281     25.6469E-03     24.6317E-03
             595            1281     25.6469E-03     24.6317E-03
             555            1282     23.9241E-03     23.2989E-03
             595            1282     23.9241E-03     23.2989E-03
             596            1282     23.9241E-03     23.2989E-03
             556            1282     23.9241E-03     23.2989E-03
             597            1283     21.5899E-03     24.2899E-03
             596            1283     21.5899E-03     24.2899E-03
             556            1283     21.5899E-03     24.2899E-03
             557            1283     21.5899E-03     24.2899E-03
             598            1284     24.6353E-03     23.5420E-03
             597            1284     24.6353E-03     23.5420E-03
             558            1284     24.6353E-03     23.5420E-03
             557            1284     24.6353E-03     23.5420E-03
             558            1285     25.3784E-03     23.7684E-03
             599            1285     25.3784E-03     23.7684E-03
             559            1285     25.3784E-03     23.7684E-03
             598            1285     25.3784E-03     23.7684E-03
             599            1286     23.0551E-03     23.9970E-03
             600            1286     23.0551E-03     23.9970E-03
             559            1286     23.0551E-03     23.9970E-03
             560            1286     23.0551E-03     23.9970E-03
             600            1287     22.9080E-03     22.4451E-03
             561            1287     22.9080E-03     22.4451E-03
             560            1287     22.9080E-03     22.4451E-03
             601            1287     22.9080E-03     22.4451E-03
             561            1288     22.1619E-03     21.8757E-03
             602            1288     22.1619E-03     21.8757E-03
             562            1288     22.1619E-03     21.8757E-03
             601            1288     22.1619E-03     21.8757E-03
             603            1289     21.1530E-03     21.2313E-03
             563            1289     21.1530E-03     21.2313E-03
             602            1289     21.1530E-03     21.2313E-03
             562            1289     21.1530E-03     21.2313E-03
             564            1290     20.4384E-03     20.4068E-03
             563            1290     20.4384E-03     20.4068E-03
             603            1290     20.4384E-03     20.4068E-03
             604            1290     20.4384E-03     20.4068E-03
             605            1291     19.5793E-03     19.6329E-03
             564            1291     19.5793E-03     19.6329E-03
             565            1291     19.5793E-03     19.6329E-03
             604            1291     19.5793E-03     19.6329E-03
             606            1292     18.6250E-03     19.0231E-03
             605            1292     18.6250E-03     19.0231E-03
             566            1292     18.6250E-03     19.0231E-03
             565            1292     18.6250E-03     19.0231E-03
             606            1293     18.2196E-03     17.8276E-03
             566            1293     18.2196E-03     17.8276E-03
             567            1293     18.2196E-03     17.8276E-03
             607            1293     18.2196E-03     17.8276E-03
             607            1294     17.2510E-03     16.9832E-03
             568            1294     17.2510E-03     16.9832E-03
             608            1294     17.2510E-03     16.9832E-03
             567            1294     17.2510E-03     16.9832E-03
             609            1295     16.2393E-03     17.4194E-03
             608            1295     16.2393E-03     17.4194E-03
             569            1295     16.2393E-03     17.4194E-03
             568            1295     16.2393E-03     17.4194E-03
             570            1296     17.7658E-03     17.1184E-03
             569            1296     17.7658E-03     17.1184E-03
             609            1296     17.7658E-03     17.1184E-03
             610            1296     17.7658E-03     17.1184E-03
             570            1297     17.9674E-03     17.1022E-03
             611            1297     17.9674E-03     17.1022E-03
             571            1297     17.9674E-03     17.1022E-03
             610            1297     17.9674E-03     17.1022E-03
             571            1298     16.5053E-03     16.9691E-03
             612            1298     16.5053E-03     16.9691E-03
             572            1298     16.5053E-03     16.9691E-03
             611            1298     16.5053E-03     16.9691E-03
             613            1299     16.2127E-03     16.0110E-03
             612            1299     16.2127E-03     16.0110E-03
             572            1299     16.2127E-03     16.0110E-03
             573            1299     16.2127E-03     16.0110E-03
             574            1300     15.6391E-03     15.5987E-03
             573            1300     15.6391E-03     15.5987E-03
             613            1300     15.6391E-03     15.5987E-03
             614            1300     15.6391E-03     15.5987E-03
             574            1301     14.9887E-03     15.1217E-03
             614            1301     14.9887E-03     15.1217E-03
             615            1301     14.9887E-03     15.1217E-03
             575            1301     14.9887E-03     15.1217E-03
             616            1302     14.5155E-03     14.5825E-03
             576            1302     14.5155E-03     14.5825E-03
             575            1302     14.5155E-03     14.5825E-03
             615            1302     14.5155E-03     14.5825E-03
             616            1303     14.0502E-03     14.1120E-03
             576            1303     14.0502E-03     14.1120E-03
             617            1303     14.0502E-03     14.1120E-03
             577            1303     14.0502E-03     14.1120E-03
             617            1304     13.6838E-03     13.6479E-03
             577            1304     13.6838E-03     13.6479E-03
             618            1304     13.6838E-03     13.6479E-03
             578            1304     13.6838E-03     13.6479E-03
             619            1305     13.3797E-03     13.2850E-03
             618            1305     13.3797E-03     13.2850E-03
             578            1305     13.3797E-03     13.2850E-03
             579            1305     13.3797E-03     13.2850E-03
             580            1306     12.9939E-03     13.0632E-03
             620            1306     12.9939E-03     13.0632E-03
             619            1306     12.9939E-03     13.0632E-03
             579            1306     12.9939E-03     13.0632E-03
             621            1307     13.0220E-03     12.8863E-03
             620            1307     13.0220E-03     12.8863E-03
             580            1307     13.0220E-03     12.8863E-03
             581            1307     13.0220E-03     12.8863E-03
             622            1308     13.0287E-03     12.8743E-03
             581            1308     13.0287E-03     12.8743E-03
             582            1308     13.0287E-03     12.8743E-03
             621            1308     13.0287E-03     12.8743E-03
             622            1309     12.7736E-03     12.7806E-03
             623            1309     12.7736E-03     12.7806E-03
             583            1309     12.7736E-03     12.7806E-03
             582            1309     12.7736E-03     12.7806E-03
             624            1310     12.7135E-03     12.5969E-03
             584            1310     12.7135E-03     12.5969E-03
             623            1310     12.7135E-03     12.5969E-03
             583            1310     12.7135E-03     12.5969E-03
             625            1311     37.5069E-03     42.1984E-03
             585            1311     37.5069E-03     42.1984E-03
             626            1311     37.5069E-03     42.1984E-03
             586            1311     37.5069E-03     42.1984E-03
             586            1312     43.2340E-03     41.6519E-03
             627            1312     43.2340E-03     41.6519E-03
             626            1312     43.2340E-03     41.6519E-03
             587            1312     43.2340E-03     41.6519E-03
             588            1313     44.8955E-03     41.0206E-03
             587            1313     44.8955E-03     41.0206E-03
             628            1313     44.8955E-03     41.0206E-03
             627            1313     44.8955E-03     41.0206E-03
             629            1314     39.6026E-03     41.4915E-03
             628            1314     39.6026E-03     41.4915E-03
             588            1314     39.6026E-03     41.4915E-03
             589            1314     39.6026E-03     41.4915E-03
             630            1315     39.0988E-03     38.1202E-03
             629            1315     39.0988E-03     38.1202E-03
             589            1315     39.0988E-03     38.1202E-03
             590            1315     39.0988E-03     38.1202E-03
             590            1316     37.6087E-03     37.1683E-03
             631            1316     37.6087E-03     37.1683E-03
             591            1316     37.6087E-03     37.1683E-03
             630            1316     37.6087E-03     37.1683E-03
             631            1317     36.0897E-03     36.0421E-03
             591            1317     36.0897E-03     36.0421E-03
             632            1317     36.0897E-03     36.0421E-03
             592            1317     36.0897E-03     36.0421E-03
             632            1318     34.9713E-03     34.6975E-03
             633            1318     34.9713E-03     34.6975E-03
             593            1318     34.9713E-03     34.6975E-03
             592            1318     34.9713E-03     34.6975E-03
             634            1319     33.2119E-03     34.8186E-03
             594            1319     33.2119E-03     34.8186E-03
             633            1319     33.2119E-03     34.8186E-03
             593            1319     33.2119E-03     34.8186E-03
             594            1320     33.9738E-03     32.5950E-03
             595            1320     33.9738E-03     32.5950E-03
             634            1320     33.9738E-03     32.5950E-03
             635            1320     33.9738E-03     32.5950E-03
             595            1321     31.4979E-03     30.8574E-03
             636            1321     31.4979E-03     30.8574E-03
             635            1321     31.4979E-03     30.8574E-03
             596            1321     31.4979E-03     30.8574E-03
             596            1322     27.4482E-03     32.9928E-03
             637            1322     27.4482E-03     32.9928E-03
             636            1322     27.4482E-03     32.9928E-03
             597            1322     27.4482E-03     32.9928E-03
             597            1323     32.3837E-03     31.2339E-03
             598            1323     32.3837E-03     31.2339E-03
             638            1323     32.3837E-03     31.2339E-03
             637            1323     32.3837E-03     31.2339E-03
             639            1324     33.3168E-03     30.3952E-03
             598            1324     33.3168E-03     30.3952E-03
             638            1324     33.3168E-03     30.3952E-03
             599            1324     33.3168E-03     30.3952E-03
             600            1325     29.0615E-03     30.4047E-03
             640            1325     29.0615E-03     30.4047E-03
             639            1325     29.0615E-03     30.4047E-03
             599            1325     29.0615E-03     30.4047E-03
             640            1326     28.3710E-03     27.6617E-03
             600            1326     28.3710E-03     27.6617E-03
             601            1326     28.3710E-03     27.6617E-03
             641            1326     28.3710E-03     27.6617E-03
             601            1327     27.0151E-03     26.5584E-03
             642            1327     27.0151E-03     26.5584E-03
             602            1327     27.0151E-03     26.5584E-03
             641            1327     27.0151E-03     26.5584E-03
             603            1328     25.3973E-03     25.5154E-03
             602            1328     25.3973E-03     25.5154E-03
             642            1328     25.3973E-03     25.5154E-03
             643            1328     25.3973E-03     25.5154E-03
             644            1329     24.3587E-03     24.2753E-03
             604            1329     24.3587E-03     24.2753E-03
             643            1329     24.3587E-03     24.2753E-03
             603            1329     24.3587E-03     24.2753E-03
             645            1330     23.1924E-03     23.2854E-03
             605            1330     23.1924E-03     23.2854E-03
             644            1330     23.1924E-03     23.2854E-03
             604            1330     23.1924E-03     23.2854E-03
             605            1331     21.7824E-03     22.8286E-03
             645            1331     21.7824E-03     22.8286E-03
             606            1331     21.7824E-03     22.8286E-03
             646            1331     21.7824E-03     22.8286E-03
             607            1332     21.5874E-03     21.2395E-03
             606            1332     21.5874E-03     21.2395E-03
             646            1332     21.5874E-03     21.2395E-03
             647            1332     21.5874E-03     21.2395E-03
             608            1333     20.0502E-03     19.8758E-03
             647            1333     20.0502E-03     19.8758E-03
             648            1333     20.0502E-03     19.8758E-03
             607            1333     20.0502E-03     19.8758E-03
             608            1334     18.0244E-03     20.8704E-03
             648            1334     18.0244E-03     20.8704E-03
             609            1334     18.0244E-03     20.8704E-03
             649            1334     18.0244E-03     20.8704E-03
             609            1335     20.6181E-03     19.9148E-03
             649            1335     20.6181E-03     19.9148E-03
             610            1335     20.6181E-03     19.9148E-03
             650            1335     20.6181E-03     19.9148E-03
             610            1336     20.7962E-03     19.0435E-03
             651            1336     20.7962E-03     19.0435E-03
             650            1336     20.7962E-03     19.0435E-03
             611            1336     20.7962E-03     19.0435E-03
             612            1337     18.0233E-03     18.6865E-03
             611            1337     18.0233E-03     18.6865E-03
             652            1337     18.0233E-03     18.6865E-03
             651            1337     18.0233E-03     18.6865E-03
             652            1338     17.2982E-03     16.9225E-03
             653            1338     17.2982E-03     16.9225E-03
             613            1338     17.2982E-03     16.9225E-03
             612            1338     17.2982E-03     16.9225E-03
             614            1339     16.2570E-03     16.0937E-03
             653            1339     16.2570E-03     16.0937E-03
             654            1339     16.2570E-03     16.0937E-03
             613            1339     16.2570E-03     16.0937E-03
             654            1340     15.1238E-03     15.2611E-03
             615            1340     15.1238E-03     15.2611E-03
             614            1340     15.1238E-03     15.2611E-03
             655            1340     15.1238E-03     15.2611E-03
             616            1341     14.2334E-03     14.3900E-03
             655            1341     14.2334E-03     14.3900E-03
             615            1341     14.2334E-03     14.3900E-03
             656            1341     14.2334E-03     14.3900E-03
             657            1342     13.3234E-03     13.6930E-03
             656            1342     13.3234E-03     13.6930E-03
             616            1342     13.3234E-03     13.6930E-03
             617            1342     13.3234E-03     13.6930E-03
             617            1343     12.5640E-03     12.8924E-03
             657            1343     12.5640E-03     12.8924E-03
             658            1343     12.5640E-03     12.8924E-03
             618            1343     12.5640E-03     12.8924E-03
             658            1344     12.0040E-03     12.1103E-03
             659            1344     12.0040E-03     12.1103E-03
             619            1344     12.0040E-03     12.1103E-03
             618            1344     12.0040E-03     12.1103E-03
             619            1345     11.5914E-03     11.9483E-03
             620            1345     11.5914E-03     11.9483E-03
             660            1345     11.5914E-03     11.9483E-03
             659            1345     11.5914E-03     11.9483E-03
             621            1346     11.8604E-03     11.7355E-03
             660            1346     11.8604E-03     11.7355E-03
             620            1346     11.8604E-03     11.7355E-03
             661            1346     11.8604E-03     11.7355E-03
             661            1347     11.6969E-03     11.4101E-03
             621            1347     11.6969E-03     11.4101E-03
             662            1347     11.6969E-03     11.4101E-03
             622            1347     11.6969E-03     11.4101E-03
             663            1348     11.0890E-03     11.2433E-03
             662            1348     11.0890E-03     11.2433E-03
             622            1348     11.0890E-03     11.2433E-03
             623            1348     11.0890E-03     11.2433E-03
             663            1349     11.0231E-03     10.9571E-03
             624            1349     11.0231E-03     10.9571E-03
             664            1349     11.0231E-03     10.9571E-03
             623            1349     11.0231E-03     10.9571E-03
             626            1350     46.4367E-03     54.0515E-03
             665            1350     46.4367E-03     54.0515E-03
             625            1350     46.4367E-03     54.0515E-03
             666            1350     46.4367E-03     54.0515E-03
             627            1351     53.9235E-03     52.8421E-03
             626            1351     53.9235E-03     52.8421E-03
             666            1351     53.9235E-03     52.8421E-03
             667            1351     53.9235E-03     52.8421E-03
             668            1352     55.2490E-03     50.1811E-03
             628            1352     55.2490E-03     50.1811E-03
             627            1352     55.2490E-03     50.1811E-03
             667            1352     55.2490E-03     50.1811E-03
             628            1353     47.2547E-03     50.7818E-03
             668            1353     47.2547E-03     50.7818E-03
             629            1353     47.2547E-03     50.7818E-03
             669            1353     47.2547E-03     50.7818E-03
             670            1354     46.3504E-03     45.9979E-03
             669            1354     46.3504E-03     45.9979E-03
             630            1354     46.3504E-03     45.9979E-03
             629            1354     46.3504E-03     45.9979E-03
             631            1355     44.2806E-03     44.6429E-03
             671            1355     44.2806E-03     44.6429E-03
             670            1355     44.2806E-03     44.6429E-03
             630            1355     44.2806E-03     44.6429E-03
             631            1356     42.3397E-03     43.0537E-03
             672            1356     42.3397E-03     43.0537E-03
             671            1356     42.3397E-03     43.0537E-03
             632            1356     42.3397E-03     43.0537E-03
             633            1357     41.2175E-03     41.1369E-03
             673            1357     41.2175E-03     41.1369E-03
             672            1357     41.2175E-03     41.1369E-03
             632            1357     41.2175E-03     41.1369E-03
             633            1358     39.3183E-03     41.7821E-03
             634            1358     39.3183E-03     41.7821E-03
             673            1358     39.3183E-03     41.7821E-03
             674            1358     39.3183E-03     41.7821E-03
             675            1359     41.6604E-03     39.5699E-03
             674            1359     41.6604E-03     39.5699E-03
             635            1359     41.6604E-03     39.5699E-03
             634            1359     41.6604E-03     39.5699E-03
             676            1360     39.1132E-03     38.8468E-03
             635            1360     39.1132E-03     38.8468E-03
             675            1360     39.1132E-03     38.8468E-03
             636            1360     39.1132E-03     38.8468E-03
             637            1361     33.2455E-03     42.7648E-03
             676            1361     33.2455E-03     42.7648E-03
             636            1361     33.2455E-03     42.7648E-03
             677            1361     33.2455E-03     42.7648E-03
             677            1362     39.5558E-03     38.7846E-03
             637            1362     39.5558E-03     38.7846E-03
             678            1362     39.5558E-03     38.7846E-03
             638            1362     39.5558E-03     38.7846E-03
             639            1363     40.2594E-03     36.4746E-03
             678            1363     40.2594E-03     36.4746E-03
             638            1363     40.2594E-03     36.4746E-03
             679            1363     40.2594E-03     36.4746E-03
             680            1364     33.9764E-03     36.6194E-03
             679            1364     33.9764E-03     36.6194E-03
             639            1364     33.9764E-03     36.6194E-03
             640            1364     33.9764E-03     36.6194E-03
             681            1365     32.9064E-03     32.7688E-03
             641            1365     32.9064E-03     32.7688E-03
             680            1365     32.9064E-03     32.7688E-03
             640            1365     32.9064E-03     32.7688E-03
             682            1366     31.0622E-03     31.1629E-03
             642            1366     31.0622E-03     31.1629E-03
             681            1366     31.0622E-03     31.1629E-03
             641            1366     31.0622E-03     31.1629E-03
             682            1367     28.8312E-03     29.6252E-03
             642            1367     28.8312E-03     29.6252E-03
             643            1367     28.8312E-03     29.6252E-03
             683            1367     28.8312E-03     29.6252E-03
             643            1368     27.5851E-03     27.8186E-03
             684            1368     27.5851E-03     27.8186E-03
             644            1368     27.5851E-03     27.8186E-03
             683            1368     27.5851E-03     27.8186E-03
             685            1369     26.2254E-03     26.3942E-03
             645            1369     26.2254E-03     26.3942E-03
             684            1369     26.2254E-03     26.3942E-03
             644            1369     26.2254E-03     26.3942E-03
             645            1370     24.5948E-03     26.0803E-03
             686            1370     24.5948E-03     26.0803E-03
             685            1370     24.5948E-03     26.0803E-03
             646            1370     24.5948E-03     26.0803E-03
             686            1371     25.2016E-03     24.4858E-03
             687            1371     25.2016E-03     24.4858E-03
             647            1371     25.2016E-03     24.4858E-03
             646            1371     25.2016E-03     24.4858E-03
             688            1372     23.4422E-03     23.5410E-03
             648            1372     23.4422E-03     23.5410E-03
             687            1372     23.4422E-03     23.5410E-03
             647            1372     23.4422E-03     23.5410E-03
             648            1373     20.1586E-03     25.4270E-03
             649            1373     20.1586E-03     25.4270E-03
             689            1373     20.1586E-03     25.4270E-03
             688            1373     20.1586E-03     25.4270E-03
             690            1374     23.4707E-03     22.9974E-03
             650            1374     23.4707E-03     22.9974E-03
             689            1374     23.4707E-03     22.9974E-03
             649            1374     23.4707E-03     22.9974E-03
             650            1375     23.4619E-03     21.1255E-03
             690            1375     23.4619E-03     21.1255E-03
             691            1375     23.4619E-03     21.1255E-03
             651            1375     23.4619E-03     21.1255E-03
             652            1376     19.3172E-03     20.7823E-03
             691            1376     19.3172E-03     20.7823E-03
             692            1376     19.3172E-03     20.7823E-03
             651            1376     19.3172E-03     20.7823E-03
             692            1377     18.2239E-03     18.0477E-03
             652            1377     18.2239E-03     18.0477E-03
             693            1377     18.2239E-03     18.0477E-03
             653            1377     18.2239E-03     18.0477E-03
             693            1378     16.6810E-03     16.6372E-03
             654            1378     16.6810E-03     16.6372E-03
             653            1378     16.6810E-03     16.6372E-03
             694            1378     16.6810E-03     16.6372E-03
             654            1379     15.0009E-03     15.2571E-03
             655            1379     15.0009E-03     15.2571E-03
             694            1379     15.0009E-03     15.2571E-03
             695            1379     15.0009E-03     15.2571E-03
             696            1380     13.8004E-03     13.8398E-03
             695            1380     13.8004E-03     13.8398E-03
             656            1380     13.8004E-03     13.8398E-03
             655            1380     13.8004E-03     13.8398E-03
             697            1381     12.5206E-03     12.9712E-03
             696            1381     12.5206E-03     12.9712E-03
             657            1381     12.5206E-03     12.9712E-03
             656            1381     12.5206E-03     12.9712E-03
             658            1382     11.6179E-03     12.0890E-03
             698            1382     11.6179E-03     12.0890E-03
             657            1382     11.6179E-03     12.0890E-03
             697            1382     11.6179E-03     12.0890E-03
             659            1383     10.7781E-03     11.1235E-03
             658            1383     10.7781E-03     11.1235E-03
             699            1383     10.7781E-03     11.1235E-03
             698            1383     10.7781E-03     11.1235E-03
             659            1384     9.89778E-03     10.9081E-03
             700            1384     9.89778E-03     10.9081E-03
             699            1384     9.89778E-03     10.9081E-03
             660            1384     9.89778E-03     10.9081E-03
             700            1385     10.2532E-03     10.1330E-03
             701            1385     10.2532E-03     10.1330E-03
             661            1385     10.2532E-03     10.1330E-03
             660            1385     10.2532E-03     10.1330E-03
             661            1386     9.97638E-03     9.45719E-03
             702            1386     9.97638E-03     9.45719E-03
             662            1386     9.97638E-03     9.45719E-03
             701            1386     9.97638E-03     9.45719E-03
             663            1387     8.86805E-03     9.34775E-03
             702            1387     8.86805E-03     9.34775E-03
             662            1387     8.86805E-03     9.34775E-03
             703            1387     8.86805E-03     9.34775E-03
             703            1388     8.65553E-03     8.73432E-03
             663            1388     8.65553E-03     8.73432E-03
             664            1388     8.65553E-03     8.73432E-03
             704            1388     8.65553E-03     8.73432E-03
             706            1389     53.4255E-03     63.0893E-03
             705            1389     53.4255E-03     63.0893E-03
             666            1389     53.4255E-03     63.0893E-03
             665            1389     53.4255E-03     63.0893E-03
             666            1390     62.4078E-03     62.1907E-03
             667            1390     62.4078E-03     62.1907E-03
             707            1390     62.4078E-03     62.1907E-03
             706            1390     62.4078E-03     62.1907E-03
             707            1391     62.9734E-03     58.5719E-03
             667            1391     62.9734E-03     58.5719E-03
             708            1391     62.9734E-03     58.5719E-03
             668            1391     62.9734E-03     58.5719E-03
             669            1392     53.0626E-03     58.8894E-03
             668            1392     53.0626E-03     58.8894E-03
             708            1392     53.0626E-03     58.8894E-03
             709            1392     53.0626E-03     58.8894E-03
             669            1393     52.4026E-03     53.1578E-03
             710            1393     52.4026E-03     53.1578E-03
             670            1393     52.4026E-03     53.1578E-03
             709            1393     52.4026E-03     53.1578E-03
             670            1394     49.6530E-03     51.5864E-03
             671            1394     49.6530E-03     51.5864E-03
             711            1394     49.6530E-03     51.5864E-03
             710            1394     49.6530E-03     51.5864E-03
             671            1395     47.2797E-03     49.4612E-03
             672            1395     47.2797E-03     49.4612E-03
             712            1395     47.2797E-03     49.4612E-03
             711            1395     47.2797E-03     49.4612E-03
             672            1396     46.0055E-03     46.8000E-03
             712            1396     46.0055E-03     46.8000E-03
             673            1396     46.0055E-03     46.8000E-03
             713            1396     46.0055E-03     46.8000E-03
             713            1397     43.3088E-03     47.1448E-03
             674            1397     43.3088E-03     47.1448E-03
             714            1397     43.3088E-03     47.1448E-03
             673            1397     43.3088E-03     47.1448E-03
             675            1398     46.6212E-03     44.6713E-03
             714            1398     46.6212E-03     44.6713E-03
             715            1398     46.6212E-03     44.6713E-03
             674            1398     46.6212E-03     44.6713E-03
             716            1399     44.9239E-03     44.8100E-03
             676            1399     44.9239E-03     44.8100E-03
             715            1399     44.9239E-03     44.8100E-03
             675            1399     44.9239E-03     44.8100E-03
             677            1400     38.1910E-03     50.2152E-03
             717            1400     38.1910E-03     50.2152E-03
             676            1400     38.1910E-03     50.2152E-03
             716            1400     38.1910E-03     50.2152E-03
             718            1401     45.4218E-03     45.2772E-03
             717            1401     45.4218E-03     45.2772E-03
             678            1401     45.4218E-03     45.2772E-03
             677            1401     45.4218E-03     45.2772E-03
             719            1402     45.6630E-03     42.3239E-03
             718            1402     45.6630E-03     42.3239E-03
             679            1402     45.6630E-03     42.3239E-03
             678            1402     45.6630E-03     42.3239E-03
             679            1403     37.9318E-03     42.1810E-03
             719            1403     37.9318E-03     42.1810E-03
             720            1403     37.9318E-03     42.1810E-03
             680            1403     37.9318E-03     42.1810E-03
             681            1404     36.9085E-03     37.4967E-03
             721            1404     36.9085E-03     37.4967E-03
             720            1404     36.9085E-03     37.4967E-03
             680            1404     36.9085E-03     37.4967E-03
             722            1405     34.5160E-03     35.6255E-03
             721            1405     34.5160E-03     35.6255E-03
             682            1405     34.5160E-03     35.6255E-03
             681            1405     34.5160E-03     35.6255E-03
             683            1406     31.8460E-03     33.5431E-03
             682            1406     31.8460E-03     33.5431E-03
             723            1406     31.8460E-03     33.5431E-03
             722            1406     31.8460E-03     33.5431E-03
             723            1407     30.2432E-03     31.2657E-03
             724            1407     30.2432E-03     31.2657E-03
             683            1407     30.2432E-03     31.2657E-03
             684            1407     30.2432E-03     31.2657E-03
             684            1408     28.4920E-03     29.1873E-03
             725            1408     28.4920E-03     29.1873E-03
             724            1408     28.4920E-03     29.1873E-03
             685            1408     28.4920E-03     29.1873E-03
             685            1409     26.3612E-03     28.4301E-03
             726            1409     26.3612E-03     28.4301E-03
             725            1409     26.3612E-03     28.4301E-03
             686            1409     26.3612E-03     28.4301E-03
             687            1410     27.3996E-03     26.6171E-03
             726            1410     27.3996E-03     26.6171E-03
             686            1410     27.3996E-03     26.6171E-03
             727            1410     27.3996E-03     26.6171E-03
             687            1411     26.1849E-03     26.1962E-03
             727            1411     26.1849E-03     26.1962E-03
             728            1411     26.1849E-03     26.1962E-03
             688            1411     26.1849E-03     26.1962E-03
             688            1412     22.3017E-03     29.1215E-03
             689            1412     22.3017E-03     29.1215E-03
             728            1412     22.3017E-03     29.1215E-03
             729            1412     22.3017E-03     29.1215E-03
             689            1413     26.2200E-03     26.1882E-03
             729            1413     26.2200E-03     26.1882E-03
             690            1413     26.2200E-03     26.1882E-03
             730            1413     26.2200E-03     26.1882E-03
             691            1414     25.9863E-03     23.8617E-03
             731            1414     25.9863E-03     23.8617E-03
             690            1414     25.9863E-03     23.8617E-03
             730            1414     25.9863E-03     23.8617E-03
             732            1415     20.6836E-03     23.1242E-03
             731            1415     20.6836E-03     23.1242E-03
             691            1415     20.6836E-03     23.1242E-03
             692            1415     20.6836E-03     23.1242E-03
             692            1416     19.3323E-03     19.5018E-03
             733            1416     19.3323E-03     19.5018E-03
             732            1416     19.3323E-03     19.5018E-03
             693            1416     19.3323E-03     19.5018E-03
             734            1417     17.1358E-03     17.5817E-03
             693            1417     17.1358E-03     17.5817E-03
             694            1417     17.1358E-03     17.5817E-03
             733            1417     17.1358E-03     17.5817E-03
             694            1418     14.8787E-03     15.5493E-03
             735            1418     14.8787E-03     15.5493E-03
             734            1418     14.8787E-03     15.5493E-03
             695            1418     14.8787E-03     15.5493E-03
             735            1419     13.2591E-03     13.4420E-03
             695            1419     13.2591E-03     13.4420E-03
             696            1419     13.2591E-03     13.4420E-03
             736            1419     13.2591E-03     13.4420E-03
             697            1420     11.5062E-03     11.9684E-03
             696            1420     11.5062E-03     11.9684E-03
             737            1420     11.5062E-03     11.9684E-03
             736            1420     11.5062E-03     11.9684E-03
             738            1421     10.5709E-03     10.8275E-03
             697            1421     10.5709E-03     10.8275E-03
             737            1421     10.5709E-03     10.8275E-03
             698            1421     10.5709E-03     10.8275E-03
             699            1422     9.88993E-03     10.0198E-03
             698            1422     9.88993E-03     10.0198E-03
             738            1422     9.88993E-03     10.0198E-03
             739            1422     9.88993E-03     10.0198E-03
             699            1423     8.36002E-03     10.1388E-03
             740            1423     8.36002E-03     10.1388E-03
             739            1423     8.36002E-03     10.1388E-03
             700            1423     8.36002E-03     10.1388E-03
             700            1424     8.66475E-03     8.81643E-03
             740            1424     8.66475E-03     8.81643E-03
             701            1424     8.66475E-03     8.81643E-03
             741            1424     8.66475E-03     8.81643E-03
             701            1425     8.11921E-03     7.18067E-03
             742            1425     8.11921E-03     7.18067E-03
             702            1425     8.11921E-03     7.18067E-03
             741            1425     8.11921E-03     7.18067E-03
             702            1426     6.14178E-03     6.68339E-03
             743            1426     6.14178E-03     6.68339E-03
             742            1426     6.14178E-03     6.68339E-03
             703            1426     6.14178E-03     6.68339E-03
             704            1427     5.81681E-03     5.97104E-03
             703            1427     5.81681E-03     5.97104E-03
             744            1427     5.81681E-03     5.97104E-03
             743            1427     5.81681E-03     5.97104E-03
             705            1428     60.4916E-03     68.2697E-03
             746            1428     60.4916E-03     68.2697E-03
             745            1428     60.4916E-03     68.2697E-03
             706            1428     60.4916E-03     68.2697E-03
             747            1429     69.5484E-03     68.3877E-03
             746            1429     69.5484E-03     68.3877E-03
             706            1429     69.5484E-03     68.3877E-03
             707            1429     69.5484E-03     68.3877E-03
             747            1430     67.6523E-03     63.9665E-03
             748            1430     67.6523E-03     63.9665E-03
             708            1430     67.6523E-03     63.9665E-03
             707            1430     67.6523E-03     63.9665E-03
             708            1431     58.7343E-03     63.1124E-03
             748            1431     58.7343E-03     63.1124E-03
             749            1431     58.7343E-03     63.1124E-03
             709            1431     58.7343E-03     63.1124E-03
             710            1432     57.8488E-03     57.7737E-03
             749            1432     57.8488E-03     57.7737E-03
             750            1432     57.8488E-03     57.7737E-03
             709            1432     57.8488E-03     57.7737E-03
             750            1433     54.7100E-03     56.0003E-03
             711            1433     54.7100E-03     56.0003E-03
             751            1433     54.7100E-03     56.0003E-03
             710            1433     54.7100E-03     56.0003E-03
             752            1434     52.1850E-03     53.4395E-03
             711            1434     52.1850E-03     53.4395E-03
             751            1434     52.1850E-03     53.4395E-03
             712            1434     52.1850E-03     53.4395E-03
             753            1435     50.2513E-03     50.4634E-03
             713            1435     50.2513E-03     50.4634E-03
             712            1435     50.2513E-03     50.4634E-03
             752            1435     50.2513E-03     50.4634E-03
             714            1436     46.9581E-03     49.5595E-03
             754            1436     46.9581E-03     49.5595E-03
             713            1436     46.9581E-03     49.5595E-03
             753            1436     46.9581E-03     49.5595E-03
             754            1437     48.4006E-03     46.3642E-03
             714            1437     48.4006E-03     46.3642E-03
             755            1437     48.4006E-03     46.3642E-03
             715            1437     48.4006E-03     46.3642E-03
             756            1438     46.9343E-03     45.5031E-03
             715            1438     46.9343E-03     45.5031E-03
             716            1438     46.9343E-03     45.5031E-03
             755            1438     46.9343E-03     45.5031E-03
             756            1439     43.6075E-03     52.5134E-03
             716            1439     43.6075E-03     52.5134E-03
             757            1439     43.6075E-03     52.5134E-03
             717            1439     43.6075E-03     52.5134E-03
             717            1440     50.8613E-03     50.1127E-03
             718            1440     50.8613E-03     50.1127E-03
             758            1440     50.8613E-03     50.1127E-03
             757            1440     50.8613E-03     50.1127E-03
             718            1441     49.0742E-03     46.3111E-03
             758            1441     49.0742E-03     46.3111E-03
             759            1441     49.0742E-03     46.3111E-03
             719            1441     49.0742E-03     46.3111E-03
             719            1442     41.8737E-03     45.1001E-03
             759            1442     41.8737E-03     45.1001E-03
             720            1442     41.8737E-03     45.1001E-03
             760            1442     41.8737E-03     45.1001E-03
             721            1443     40.6160E-03     40.5409E-03
             761            1443     40.6160E-03     40.5409E-03
             720            1443     40.6160E-03     40.5409E-03
             760            1443     40.6160E-03     40.5409E-03
             721            1444     37.7726E-03     38.5504E-03
             762            1444     37.7726E-03     38.5504E-03
             761            1444     37.7726E-03     38.5504E-03
             722            1444     37.7726E-03     38.5504E-03
             762            1445     35.1700E-03     36.0409E-03
             723            1445     35.1700E-03     36.0409E-03
             722            1445     35.1700E-03     36.0409E-03
             763            1445     35.1700E-03     36.0409E-03
             764            1446     32.9703E-03     33.5761E-03
             723            1446     32.9703E-03     33.5761E-03
             763            1446     32.9703E-03     33.5761E-03
             724            1446     32.9703E-03     33.5761E-03
             765            1447     30.7632E-03     30.9961E-03
             724            1447     30.7632E-03     30.9961E-03
             764            1447     30.7632E-03     30.9961E-03
             725            1447     30.7632E-03     30.9961E-03
             725            1448     28.0158E-03     29.3295E-03
             765            1448     28.0158E-03     29.3295E-03
             766            1448     28.0158E-03     29.3295E-03
             726            1448     28.0158E-03     29.3295E-03
             767            1449     27.7092E-03     26.6617E-03
             766            1449     27.7092E-03     26.6617E-03
             726            1449     27.7092E-03     26.6617E-03
             727            1449     27.7092E-03     26.6617E-03
             728            1450     26.2834E-03     25.3068E-03
             768            1450     26.2834E-03     25.3068E-03
             767            1450     26.2834E-03     25.3068E-03
             727            1450     26.2834E-03     25.3068E-03
             769            1451     25.0907E-03     30.1335E-03
             728            1451     25.0907E-03     30.1335E-03
             768            1451     25.0907E-03     30.1335E-03
             729            1451     25.0907E-03     30.1335E-03
             770            1452     29.8015E-03     29.5222E-03
             729            1452     29.8015E-03     29.5222E-03
             769            1452     29.8015E-03     29.5222E-03
             730            1452     29.8015E-03     29.5222E-03
             770            1453     27.9845E-03     26.2641E-03
             730            1453     27.9845E-03     26.2641E-03
             771            1453     27.9845E-03     26.2641E-03
             731            1453     27.9845E-03     26.2641E-03
             731            1454     22.6107E-03     24.5535E-03
             772            1454     22.6107E-03     24.5535E-03
             732            1454     22.6107E-03     24.5535E-03
             771            1454     22.6107E-03     24.5535E-03
             732            1455     20.8763E-03     20.7400E-03
             772            1455     20.8763E-03     20.7400E-03
             773            1455     20.8763E-03     20.7400E-03
             733            1455     20.8763E-03     20.7400E-03
             773            1456     18.1563E-03     18.5513E-03
             774            1456     18.1563E-03     18.5513E-03
             734            1456     18.1563E-03     18.5513E-03
             733            1456     18.1563E-03     18.5513E-03
             734            1457     15.6526E-03     16.0113E-03
             775            1457     15.6526E-03     16.0113E-03
             735            1457     15.6526E-03     16.0113E-03
             774            1457     15.6526E-03     16.0113E-03
             735            1458     13.3606E-03     13.4970E-03
             776            1458     13.3606E-03     13.4970E-03
             736            1458     13.3606E-03     13.4970E-03
             775            1458     13.3606E-03     13.4970E-03
             777            1459     11.0007E-03     11.1440E-03
             776            1459     11.0007E-03     11.1440E-03
             737            1459     11.0007E-03     11.1440E-03
             736            1459     11.0007E-03     11.1440E-03
             737            1460     9.06346E-03     8.96443E-03
             777            1460     9.06346E-03     8.96443E-03
             738            1460     9.06346E-03     8.96443E-03
             778            1460     9.06346E-03     8.96443E-03
             779            1461     7.75479E-03     7.28120E-03
             778            1461     7.75479E-03     7.28120E-03
             738            1461     7.75479E-03     7.28120E-03
             739            1461     7.75479E-03     7.28120E-03
             779            1462     7.86780E-03     9.36103E-03
             780            1462     7.86780E-03     9.36103E-03
             739            1462     7.86780E-03     9.36103E-03
             740            1462     7.86780E-03     9.36103E-03
             741            1463     9.20538E-03     9.47477E-03
             780            1463     9.20538E-03     9.47477E-03
             740            1463     9.20538E-03     9.47477E-03
             781            1463     9.20538E-03     9.47477E-03
             781            1464     7.09312E-03     6.08345E-03
             782            1464     7.09312E-03     6.08345E-03
             742            1464     7.09312E-03     6.08345E-03
             741            1464     7.09312E-03     6.08345E-03
             782            1465     3.79542E-03     4.28402E-03
             743            1465     3.79542E-03     4.28402E-03
             742            1465     3.79542E-03     4.28402E-03
             783            1465     3.79542E-03     4.28402E-03
             743            1466     3.37876E-03     3.94991E-03
             744            1466     3.37876E-03     3.94991E-03
             783            1466     3.37876E-03     3.94991E-03
             784            1466     3.37876E-03     3.94991E-03
            1761            2351     24.3987E-15     25.1731E-15
            1757            2351     24.3987E-15     25.1731E-15
            1762            2351     24.3987E-15     25.1731E-15
            1758            2351     24.3987E-15     25.1731E-15
            1759            2352     19.6387E-15     19.6093E-15
            1758            2352     19.6387E-15     19.6093E-15
            1763            2352     19.6387E-15     19.6093E-15
            1762            2352     19.6387E-15     19.6093E-15
            1760            2353     18.4045E-15     16.8738E-15
            1759            2353     18.4045E-15     16.8738E-15
            1763            2353     18.4045E-15     16.8738E-15
            1764            2353     18.4045E-15     16.8738E-15
            1765            2354     21.9554E-15     20.0237E-15
            1762            2354     21.9554E-15     20.0237E-15
            1766            2354     21.9554E-15     20.0237E-15
            1761            2354     21.9554E-15     20.0237E-15
            1766            2355     19.9492E-15     16.6025E-15
            1767            2355     19.9492E-15     16.6025E-15
            1762            2355     19.9492E-15     16.6025E-15
            1763            2355     19.9492E-15     16.6025E-15
            1767            2356     17.1614E-15     14.9314E-15
            1768            2356     17.1614E-15     14.9314E-15
            1763            2356     17.1614E-15     14.9314E-15
            1764            2356     17.1614E-15     14.9314E-15
            1769            2357     22.6470E-15     20.2195E-15
            1765            2357     22.6470E-15     20.2195E-15
            1770            2357     22.6470E-15     20.2195E-15
            1766            2357     22.6470E-15     20.2195E-15
            1766            2358     19.8497E-15     17.3418E-15
            1770            2358     19.8497E-15     17.3418E-15
            1771            2358     19.8497E-15     17.3418E-15
            1767            2358     19.8497E-15     17.3418E-15
            1771            2359     14.7985E-15     13.3153E-15
            1767            2359     14.7985E-15     13.3153E-15
            1772            2359     14.7985E-15     13.3153E-15
            1768            2359     14.7985E-15     13.3153E-15
            1773            2360     29.0797E-15     30.2848E-15
            1769            2360     29.0797E-15     30.2848E-15
            1770            2360     29.0797E-15     30.2848E-15
            1774            2360     29.0797E-15     30.2848E-15
            1770            2361     19.8658E-15     21.2211E-15
            1775            2361     19.8658E-15     21.2211E-15
            1774            2361     19.8658E-15     21.2211E-15
            1771            2361     19.8658E-15     21.2211E-15
            1772            2362     14.9072E-15     15.8761E-15
            1775            2362     14.9072E-15     15.8761E-15
            1771            2362     14.9072E-15     15.8761E-15
            1776            2362     14.9072E-15     15.8761E-15
            1773            2363     35.8663E-15     38.1907E-15
            1777            2363     35.8663E-15     38.1907E-15
            1774            2363     35.8663E-15     38.1907E-15
            1778            2363     35.8663E-15     38.1907E-15
            1775            2364     26.8698E-15     25.2381E-15
            1774            2364     26.8698E-15     25.2381E-15
            1779            2364     26.8698E-15     25.2381E-15
            1778            2364     26.8698E-15     25.2381E-15
            1779            2365     17.6196E-15     16.3160E-15
            1775            2365     17.6196E-15     16.3160E-15
            1776            2365     17.6196E-15     16.3160E-15
            1780            2365     17.6196E-15     16.3160E-15
            1782            2366     37.2837E-15     38.9089E-15
            1781            2366     37.2837E-15     38.9089E-15
            1777            2366     37.2837E-15     38.9089E-15
            1778            2366     37.2837E-15     38.9089E-15
            1778            2367     38.8293E-15     35.8512E-15
            1782            2367     38.8293E-15     35.8512E-15
            1783            2367     38.8293E-15     35.8512E-15
            1779            2367     38.8293E-15     35.8512E-15
            1780            2368     24.0942E-15     21.5469E-15
            1779            2368     24.0942E-15     21.5469E-15
            1783            2368     24.0942E-15     21.5469E-15
            1784            2368     24.0942E-15     21.5469E-15
            2349            2836     20.3383E-03     19.3287E-03
            2344            2836     20.3383E-03     19.3287E-03
            2343            2836     20.3383E-03     19.3287E-03
            2350            2836     20.3383E-03     19.3287E-03
            2351            2837     21.1395E-03     20.3927E-03
            2344            2837     21.1395E-03     20.3927E-03
            2350            2837     21.1395E-03     20.3927E-03
            2345            2837     21.1395E-03     20.3927E-03
            2351            2838     19.8775E-03     20.1579E-03
            2345            2838     19.8775E-03     20.1579E-03
            2352            2838     19.8775E-03     20.1579E-03
            2346            2838     19.8775E-03     20.1579E-03
            2347            2839     19.5902E-03     19.9178E-03
            2346            2839     19.5902E-03     19.9178E-03
            2353            2839     19.5902E-03     19.9178E-03
            2352            2839     19.5902E-03     19.9178E-03
            2353            2840     17.9777E-03     19.3938E-03
            2347            2840     17.9777E-03     19.3938E-03
            2354            2840     17.9777E-03     19.3938E-03
            2348            2840     17.9777E-03     19.3938E-03
            2356            2841     33.4519E-03     32.4849E-03
            2355            2841     33.4519E-03     32.4849E-03
            2349            2841     33.4519E-03     32.4849E-03
            2350            2841     33.4519E-03     32.4849E-03
            2351            2842     34.9671E-03     34.0254E-03
            2356            2842     34.9671E-03     34.0254E-03
            2357            2842     34.9671E-03     34.0254E-03
            2350            2842     34.9671E-03     34.0254E-03
            2351            2843     33.6971E-03     33.7408E-03
            2352            2843     33.6971E-03     33.7408E-03
            2357            2843     33.6971E-03     33.7408E-03
            2358            2843     33.6971E-03     33.7408E-03
            2353            2844     32.2917E-03     31.5793E-03
            2358            2844     32.2917E-03     31.5793E-03
            2359            2844     32.2917E-03     31.5793E-03
            2352            2844     32.2917E-03     31.5793E-03
            2359            2845     28.5559E-03     31.0263E-03
            2360            2845     28.5559E-03     31.0263E-03
            2354            2845     28.5559E-03     31.0263E-03
            2353            2845     28.5559E-03     31.0263E-03
            2361            2846     46.8520E-03     45.2716E-03
            2355            2846     46.8520E-03     45.2716E-03
            2356            2846     46.8520E-03     45.2716E-03
            2362            2846     46.8520E-03     45.2716E-03
            2362            2847     49.2995E-03     47.3796E-03
            2357            2847     49.2995E-03     47.3796E-03
            2356            2847     49.2995E-03     47.3796E-03
            2363            2847     49.2995E-03     47.3796E-03
            2358            2848     47.6047E-03     46.9529E-03
            2357            2848     47.6047E-03     46.9529E-03
            2363            2848     47.6047E-03     46.9529E-03
            2364            2848     47.6047E-03     46.9529E-03
            2364            2849     44.5127E-03     42.9741E-03
            2365            2849     44.5127E-03     42.9741E-03
            2359            2849     44.5127E-03     42.9741E-03
            2358            2849     44.5127E-03     42.9741E-03
            2360            2850     39.0602E-03     42.7616E-03
            2365            2850     39.0602E-03     42.7616E-03
            2359            2850     39.0602E-03     42.7616E-03
            2366            2850     39.0602E-03     42.7616E-03
            2367            2851     58.3633E-03     56.3819E-03
            2368            2851     58.3633E-03     56.3819E-03
            2362            2851     58.3633E-03     56.3819E-03
            2361            2851     58.3633E-03     56.3819E-03
            2368            2852     61.1877E-03     57.2762E-03
            2363            2852     61.1877E-03     57.2762E-03
            2369            2852     61.1877E-03     57.2762E-03
            2362            2852     61.1877E-03     57.2762E-03
            2370            2853     59.0472E-03     57.0471E-03
            2363            2853     59.0472E-03     57.0471E-03
            2364            2853     59.0472E-03     57.0471E-03
            2369            2853     59.0472E-03     57.0471E-03
            2371            2854     55.1551E-03     53.4578E-03
            2365            2854     55.1551E-03     53.4578E-03
            2370            2854     55.1551E-03     53.4578E-03
            2364            2854     55.1551E-03     53.4578E-03
            2365            2855     48.2057E-03     54.0630E-03
            2371            2855     48.2057E-03     54.0630E-03
            2366            2855     48.2057E-03     54.0630E-03
            2372            2855     48.2057E-03     54.0630E-03
            2374            2856     67.3340E-03     65.9650E-03
            2367            2856     67.3340E-03     65.9650E-03
            2373            2856     67.3340E-03     65.9650E-03
            2368            2856     67.3340E-03     65.9650E-03
            2374            2857     68.6971E-03     65.5292E-03
            2375            2857     68.6971E-03     65.5292E-03
            2368            2857     68.6971E-03     65.5292E-03
            2369            2857     68.6971E-03     65.5292E-03
            2369            2858     66.0459E-03     65.0585E-03
            2375            2858     66.0459E-03     65.0585E-03
            2376            2858     66.0459E-03     65.0585E-03
            2370            2858     66.0459E-03     65.0585E-03
            2371            2859     63.5589E-03     62.0211E-03
            2370            2859     63.5589E-03     62.0211E-03
            2376            2859     63.5589E-03     62.0211E-03
            2377            2859     63.5589E-03     62.0211E-03
            2377            2860     55.4389E-03     63.2415E-03
            2372            2860     55.4389E-03     63.2415E-03
            2378            2860     55.4389E-03     63.2415E-03
            2371            2860     55.4389E-03     63.2415E-03
            2373            2861     75.1304E-03     73.1662E-03
            2379            2861     75.1304E-03     73.1662E-03
            2380            2861     75.1304E-03     73.1662E-03
            2374            2861     75.1304E-03     73.1662E-03
            2375            2862     73.1358E-03     70.7227E-03
            2381            2862     73.1358E-03     70.7227E-03
            2374            2862     73.1358E-03     70.7227E-03
            2380            2862     73.1358E-03     70.7227E-03
            2382            2863     69.4901E-03     68.9342E-03
            2381            2863     69.4901E-03     68.9342E-03
            2376            2863     69.4901E-03     68.9342E-03
            2375            2863     69.4901E-03     68.9342E-03
            2383            2864     68.3294E-03     65.7322E-03
            2377            2864     68.3294E-03     65.7322E-03
            2382            2864     68.3294E-03     65.7322E-03
            2376            2864     68.3294E-03     65.7322E-03
            2377            2865     60.9332E-03     67.2164E-03
            2383            2865     60.9332E-03     67.2164E-03
            2378            2865     60.9332E-03     67.2164E-03
            2384            2865     60.9332E-03     67.2164E-03
            3502            3869     19.3251E-03     18.3570E-03
            3551            3869     19.3251E-03     18.3570E-03
            3552            3869     19.3251E-03     18.3570E-03
            3501            3869     19.3251E-03     18.3570E-03
            3502            3870     19.9571E-03     19.5345E-03
            3553            3870     19.9571E-03     19.5345E-03
            3552            3870     19.9571E-03     19.5345E-03
            3503            3870     19.9571E-03     19.5345E-03
            3503            3871     18.7109E-03     19.9640E-03
            3554            3871     18.7109E-03     19.9640E-03
            3504            3871     18.7109E-03     19.9640E-03
            3553            3871     18.7109E-03     19.9640E-03
            3504            3872     19.1842E-03     19.3726E-03
            3554            3872     19.1842E-03     19.3726E-03
            3555            3872     19.1842E-03     19.3726E-03
            3505            3872     19.1842E-03     19.3726E-03
            3555            3873     19.0802E-03     19.2225E-03
            3556            3873     19.0802E-03     19.2225E-03
            3506            3873     19.0802E-03     19.2225E-03
            3505            3873     19.0802E-03     19.2225E-03
            3557            3874     18.7116E-03     18.7277E-03
            3507            3874     18.7116E-03     18.7277E-03
            3506            3874     18.7116E-03     18.7277E-03
            3556            3874     18.7116E-03     18.7277E-03
            3558            3875     18.2977E-03     18.3456E-03
            3507            3875     18.2977E-03     18.3456E-03
            3557            3875     18.2977E-03     18.3456E-03
            3508            3875     18.2977E-03     18.3456E-03
            3509            3876     18.2147E-03     17.3135E-03
            3559            3876     18.2147E-03     17.3135E-03
            3558            3876     18.2147E-03     17.3135E-03
            3508            3876     18.2147E-03     17.3135E-03
            3510            3877     17.2785E-03     17.0449E-03
            3559            3877     17.2785E-03     17.0449E-03
            3560            3877     17.2785E-03     17.0449E-03
            3509            3877     17.2785E-03     17.0449E-03
            3511            3878     15.7828E-03     16.9456E-03
            3561            3878     15.7828E-03     16.9456E-03
            3510            3878     15.7828E-03     16.9456E-03
            3560            3878     15.7828E-03     16.9456E-03
            3511            3879     17.1452E-03     16.2976E-03
            3561            3879     17.1452E-03     16.2976E-03
            3562            3879     17.1452E-03     16.2976E-03
            3512            3879     17.1452E-03     16.2976E-03
            3562            3880     17.5492E-03     17.2259E-03
            3563            3880     17.5492E-03     17.2259E-03
            3513            3880     17.5492E-03     17.2259E-03
            3512            3880     17.5492E-03     17.2259E-03
            3513            3881     16.4814E-03     17.4757E-03
            3563            3881     16.4814E-03     17.4757E-03
            3564            3881     16.4814E-03     17.4757E-03
            3514            3881     16.4814E-03     17.4757E-03
            3514            3882     16.8149E-03     16.9157E-03
            3565            3882     16.8149E-03     16.9157E-03
            3515            3882     16.8149E-03     16.9157E-03
            3564            3882     16.8149E-03     16.9157E-03
            3516            3883     16.6687E-03     16.8177E-03
            3565            3883     16.6687E-03     16.8177E-03
            3515            3883     16.6687E-03     16.8177E-03
            3566            3883     16.6687E-03     16.8177E-03
            3516            3884     16.3977E-03     16.4095E-03
            3517            3884     16.3977E-03     16.4095E-03
            3567            3884     16.3977E-03     16.4095E-03
            3566            3884     16.3977E-03     16.4095E-03
            3568            3885     16.1416E-03     15.9005E-03
            3517            3885     16.1416E-03     15.9005E-03
            3518            3885     16.1416E-03     15.9005E-03
            3567            3885     16.1416E-03     15.9005E-03
            3518            3886     15.7523E-03     15.5894E-03
            3569            3886     15.7523E-03     15.5894E-03
            3568            3886     15.7523E-03     15.5894E-03
            3519            3886     15.7523E-03     15.5894E-03
            3570            3887     15.5426E-03     14.8145E-03
            3519            3887     15.5426E-03     14.8145E-03
            3520            3887     15.5426E-03     14.8145E-03
            3569            3887     15.5426E-03     14.8145E-03
            3520            3888     14.8820E-03     14.6655E-03
            3571            3888     14.8820E-03     14.6655E-03
            3570            3888     14.8820E-03     14.6655E-03
            3521            3888     14.8820E-03     14.6655E-03
            3522            3889     13.9245E-03     14.5963E-03
            3571            3889     13.9245E-03     14.5963E-03
            3521            3889     13.9245E-03     14.5963E-03
            3572            3889     13.9245E-03     14.5963E-03
            3572            3890     14.8641E-03     14.2058E-03
            3523            3890     14.8641E-03     14.2058E-03
            3522            3890     14.8641E-03     14.2058E-03
            3573            3890     14.8641E-03     14.2058E-03
            3574            3891     15.0636E-03     14.8590E-03
            3573            3891     15.0636E-03     14.8590E-03
            3523            3891     15.0636E-03     14.8590E-03
            3524            3891     15.0636E-03     14.8590E-03
            3524            3892     14.2370E-03     14.9316E-03
            3574            3892     14.2370E-03     14.9316E-03
            3575            3892     14.2370E-03     14.9316E-03
            3525            3892     14.2370E-03     14.9316E-03
            3525            3893     14.4133E-03     14.4726E-03
            3526            3893     14.4133E-03     14.4726E-03
            3576            3893     14.4133E-03     14.4726E-03
            3575            3893     14.4133E-03     14.4726E-03
            3526            3894     14.2529E-03     14.3386E-03
            3576            3894     14.2529E-03     14.3386E-03
            3527            3894     14.2529E-03     14.3386E-03
            3577            3894     14.2529E-03     14.3386E-03
            3528            3895     14.0143E-03     14.0061E-03
            3578            3895     14.0143E-03     14.0061E-03
            3527            3895     14.0143E-03     14.0061E-03
            3577            3895     14.0143E-03     14.0061E-03
            3528            3896     13.8149E-03     13.6305E-03
            3529            3896     13.8149E-03     13.6305E-03
            3578            3896     13.8149E-03     13.6305E-03
            3579            3896     13.8149E-03     13.6305E-03
            3529            3897     13.5697E-03     13.3655E-03
            3530            3897     13.5697E-03     13.3655E-03
            3580            3897     13.5697E-03     13.3655E-03
            3579            3897     13.5697E-03     13.3655E-03
            3530            3898     13.3464E-03     12.8919E-03
            3531            3898     13.3464E-03     12.8919E-03
            3580            3898     13.3464E-03     12.8919E-03
            3581            3898     13.3464E-03     12.8919E-03
            3532            3899     12.9578E-03     12.8152E-03
            3582            3899     12.9578E-03     12.8152E-03
            3581            3899     12.9578E-03     12.8152E-03
            3531            3899     12.9578E-03     12.8152E-03
            3532            3900     12.4739E-03     12.7131E-03
            3533            3900     12.4739E-03     12.7131E-03
            3582            3900     12.4739E-03     12.7131E-03
            3583            3900     12.4739E-03     12.7131E-03
            3584            3901     12.9761E-03     12.5163E-03
            3534            3901     12.9761E-03     12.5163E-03
            3583            3901     12.9761E-03     12.5163E-03
            3533            3901     12.9761E-03     12.5163E-03
            3534            3902     13.0215E-03     12.9017E-03
            3535            3902     13.0215E-03     12.9017E-03
            3584            3902     13.0215E-03     12.9017E-03
            3585            3902     13.0215E-03     12.9017E-03
            3586            3903     12.4737E-03     12.8527E-03
            3535            3903     12.4737E-03     12.8527E-03
            3536            3903     12.4737E-03     12.8527E-03
            3585            3903     12.4737E-03     12.8527E-03
            3586            3904     12.5258E-03     12.5361E-03
            3587            3904     12.5258E-03     12.5361E-03
            3537            3904     12.5258E-03     12.5361E-03
            3536            3904     12.5258E-03     12.5361E-03
            3587            3905     12.3870E-03     12.4168E-03
            3538            3905     12.3870E-03     12.4168E-03
            3588            3905     12.3870E-03     12.4168E-03
            3537            3905     12.3870E-03     12.4168E-03
            3538            3906     12.2244E-03     12.2058E-03
            3589            3906     12.2244E-03     12.2058E-03
            3588            3906     12.2244E-03     12.2058E-03
            3539            3906     12.2244E-03     12.2058E-03
            3590            3907     12.1155E-03     11.9927E-03
            3540            3907     12.1155E-03     11.9927E-03
            3589            3907     12.1155E-03     11.9927E-03
            3539            3907     12.1155E-03     11.9927E-03
            3591            3908     12.0087E-03     11.8415E-03
            3541            3908     12.0087E-03     11.8415E-03
            3540            3908     12.0087E-03     11.8415E-03
            3590            3908     12.0087E-03     11.8415E-03
            3541            3909     11.8839E-03     11.6597E-03
            3542            3909     11.8839E-03     11.6597E-03
            3592            3909     11.8839E-03     11.6597E-03
            3591            3909     11.8839E-03     11.6597E-03
            3593            3910     11.7369E-03     11.6098E-03
            3592            3910     11.7369E-03     11.6098E-03
            3543            3910     11.7369E-03     11.6098E-03
            3542            3910     11.7369E-03     11.6098E-03
            3543            3911     11.4642E-03     11.4088E-03
            3544            3911     11.4642E-03     11.4088E-03
            3594            3911     11.4642E-03     11.4088E-03
            3593            3911     11.4642E-03     11.4088E-03
            3594            3912     11.4846E-03     11.2714E-03
            3595            3912     11.4846E-03     11.2714E-03
            3544            3912     11.4846E-03     11.2714E-03
            3545            3912     11.4846E-03     11.2714E-03
            3546            3913     11.4932E-03     11.4213E-03
            3595            3913     11.4932E-03     11.4213E-03
            3596            3913     11.4932E-03     11.4213E-03
            3545            3913     11.4932E-03     11.4213E-03
            3597            3914     11.3230E-03     11.3613E-03
            3547            3914     11.3230E-03     11.3613E-03
            3546            3914     11.3230E-03     11.3613E-03
            3596            3914     11.3230E-03     11.3613E-03
            3548            3915     11.3439E-03     11.2838E-03
            3547            3915     11.3439E-03     11.2838E-03
            3597            3915     11.3439E-03     11.2838E-03
            3598            3915     11.3439E-03     11.2838E-03
            3599            3916     11.3435E-03     11.2726E-03
            3548            3916     11.3435E-03     11.2726E-03
            3549            3916     11.3435E-03     11.2726E-03
            3598            3916     11.3435E-03     11.2726E-03
            3550            3917     11.2915E-03     11.1959E-03
            3600            3917     11.2915E-03     11.1959E-03
            3549            3917     11.2915E-03     11.1959E-03
            3599            3917     11.2915E-03     11.1959E-03
            3551            3918     31.5561E-03     30.1204E-03
            3552            3918     31.5561E-03     30.1204E-03
            3601            3918     31.5561E-03     30.1204E-03
            3602            3918     31.5561E-03     30.1204E-03
            3552            3919     33.0518E-03     31.0124E-03
            3602            3919     33.0518E-03     31.0124E-03
            3603            3919     33.0518E-03     31.0124E-03
            3553            3919     33.0518E-03     31.0124E-03
            3604            3920     30.3071E-03     31.9460E-03
            3554            3920     30.3071E-03     31.9460E-03
            3603            3920     30.3071E-03     31.9460E-03
            3553            3920     30.3071E-03     31.9460E-03
            3604            3921     30.5506E-03     30.2736E-03
            3605            3921     30.5506E-03     30.2736E-03
            3554            3921     30.5506E-03     30.2736E-03
            3555            3921     30.5506E-03     30.2736E-03
            3556            3922     29.9789E-03     29.8063E-03
            3605            3922     29.9789E-03     29.8063E-03
            3606            3922     29.9789E-03     29.8063E-03
            3555            3922     29.9789E-03     29.8063E-03
            3557            3923     28.8672E-03     28.9270E-03
            3556            3923     28.8672E-03     28.9270E-03
            3607            3923     28.8672E-03     28.9270E-03
            3606            3923     28.8672E-03     28.9270E-03
            3608            3924     27.5526E-03     28.5857E-03
            3558            3924     27.5526E-03     28.5857E-03
            3607            3924     27.5526E-03     28.5857E-03
            3557            3924     27.5526E-03     28.5857E-03
            3559            3925     27.8552E-03     26.5593E-03
            3608            3925     27.8552E-03     26.5593E-03
            3609            3925     27.8552E-03     26.5593E-03
            3558            3925     27.8552E-03     26.5593E-03
            3609            3926     25.8476E-03     25.0396E-03
            3560            3926     25.8476E-03     25.0396E-03
            3610            3926     25.8476E-03     25.0396E-03
            3559            3926     25.8476E-03     25.0396E-03
            3561            3927     22.7391E-03     26.0840E-03
            3610            3927     22.7391E-03     26.0840E-03
            3560            3927     22.7391E-03     26.0840E-03
            3611            3927     22.7391E-03     26.0840E-03
            3562            3928     26.2960E-03     25.0663E-03
            3612            3928     26.2960E-03     25.0663E-03
            3611            3928     26.2960E-03     25.0663E-03
            3561            3928     26.2960E-03     25.0663E-03
            3562            3929     27.3493E-03     25.6156E-03
            3612            3929     27.3493E-03     25.6156E-03
            3563            3929     27.3493E-03     25.6156E-03
            3613            3929     27.3493E-03     25.6156E-03
            3563            3930     24.9561E-03     26.1778E-03
            3613            3930     24.9561E-03     26.1778E-03
            3614            3930     24.9561E-03     26.1778E-03
            3564            3930     24.9561E-03     26.1778E-03
            3564            3931     25.0773E-03     24.5941E-03
            3615            3931     25.0773E-03     24.5941E-03
            3614            3931     25.0773E-03     24.5941E-03
            3565            3931     25.0773E-03     24.5941E-03
            3565            3932     24.3538E-03     24.2126E-03
            3615            3932     24.3538E-03     24.2126E-03
            3616            3932     24.3538E-03     24.2126E-03
            3566            3932     24.3538E-03     24.2126E-03
            3566            3933     23.4729E-03     23.5362E-03
            3617            3933     23.4729E-03     23.5362E-03
            3567            3933     23.4729E-03     23.5362E-03
            3616            3933     23.4729E-03     23.5362E-03
            3618            3934     22.7331E-03     22.6037E-03
            3568            3934     22.7331E-03     22.6037E-03
            3617            3934     22.7331E-03     22.6037E-03
            3567            3934     22.7331E-03     22.6037E-03
            3569            3935     21.5450E-03     22.2634E-03
            3619            3935     21.5450E-03     22.2634E-03
            3618            3935     21.5450E-03     22.2634E-03
            3568            3935     21.5450E-03     22.2634E-03
            3619            3936     21.5151E-03     20.6701E-03
            3620            3936     21.5151E-03     20.6701E-03
            3569            3936     21.5151E-03     20.6701E-03
            3570            3936     21.5151E-03     20.6701E-03
            3620            3937     20.0658E-03     19.5184E-03
            3570            3937     20.0658E-03     19.5184E-03
            3621            3937     20.0658E-03     19.5184E-03
            3571            3937     20.0658E-03     19.5184E-03
            3572            3938     18.0138E-03     20.2658E-03
            3621            3938     18.0138E-03     20.2658E-03
            3571            3938     18.0138E-03     20.2658E-03
            3622            3938     18.0138E-03     20.2658E-03
            3573            3939     20.5284E-03     19.6057E-03
            3572            3939     20.5284E-03     19.6057E-03
            3623            3939     20.5284E-03     19.6057E-03
            3622            3939     20.5284E-03     19.6057E-03
            3574            3940     21.1307E-03     19.8706E-03
            3573            3940     21.1307E-03     19.8706E-03
            3623            3940     21.1307E-03     19.8706E-03
            3624            3940     21.1307E-03     19.8706E-03
            3625            3941     19.2260E-03     20.0651E-03
            3574            3941     19.2260E-03     20.0651E-03
            3575            3941     19.2260E-03     20.0651E-03
            3624            3941     19.2260E-03     20.0651E-03
            3575            3942     19.1402E-03     18.7796E-03
            3576            3942     19.1402E-03     18.7796E-03
            3625            3942     19.1402E-03     18.7796E-03
            3626            3942     19.1402E-03     18.7796E-03
            3627            3943     18.4665E-03     18.3625E-03
            3576            3943     18.4665E-03     18.3625E-03
            3577            3943     18.4665E-03     18.3625E-03
            3626            3943     18.4665E-03     18.3625E-03
            3578            3944     17.6662E-03     17.7533E-03
            3577            3944     17.6662E-03     17.7533E-03
            3627            3944     17.6662E-03     17.7533E-03
            3628            3944     17.6662E-03     17.7533E-03
            3579            3945     17.0141E-03     16.9862E-03
            3578            3945     17.0141E-03     16.9862E-03
            3629            3945     17.0141E-03     16.9862E-03
            3628            3945     17.0141E-03     16.9862E-03
            3580            3946     16.1388E-03     16.5166E-03
            3579            3946     16.1388E-03     16.5166E-03
            3630            3946     16.1388E-03     16.5166E-03
            3629            3946     16.1388E-03     16.5166E-03
            3581            3947     15.8179E-03     15.4297E-03
            3580            3947     15.8179E-03     15.4297E-03
            3631            3947     15.8179E-03     15.4297E-03
            3630            3947     15.8179E-03     15.4297E-03
            3582            3948     14.9111E-03     14.6289E-03
            3631            3948     14.9111E-03     14.6289E-03
            3632            3948     14.9111E-03     14.6289E-03
            3581            3948     14.9111E-03     14.6289E-03
            3583            3949     13.8789E-03     15.0239E-03
            3633            3949     13.8789E-03     15.0239E-03
            3582            3949     13.8789E-03     15.0239E-03
            3632            3949     13.8789E-03     15.0239E-03
            3583            3950     15.3115E-03     14.7129E-03
            3633            3950     15.3115E-03     14.7129E-03
            3634            3950     15.3115E-03     14.7129E-03
            3584            3950     15.3115E-03     14.7129E-03
            3634            3951     15.5099E-03     14.7318E-03
            3584            3951     15.5099E-03     14.7318E-03
            3635            3951     15.5099E-03     14.7318E-03
            3585            3951     15.5099E-03     14.7318E-03
            3635            3952     14.1845E-03     14.6311E-03
            3586            3952     14.1845E-03     14.6311E-03
            3585            3952     14.1845E-03     14.6311E-03
            3636            3952     14.1845E-03     14.6311E-03
            3587            3953     13.9591E-03     13.7417E-03
            3636            3953     13.9591E-03     13.7417E-03
            3637            3953     13.9591E-03     13.7417E-03
            3586            3953     13.9591E-03     13.7417E-03
            3587            3954     13.4244E-03     13.3779E-03
            3637            3954     13.4244E-03     13.3779E-03
            3588            3954     13.4244E-03     13.3779E-03
            3638            3954     13.4244E-03     13.3779E-03
            3588            3955     12.8226E-03     12.9288E-03
            3589            3955     12.8226E-03     12.9288E-03
            3639            3955     12.8226E-03     12.9288E-03
            3638            3955     12.8226E-03     12.9288E-03
            3590            3956     12.3686E-03     12.4176E-03
            3639            3956     12.3686E-03     12.4176E-03
            3589            3956     12.3686E-03     12.4176E-03
            3640            3956     12.3686E-03     12.4176E-03
            3591            3957     11.8887E-03     11.9818E-03
            3640            3957     11.8887E-03     11.9818E-03
            3641            3957     11.8887E-03     11.9818E-03
            3590            3957     11.8887E-03     11.9818E-03
            3641            3958     11.5258E-03     11.4790E-03
            3591            3958     11.5258E-03     11.4790E-03
            3642            3958     11.5258E-03     11.4790E-03
            3592            3958     11.5258E-03     11.4790E-03
            3642            3959     11.1778E-03     11.0905E-03
            3593            3959     11.1778E-03     11.0905E-03
            3592            3959     11.1778E-03     11.0905E-03
            3643            3959     11.1778E-03     11.0905E-03
            3593            3960     10.8579E-03     11.0193E-03
            3594            3960     10.8579E-03     11.0193E-03
            3644            3960     10.8579E-03     11.0193E-03
            3643            3960     10.8579E-03     11.0193E-03
            3644            3961     11.1081E-03     10.9292E-03
            3645            3961     11.1081E-03     10.9292E-03
            3595            3961     11.1081E-03     10.9292E-03
            3594            3961     11.1081E-03     10.9292E-03
            3645            3962     11.0765E-03     10.9118E-03
            3646            3962     11.0765E-03     10.9118E-03
            3595            3962     11.0765E-03     10.9118E-03
            3596            3962     11.0765E-03     10.9118E-03
            3597            3963     10.6312E-03     10.7522E-03
            3596            3963     10.6312E-03     10.7522E-03
            3647            3963     10.6312E-03     10.7522E-03
            3646            3963     10.6312E-03     10.7522E-03
            3648            3964     10.5386E-03     10.4827E-03
            3597            3964     10.5386E-03     10.4827E-03
            3647            3964     10.5386E-03     10.4827E-03
            3598            3964     10.5386E-03     10.4827E-03
            3649            3965     10.4732E-03     10.4123E-03
            3599            3965     10.4732E-03     10.4123E-03
            3598            3965     10.4732E-03     10.4123E-03
            3648            3965     10.4732E-03     10.4123E-03
            3650            3966     10.3821E-03     10.2936E-03
            3649            3966     10.3821E-03     10.2936E-03
            3599            3966     10.3821E-03     10.2936E-03
            3600            3966     10.3821E-03     10.2936E-03
            3652            3967     44.5451E-03     42.8867E-03
            3601            3967     44.5451E-03     42.8867E-03
            3602            3967     44.5451E-03     42.8867E-03
            3651            3967     44.5451E-03     42.8867E-03
            3653            3968     46.4167E-03     42.6187E-03
            3652            3968     46.4167E-03     42.6187E-03
            3602            3968     46.4167E-03     42.6187E-03
            3603            3968     46.4167E-03     42.6187E-03
            3654            3969     41.3281E-03     43.2811E-03
            3653            3969     41.3281E-03     43.2811E-03
            3603            3969     41.3281E-03     43.2811E-03
            3604            3969     41.3281E-03     43.2811E-03
            3655            3970     41.0799E-03     40.2560E-03
            3604            3970     41.0799E-03     40.2560E-03
            3605            3970     41.0799E-03     40.2560E-03
            3654            3970     41.0799E-03     40.2560E-03
            3656            3971     40.1285E-03     39.4544E-03
            3655            3971     40.1285E-03     39.4544E-03
            3605            3971     40.1285E-03     39.4544E-03
            3606            3971     40.1285E-03     39.4544E-03
            3657            3972     38.6954E-03     38.4626E-03
            3656            3972     38.6954E-03     38.4626E-03
            3606            3972     38.6954E-03     38.4626E-03
            3607            3972     38.6954E-03     38.4626E-03
            3658            3973     37.0896E-03     38.7765E-03
            3657            3973     37.0896E-03     38.7765E-03
            3607            3973     37.0896E-03     38.7765E-03
            3608            3973     37.0896E-03     38.7765E-03
            3659            3974     38.5333E-03     36.5813E-03
            3608            3974     38.5333E-03     36.5813E-03
            3609            3974     38.5333E-03     36.5813E-03
            3658            3974     38.5333E-03     36.5813E-03
            3660            3975     35.7891E-03     34.8854E-03
            3659            3975     35.7891E-03     34.8854E-03
            3609            3975     35.7891E-03     34.8854E-03
            3610            3975     35.7891E-03     34.8854E-03
            3660            3976     30.7633E-03     37.2112E-03
            3610            3976     30.7633E-03     37.2112E-03
            3611            3976     30.7633E-03     37.2112E-03
            3661            3976     30.7633E-03     37.2112E-03
            3662            3977     36.4274E-03     35.0696E-03
            3661            3977     36.4274E-03     35.0696E-03
            3611            3977     36.4274E-03     35.0696E-03
            3612            3977     36.4274E-03     35.0696E-03
            3663            3978     37.7145E-03     34.5934E-03
            3662            3978     37.7145E-03     34.5934E-03
            3612            3978     37.7145E-03     34.5934E-03
            3613            3978     37.7145E-03     34.5934E-03
            3664            3979     33.2993E-03     34.9100E-03
            3663            3979     33.2993E-03     34.9100E-03
            3613            3979     33.2993E-03     34.9100E-03
            3614            3979     33.2993E-03     34.9100E-03
            3665            3980     32.9454E-03     32.0581E-03
            3614            3980     32.9454E-03     32.0581E-03
            3615            3980     32.9454E-03     32.0581E-03
            3664            3980     32.9454E-03     32.0581E-03
            3666            3981     31.6489E-03     31.3171E-03
            3665            3981     31.6489E-03     31.3171E-03
            3615            3981     31.6489E-03     31.3171E-03
            3616            3981     31.6489E-03     31.3171E-03
            3667            3982     30.3998E-03     30.3736E-03
            3616            3982     30.3998E-03     30.3736E-03
            3617            3982     30.3998E-03     30.3736E-03
            3666            3982     30.3998E-03     30.3736E-03
            3668            3983     29.5276E-03     29.2353E-03
            3667            3983     29.5276E-03     29.2353E-03
            3617            3983     29.5276E-03     29.2353E-03
            3618            3983     29.5276E-03     29.2353E-03
            3669            3984     28.0343E-03     29.4103E-03
            3668            3984     28.0343E-03     29.4103E-03
            3618            3984     28.0343E-03     29.4103E-03
            3619            3984     28.0343E-03     29.4103E-03
            3670            3985     28.7390E-03     27.5989E-03
            3619            3985     28.7390E-03     27.5989E-03
            3620            3985     28.7390E-03     27.5989E-03
            3669            3985     28.7390E-03     27.5989E-03
            3670            3986     26.7026E-03     26.1382E-03
            3620            3986     26.7026E-03     26.1382E-03
            3671            3986     26.7026E-03     26.1382E-03
            3621            3986     26.7026E-03     26.1382E-03
            3622            3987     23.1715E-03     27.7737E-03
            3671            3987     23.1715E-03     27.7737E-03
            3672            3987     23.1715E-03     27.7737E-03
            3621            3987     23.1715E-03     27.7737E-03
            3672            3988     27.2087E-03     26.1868E-03
            3623            3988     27.2087E-03     26.1868E-03
            3622            3988     27.2087E-03     26.1868E-03
            3673            3988     27.2087E-03     26.1868E-03
            3624            3989     27.9312E-03     25.5720E-03
            3674            3989     27.9312E-03     25.5720E-03
            3623            3989     27.9312E-03     25.5720E-03
            3673            3989     27.9312E-03     25.5720E-03
            3625            3990     24.4287E-03     25.5505E-03
            3624            3990     24.4287E-03     25.5505E-03
            3674            3990     24.4287E-03     25.5505E-03
            3675            3990     24.4287E-03     25.5505E-03
            3676            3991     23.9214E-03     23.2656E-03
            3625            3991     23.9214E-03     23.2656E-03
            3675            3991     23.9214E-03     23.2656E-03
            3626            3991     23.9214E-03     23.2656E-03
            3677            3992     22.7472E-03     22.4982E-03
            3676            3992     22.7472E-03     22.4982E-03
            3626            3992     22.7472E-03     22.4982E-03
            3627            3992     22.7472E-03     22.4982E-03
            3628            3993     21.5537E-03     21.5985E-03
            3627            3993     21.5537E-03     21.5985E-03
            3678            3993     21.5537E-03     21.5985E-03
            3677            3993     21.5537E-03     21.5985E-03
            3628            3994     20.6579E-03     20.5727E-03
            3629            3994     20.6579E-03     20.5727E-03
            3678            3994     20.6579E-03     20.5727E-03
            3679            3994     20.6579E-03     20.5727E-03
            3629            3995     19.4093E-03     20.2866E-03
            3680            3995     19.4093E-03     20.2866E-03
            3630            3995     19.4093E-03     20.2866E-03
            3679            3995     19.4093E-03     20.2866E-03
            3631            3996     19.3165E-03     18.9098E-03
            3630            3996     19.3165E-03     18.9098E-03
            3681            3996     19.3165E-03     18.9098E-03
            3680            3996     19.3165E-03     18.9098E-03
            3631            3997     17.9238E-03     17.6810E-03
            3632            3997     17.9238E-03     17.6810E-03
            3681            3997     17.9238E-03     17.6810E-03
            3682            3997     17.9238E-03     17.6810E-03
            3682            3998     15.9752E-03     18.6206E-03
            3683            3998     15.9752E-03     18.6206E-03
            3632            3998     15.9752E-03     18.6206E-03
            3633            3998     15.9752E-03     18.6206E-03
            3684            3999     18.3940E-03     17.7325E-03
            3683            3999     18.3940E-03     17.7325E-03
            3633            3999     18.3940E-03     17.7325E-03
            3634            3999     18.3940E-03     17.7325E-03
            3635            4000     18.5748E-03     17.0277E-03
            3634            4000     18.5748E-03     17.0277E-03
            3684            4000     18.5748E-03     17.0277E-03
            3685            4000     18.5748E-03     17.0277E-03
            3635            4001     16.0860E-03     16.7251E-03
            3686            4001     16.0860E-03     16.7251E-03
            3636            4001     16.0860E-03     16.7251E-03
            3685            4001     16.0860E-03     16.7251E-03
            3637            4002     15.4976E-03     15.1086E-03
            3636            4002     15.4976E-03     15.1086E-03
            3687            4002     15.4976E-03     15.1086E-03
            3686            4002     15.4976E-03     15.1086E-03
            3637            4003     14.5454E-03     14.3981E-03
            3638            4003     14.5454E-03     14.3981E-03
            3687            4003     14.5454E-03     14.3981E-03
            3688            4003     14.5454E-03     14.3981E-03
            3638            4004     13.5358E-03     13.6410E-03
            3689            4004     13.5358E-03     13.6410E-03
            3639            4004     13.5358E-03     13.6410E-03
            3688            4004     13.5358E-03     13.6410E-03
            3689            4005     12.7444E-03     12.8420E-03
            3690            4005     12.7444E-03     12.8420E-03
            3639            4005     12.7444E-03     12.8420E-03
            3640            4005     12.7444E-03     12.8420E-03
            3691            4006     11.8764E-03     12.2631E-03
            3690            4006     11.8764E-03     12.2631E-03
            3641            4006     11.8764E-03     12.2631E-03
            3640            4006     11.8764E-03     12.2631E-03
            3642            4007     11.2401E-03     11.4616E-03
            3641            4007     11.2401E-03     11.4616E-03
            3691            4007     11.2401E-03     11.4616E-03
            3692            4007     11.2401E-03     11.4616E-03
            3693            4008     10.6105E-03     10.6663E-03
            3642            4008     10.6105E-03     10.6663E-03
            3643            4008     10.6105E-03     10.6663E-03
            3692            4008     10.6105E-03     10.6663E-03
            3694            4009     10.0700E-03     10.6639E-03
            3643            4009     10.0700E-03     10.6639E-03
            3644            4009     10.0700E-03     10.6639E-03
            3693            4009     10.0700E-03     10.6639E-03
            3644            4010     10.6140E-03     10.3692E-03
            3695            4010     10.6140E-03     10.3692E-03
            3694            4010     10.6140E-03     10.3692E-03
            3645            4010     10.6140E-03     10.3692E-03
            3646            4011     10.4519E-03     9.97333E-03
            3696            4011     10.4519E-03     9.97333E-03
            3645            4011     10.4519E-03     9.97333E-03
            3695            4011     10.4519E-03     9.97333E-03
            3697            4012     9.51055E-03     9.76629E-03
            3647            4012     9.51055E-03     9.76629E-03
            3696            4012     9.51055E-03     9.76629E-03
            3646            4012     9.51055E-03     9.76629E-03
            3647            4013     9.22657E-03     9.27864E-03
            3698            4013     9.22657E-03     9.27864E-03
            3648            4013     9.22657E-03     9.27864E-03
            3697            4013     9.22657E-03     9.27864E-03
            3648            4014     9.00579E-03     9.04874E-03
            3649            4014     9.00579E-03     9.04874E-03
            3699            4014     9.00579E-03     9.04874E-03
            3698            4014     9.00579E-03     9.04874E-03
            3700            4015     8.87781E-03     8.85551E-03
            3650            4015     8.87781E-03     8.85551E-03
            3649            4015     8.87781E-03     8.85551E-03
            3699            4015     8.87781E-03     8.85551E-03
            3702            4016     56.0824E-03     54.8960E-03
            3651            4016     56.0824E-03     54.8960E-03
            3652            4016     56.0824E-03     54.8960E-03
            3701            4016     56.0824E-03     54.8960E-03
            3702            4017     57.5466E-03     52.5401E-03
            3652            4017     57.5466E-03     52.5401E-03
            3653            4017     57.5466E-03     52.5401E-03
            3703            4017     57.5466E-03     52.5401E-03
            3654            4018     49.7213E-03     53.1977E-03
            3653            4018     49.7213E-03     53.1977E-03
            3703            4018     49.7213E-03     53.1977E-03
            3704            4018     49.7213E-03     53.1977E-03
            3655            4019     49.0768E-03     48.8750E-03
            3654            4019     49.0768E-03     48.8750E-03
            3704            4019     49.0768E-03     48.8750E-03
            3705            4019     49.0768E-03     48.8750E-03
            3655            4020     47.8267E-03     47.7790E-03
            3705            4020     47.8267E-03     47.7790E-03
            3706            4020     47.8267E-03     47.7790E-03
            3656            4020     47.8267E-03     47.7790E-03
            3657            4021     46.1512E-03     46.3502E-03
            3656            4021     46.1512E-03     46.3502E-03
            3706            4021     46.1512E-03     46.3502E-03
            3707            4021     46.1512E-03     46.3502E-03
            3708            4022     44.5429E-03     47.1798E-03
            3658            4022     44.5429E-03     47.1798E-03
            3657            4022     44.5429E-03     47.1798E-03
            3707            4022     44.5429E-03     47.1798E-03
            3658            4023     47.8688E-03     45.0856E-03
            3659            4023     47.8688E-03     45.0856E-03
            3708            4023     47.8688E-03     45.0856E-03
            3709            4023     47.8688E-03     45.0856E-03
            3710            4024     45.1706E-03     44.6687E-03
            3659            4024     45.1706E-03     44.6687E-03
            3660            4024     45.1706E-03     44.6687E-03
            3709            4024     45.1706E-03     44.6687E-03
            3661            4025     38.2757E-03     49.1665E-03
            3710            4025     38.2757E-03     49.1665E-03
            3711            4025     38.2757E-03     49.1665E-03
            3660            4025     38.2757E-03     49.1665E-03
            3661            4026     45.5270E-03     44.5699E-03
            3662            4026     45.5270E-03     44.5699E-03
            3712            4026     45.5270E-03     44.5699E-03
            3711            4026     45.5270E-03     44.5699E-03
            3663            4027     46.4709E-03     42.4231E-03
            3662            4027     46.4709E-03     42.4231E-03
            3713            4027     46.4709E-03     42.4231E-03
            3712            4027     46.4709E-03     42.4231E-03
            3663            4028     39.8040E-03     42.8217E-03
            3713            4028     39.8040E-03     42.8217E-03
            3664            4028     39.8040E-03     42.8217E-03
            3714            4028     39.8040E-03     42.8217E-03
            3714            4029     39.1516E-03     38.7939E-03
            3715            4029     39.1516E-03     38.7939E-03
            3665            4029     39.1516E-03     38.7939E-03
            3664            4029     39.1516E-03     38.7939E-03
            3715            4030     37.3529E-03     37.7463E-03
            3666            4030     37.3529E-03     37.7463E-03
            3665            4030     37.3529E-03     37.7463E-03
            3716            4030     37.3529E-03     37.7463E-03
            3667            4031     35.7596E-03     36.4187E-03
            3716            4031     35.7596E-03     36.4187E-03
            3666            4031     35.7596E-03     36.4187E-03
            3717            4031     35.7596E-03     36.4187E-03
            3668            4032     34.9063E-03     34.7908E-03
            3667            4032     34.9063E-03     34.7908E-03
            3717            4032     34.9063E-03     34.7908E-03
            3718            4032     34.9063E-03     34.7908E-03
            3668            4033     33.2787E-03     35.4040E-03
            3719            4033     33.2787E-03     35.4040E-03
            3669            4033     33.2787E-03     35.4040E-03
            3718            4033     33.2787E-03     35.4040E-03
            3670            4034     35.3298E-03     33.6143E-03
            3719            4034     35.3298E-03     33.6143E-03
            3720            4034     35.3298E-03     33.6143E-03
            3669            4034     35.3298E-03     33.6143E-03
            3671            4035     33.2915E-03     33.0284E-03
            3670            4035     33.2915E-03     33.0284E-03
            3721            4035     33.2915E-03     33.0284E-03
            3720            4035     33.2915E-03     33.0284E-03
            3721            4036     28.2174E-03     36.1385E-03
            3722            4036     28.2174E-03     36.1385E-03
            3672            4036     28.2174E-03     36.1385E-03
            3671            4036     28.2174E-03     36.1385E-03
            3722            4037     33.3571E-03     32.6305E-03
            3723            4037     33.3571E-03     32.6305E-03
            3672            4037     33.3571E-03     32.6305E-03
            3673            4037     33.3571E-03     32.6305E-03
            3674            4038     33.8158E-03     30.7533E-03
            3723            4038     33.8158E-03     30.7533E-03
            3724            4038     33.8158E-03     30.7533E-03
            3673            4038     33.8158E-03     30.7533E-03
            3725            4039     28.6016E-03     30.7976E-03
            3724            4039     28.6016E-03     30.7976E-03
            3675            4039     28.6016E-03     30.7976E-03
            3674            4039     28.6016E-03     30.7976E-03
            3676            4040     27.8155E-03     27.5390E-03
            3725            4040     27.8155E-03     27.5390E-03
            3726            4040     27.8155E-03     27.5390E-03
            3675            4040     27.8155E-03     27.5390E-03
            3727            4041     26.1967E-03     26.4104E-03
            3677            4041     26.1967E-03     26.4104E-03
            3726            4041     26.1967E-03     26.4104E-03
            3676            4041     26.1967E-03     26.4104E-03
            3678            4042     24.6338E-03     25.1079E-03
            3677            4042     24.6338E-03     25.1079E-03
            3728            4042     24.6338E-03     25.1079E-03
            3727            4042     24.6338E-03     25.1079E-03
            3729            4043     23.6530E-03     23.6124E-03
            3679            4043     23.6530E-03     23.6124E-03
            3678            4043     23.6530E-03     23.6124E-03
            3728            4043     23.6530E-03     23.6124E-03
            3680            4044     22.2062E-03     23.5119E-03
            3730            4044     22.2062E-03     23.5119E-03
            3729            4044     22.2062E-03     23.5119E-03
            3679            4044     22.2062E-03     23.5119E-03
            3731            4045     22.8538E-03     22.1222E-03
            3681            4045     22.8538E-03     22.1222E-03
            3730            4045     22.8538E-03     22.1222E-03
            3680            4045     22.8538E-03     22.1222E-03
            3732            4046     21.3461E-03     21.3141E-03
            3681            4046     21.3461E-03     21.3141E-03
            3682            4046     21.3461E-03     21.3141E-03
            3731            4046     21.3461E-03     21.3141E-03
            3683            4047     18.3064E-03     23.1125E-03
            3733            4047     18.3064E-03     23.1125E-03
            3682            4047     18.3064E-03     23.1125E-03
            3732            4047     18.3064E-03     23.1125E-03
            3734            4048     21.4069E-03     20.9394E-03
            3683            4048     21.4069E-03     20.9394E-03
            3733            4048     21.4069E-03     20.9394E-03
            3684            4048     21.4069E-03     20.9394E-03
            3684            4049     21.3959E-03     19.3662E-03
            3734            4049     21.3959E-03     19.3662E-03
            3735            4049     21.3959E-03     19.3662E-03
            3685            4049     21.3959E-03     19.3662E-03
            3686            4050     17.7038E-03     19.0767E-03
            3735            4050     17.7038E-03     19.0767E-03
            3736            4050     17.7038E-03     19.0767E-03
            3685            4050     17.7038E-03     19.0767E-03
            3736            4051     16.8313E-03     16.6428E-03
            3737            4051     16.8313E-03     16.6428E-03
            3686            4051     16.8313E-03     16.6428E-03
            3687            4051     16.8313E-03     16.6428E-03
            3738            4052     15.4577E-03     15.4855E-03
            3688            4052     15.4577E-03     15.4855E-03
            3687            4052     15.4577E-03     15.4855E-03
            3737            4052     15.4577E-03     15.4855E-03
            3689            4053     14.0158E-03     14.2818E-03
            3688            4053     14.0158E-03     14.2818E-03
            3739            4053     14.0158E-03     14.2818E-03
            3738            4053     14.0158E-03     14.2818E-03
            3689            4054     13.0003E-03     13.0208E-03
            3740            4054     13.0003E-03     13.0208E-03
            3739            4054     13.0003E-03     13.0208E-03
            3690            4054     13.0003E-03     13.0208E-03
            3691            4055     11.8389E-03     12.3416E-03
            3740            4055     11.8389E-03     12.3416E-03
            3741            4055     11.8389E-03     12.3416E-03
            3690            4055     11.8389E-03     12.3416E-03
            3742            4056     11.2309E-03     11.4720E-03
            3691            4056     11.2309E-03     11.4720E-03
            3741            4056     11.2309E-03     11.4720E-03
            3692            4056     11.2309E-03     11.4720E-03
            3743            4057     10.3751E-03     10.6056E-03
            3742            4057     10.3751E-03     10.6056E-03
            3693            4057     10.3751E-03     10.6056E-03
            3692            4057     10.3751E-03     10.6056E-03
            3743            4058     9.23041E-03     10.7194E-03
            3744            4058     9.23041E-03     10.7194E-03
            3693            4058     9.23041E-03     10.7194E-03
            3694            4058     9.23041E-03     10.7194E-03
            3695            4059     9.90317E-03     9.72181E-03
            3745            4059     9.90317E-03     9.72181E-03
            3694            4059     9.90317E-03     9.72181E-03
            3744            4059     9.90317E-03     9.72181E-03
            3745            4060     9.59069E-03     8.78066E-03
            3696            4060     9.59069E-03     8.78066E-03
            3695            4060     9.59069E-03     8.78066E-03
            3746            4060     9.59069E-03     8.78066E-03
            3747            4061     8.05540E-03     8.45923E-03
            3746            4061     8.05540E-03     8.45923E-03
            3696            4061     8.05540E-03     8.45923E-03
            3697            4061     8.05540E-03     8.45923E-03
            3698            4062     7.56840E-03     7.56925E-03
            3697            4062     7.56840E-03     7.56925E-03
            3748            4062     7.56840E-03     7.56925E-03
            3747            4062     7.56840E-03     7.56925E-03
            3698            4063     7.07167E-03     7.25308E-03
            3748            4063     7.07167E-03     7.25308E-03
            3749            4063     7.07167E-03     7.25308E-03
            3699            4063     7.07167E-03     7.25308E-03
            3700            4064     6.76418E-03     6.97154E-03
            3699            4064     6.76418E-03     6.97154E-03
            3750            4064     6.76418E-03     6.97154E-03
            3749            4064     6.76418E-03     6.97154E-03
            3701            4065     65.1516E-03     64.8440E-03
            3751            4065     65.1516E-03     64.8440E-03
            3752            4065     65.1516E-03     64.8440E-03
            3702            4065     65.1516E-03     64.8440E-03
            3702            4066     65.6290E-03     61.4648E-03
            3753            4066     65.6290E-03     61.4648E-03
            3752            4066     65.6290E-03     61.4648E-03
            3703            4066     65.6290E-03     61.4648E-03
            3753            4067     55.9523E-03     61.8038E-03
            3704            4067     55.9523E-03     61.8038E-03
            3703            4067     55.9523E-03     61.8038E-03
            3754            4067     55.9523E-03     61.8038E-03
            3755            4068     55.5274E-03     56.5960E-03
            3704            4068     55.5274E-03     56.5960E-03
            3705            4068     55.5274E-03     56.5960E-03
            3754            4068     55.5274E-03     56.5960E-03
            3756            4069     53.6511E-03     55.4480E-03
            3705            4069     53.6511E-03     55.4480E-03
            3755            4069     53.6511E-03     55.4480E-03
            3706            4069     53.6511E-03     55.4480E-03
            3756            4070     51.8397E-03     53.2160E-03
            3757            4070     51.8397E-03     53.2160E-03
            3706            4070     51.8397E-03     53.2160E-03
            3707            4070     51.8397E-03     53.2160E-03
            3707            4071     49.5990E-03     53.8726E-03
            3757            4071     49.5990E-03     53.8726E-03
            3758            4071     49.5990E-03     53.8726E-03
            3708            4071     49.5990E-03     53.8726E-03
            3708            4072     53.9362E-03     51.6044E-03
            3758            4072     53.9362E-03     51.6044E-03
            3709            4072     53.9362E-03     51.6044E-03
            3759            4072     53.9362E-03     51.6044E-03
            3710            4073     52.3002E-03     52.0851E-03
            3759            4073     52.3002E-03     52.0851E-03
            3760            4073     52.3002E-03     52.0851E-03
            3709            4073     52.3002E-03     52.0851E-03
            3711            4074     44.4567E-03     58.2340E-03
            3760            4074     44.4567E-03     58.2340E-03
            3710            4074     44.4567E-03     58.2340E-03
            3761            4074     44.4567E-03     58.2340E-03
            3762            4075     52.7016E-03     52.4527E-03
            3711            4075     52.7016E-03     52.4527E-03
            3761            4075     52.7016E-03     52.4527E-03
            3712            4075     52.7016E-03     52.4527E-03
            3763            4076     52.9661E-03     49.5148E-03
            3762            4076     52.9661E-03     49.5148E-03
            3713            4076     52.9661E-03     49.5148E-03
            3712            4076     52.9661E-03     49.5148E-03
            3763            4077     44.7416E-03     49.6694E-03
            3714            4077     44.7416E-03     49.6694E-03
            3764            4077     44.7416E-03     49.6694E-03
            3713            4077     44.7416E-03     49.6694E-03
            3764            4078     44.3248E-03     44.8861E-03
            3714            4078     44.3248E-03     44.8861E-03
            3765            4078     44.3248E-03     44.8861E-03
            3715            4078     44.3248E-03     44.8861E-03
            3715            4079     41.9644E-03     43.6809E-03
            3716            4079     41.9644E-03     43.6809E-03
            3766            4079     41.9644E-03     43.6809E-03
            3765            4079     41.9644E-03     43.6809E-03
            3716            4080     40.0275E-03     41.9200E-03
            3766            4080     40.0275E-03     41.9200E-03
            3717            4080     40.0275E-03     41.9200E-03
            3767            4080     40.0275E-03     41.9200E-03
            3718            4081     39.0529E-03     39.6826E-03
            3768            4081     39.0529E-03     39.6826E-03
            3767            4081     39.0529E-03     39.6826E-03
            3717            4081     39.0529E-03     39.6826E-03
            3719            4082     36.7393E-03     40.0379E-03
            3768            4082     36.7393E-03     40.0379E-03
            3718            4082     36.7393E-03     40.0379E-03
            3769            4082     36.7393E-03     40.0379E-03
            3719            4083     39.5837E-03     38.0265E-03
            3770            4083     39.5837E-03     38.0265E-03
            3720            4083     39.5837E-03     38.0265E-03
            3769            4083     39.5837E-03     38.0265E-03
            3721            4084     38.2777E-03     38.1523E-03
            3770            4084     38.2777E-03     38.1523E-03
            3720            4084     38.2777E-03     38.1523E-03
            3771            4084     38.2777E-03     38.1523E-03
            3771            4085     32.4912E-03     42.5128E-03
            3772            4085     32.4912E-03     42.5128E-03
            3721            4085     32.4912E-03     42.5128E-03
            3722            4085     32.4912E-03     42.5128E-03
            3723            4086     38.3696E-03     38.1981E-03
            3772            4086     38.3696E-03     38.1981E-03
            3722            4086     38.3696E-03     38.1981E-03
            3773            4086     38.3696E-03     38.1981E-03
            3774            4087     38.3752E-03     35.7446E-03
            3723            4087     38.3752E-03     35.7446E-03
            3724            4087     38.3752E-03     35.7446E-03
            3773            4087     38.3752E-03     35.7446E-03
            3774            4088     31.9255E-03     35.5251E-03
            3724            4088     31.9255E-03     35.5251E-03
            3775            4088     31.9255E-03     35.5251E-03
            3725            4088     31.9255E-03     35.5251E-03
            3775            4089     31.2006E-03     31.5590E-03
            3776            4089     31.2006E-03     31.5590E-03
            3726            4089     31.2006E-03     31.5590E-03
            3725            4089     31.2006E-03     31.5590E-03
            3727            4090     29.0632E-03     30.1862E-03
            3776            4090     29.0632E-03     30.1862E-03
            3726            4090     29.0632E-03     30.1862E-03
            3777            4090     29.0632E-03     30.1862E-03
            3778            4091     27.1382E-03     28.4350E-03
            3728            4091     27.1382E-03     28.4350E-03
            3777            4091     27.1382E-03     28.4350E-03
            3727            4091     27.1382E-03     28.4350E-03
            3779            4092     25.9615E-03     26.3853E-03
            3729            4092     25.9615E-03     26.3853E-03
            3728            4092     25.9615E-03     26.3853E-03
            3778            4092     25.9615E-03     26.3853E-03
            3729            4093     23.9793E-03     25.9492E-03
            3779            4093     23.9793E-03     25.9492E-03
            3780            4093     23.9793E-03     25.9492E-03
            3730            4093     23.9793E-03     25.9492E-03
            3780            4094     25.0739E-03     24.3380E-03
            3781            4094     25.0739E-03     24.3380E-03
            3731            4094     25.0739E-03     24.3380E-03
            3730            4094     25.0739E-03     24.3380E-03
            3781            4095     24.0455E-03     24.0019E-03
            3732            4095     24.0455E-03     24.0019E-03
            3782            4095     24.0455E-03     24.0019E-03
            3731            4095     24.0455E-03     24.0019E-03
            3732            4096     20.5135E-03     26.6914E-03
            3783            4096     20.5135E-03     26.6914E-03
            3733            4096     20.5135E-03     26.6914E-03
            3782            4096     20.5135E-03     26.6914E-03
            3733            4097     24.1404E-03     24.0590E-03
            3734            4097     24.1404E-03     24.0590E-03
            3783            4097     24.1404E-03     24.0590E-03
            3784            4097     24.1404E-03     24.0590E-03
            3785            4098     23.8883E-03     22.0950E-03
            3734            4098     23.8883E-03     22.0950E-03
            3784            4098     23.8883E-03     22.0950E-03
            3735            4098     23.8883E-03     22.0950E-03
            3736            4099     19.2334E-03     21.4909E-03
            3735            4099     19.2334E-03     21.4909E-03
            3786            4099     19.2334E-03     21.4909E-03
            3785            4099     19.2334E-03     21.4909E-03
            3786            4100     18.2102E-03     18.3564E-03
            3736            4100     18.2102E-03     18.3564E-03
            3787            4100     18.2102E-03     18.3564E-03
            3737            4100     18.2102E-03     18.3564E-03
            3737            4101     16.3165E-03     16.8315E-03
            3787            4101     16.3165E-03     16.8315E-03
            3738            4101     16.3165E-03     16.8315E-03
            3788            4101     16.3165E-03     16.8315E-03
            3789            4102     14.4438E-03     15.1226E-03
            3738            4102     14.4438E-03     15.1226E-03
            3788            4102     14.4438E-03     15.1226E-03
            3739            4102     14.4438E-03     15.1226E-03
            3739            4103     13.1177E-03     13.3167E-03
            3789            4103     13.1177E-03     13.3167E-03
            3790            4103     13.1177E-03     13.3167E-03
            3740            4103     13.1177E-03     13.3167E-03
            3740            4104     11.5466E-03     12.1774E-03
            3790            4104     11.5466E-03     12.1774E-03
            3791            4104     11.5466E-03     12.1774E-03
            3741            4104     11.5466E-03     12.1774E-03
            3742            4105     10.9964E-03     11.0774E-03
            3791            4105     10.9964E-03     11.0774E-03
            3741            4105     10.9964E-03     11.0774E-03
            3792            4105     10.9964E-03     11.0774E-03
            3792            4106     10.3250E-03     10.3951E-03
            3793            4106     10.3250E-03     10.3951E-03
            3742            4106     10.3250E-03     10.3951E-03
            3743            4106     10.3250E-03     10.3951E-03
            3743            4107     8.74602E-03     10.9943E-03
            3794            4107     8.74602E-03     10.9943E-03
            3744            4107     8.74602E-03     10.9943E-03
            3793            4107     8.74602E-03     10.9943E-03
            3744            4108     9.57908E-03     9.64541E-03
            3795            4108     9.57908E-03     9.64541E-03
            3794            4108     9.57908E-03     9.64541E-03
            3745            4108     9.57908E-03     9.64541E-03
            3745            4109     8.97081E-03     8.11875E-03
            3746            4109     8.97081E-03     8.11875E-03
            3796            4109     8.97081E-03     8.11875E-03
            3795            4109     8.97081E-03     8.11875E-03
            3797            4110     6.45213E-03     7.12933E-03
            3746            4110     6.45213E-03     7.12933E-03
            3747            4110     6.45213E-03     7.12933E-03
            3796            4110     6.45213E-03     7.12933E-03
            3748            4111     5.54474E-03     5.27729E-03
            3797            4111     5.54474E-03     5.27729E-03
            3798            4111     5.54474E-03     5.27729E-03
            3747            4111     5.54474E-03     5.27729E-03
            3748            4112     4.80699E-03     4.79188E-03
            3798            4112     4.80699E-03     4.79188E-03
            3749            4112     4.80699E-03     4.79188E-03
            3799            4112     4.80699E-03     4.79188E-03
            3799            4113     4.52572E-03     4.78750E-03
            3749            4113     4.52572E-03     4.78750E-03
            3750            4113     4.52572E-03     4.78750E-03
            3800            4113     4.52572E-03     4.78750E-03
            3801            4114     72.3487E-03     71.0367E-03
            3751            4114     72.3487E-03     71.0367E-03
            3752            4114     72.3487E-03     71.0367E-03
            3802            4114     72.3487E-03     71.0367E-03
            3803            4115     70.5175E-03     66.9815E-03
            3802            4115     70.5175E-03     66.9815E-03
            3753            4115     70.5175E-03     66.9815E-03
            3752            4115     70.5175E-03     66.9815E-03
            3803            4116     61.9676E-03     66.3961E-03
            3754            4116     61.9676E-03     66.3961E-03
            3804            4116     61.9676E-03     66.3961E-03
            3753            4116     61.9676E-03     66.3961E-03
            3754            4117     61.4835E-03     61.5472E-03
            3755            4117     61.4835E-03     61.5472E-03
            3804            4117     61.4835E-03     61.5472E-03
            3805            4117     61.4835E-03     61.5472E-03
            3806            4118     58.9031E-03     60.3252E-03
            3805            4118     58.9031E-03     60.3252E-03
            3756            4118     58.9031E-03     60.3252E-03
            3755            4118     58.9031E-03     60.3252E-03
            3756            4119     57.1346E-03     57.5343E-03
            3807            4119     57.1346E-03     57.5343E-03
            3757            4119     57.1346E-03     57.5343E-03
            3806            4119     57.1346E-03     57.5343E-03
            3757            4120     54.1488E-03     57.2183E-03
            3808            4120     54.1488E-03     57.2183E-03
            3807            4120     54.1488E-03     57.2183E-03
            3758            4120     54.1488E-03     57.2183E-03
            3808            4121     56.6316E-03     54.3111E-03
            3809            4121     56.6316E-03     54.3111E-03
            3759            4121     56.6316E-03     54.3111E-03
            3758            4121     56.6316E-03     54.3111E-03
            3759            4122     55.5068E-03     53.9856E-03
            3810            4122     55.5068E-03     53.9856E-03
            3760            4122     55.5068E-03     53.9856E-03
            3809            4122     55.5068E-03     53.9856E-03
            3760            4123     50.9710E-03     61.1868E-03
            3810            4123     50.9710E-03     61.1868E-03
            3811            4123     50.9710E-03     61.1868E-03
            3761            4123     50.9710E-03     61.1868E-03
            3761            4124     58.6119E-03     57.5814E-03
            3812            4124     58.6119E-03     57.5814E-03
            3762            4124     58.6119E-03     57.5814E-03
            3811            4124     58.6119E-03     57.5814E-03
            3813            4125     56.8910E-03     53.9822E-03
            3812            4125     56.8910E-03     53.9822E-03
            3763            4125     56.8910E-03     53.9822E-03
            3762            4125     56.8910E-03     53.9822E-03
            3763            4126     49.5470E-03     53.2163E-03
            3814            4126     49.5470E-03     53.2163E-03
            3813            4126     49.5470E-03     53.2163E-03
            3764            4126     49.5470E-03     53.2163E-03
            3765            4127     48.9230E-03     48.8049E-03
            3815            4127     48.9230E-03     48.8049E-03
            3814            4127     48.9230E-03     48.8049E-03
            3764            4127     48.9230E-03     48.8049E-03
            3766            4128     46.2893E-03     47.4195E-03
            3815            4128     46.2893E-03     47.4195E-03
            3816            4128     46.2893E-03     47.4195E-03
            3765            4128     46.2893E-03     47.4195E-03
            3766            4129     44.2356E-03     45.3146E-03
            3817            4129     44.2356E-03     45.3146E-03
            3767            4129     44.2356E-03     45.3146E-03
            3816            4129     44.2356E-03     45.3146E-03
            3818            4130     42.7012E-03     42.8436E-03
            3768            4130     42.7012E-03     42.8436E-03
            3767            4130     42.7012E-03     42.8436E-03
            3817            4130     42.7012E-03     42.8436E-03
            3818            4131     39.9271E-03     42.1589E-03
            3768            4131     39.9271E-03     42.1589E-03
            3769            4131     39.9271E-03     42.1589E-03
            3819            4131     39.9271E-03     42.1589E-03
            3769            4132     41.1948E-03     39.5540E-03
            3770            4132     41.1948E-03     39.5540E-03
            3820            4132     41.1948E-03     39.5540E-03
            3819            4132     41.1948E-03     39.5540E-03
            3770            4133     40.0745E-03     38.8598E-03
            3820            4133     40.0745E-03     38.8598E-03
            3821            4133     40.0745E-03     38.8598E-03
            3771            4133     40.0745E-03     38.8598E-03
            3822            4134     37.1105E-03     44.5146E-03
            3821            4134     37.1105E-03     44.5146E-03
            3771            4134     37.1105E-03     44.5146E-03
            3772            4134     37.1105E-03     44.5146E-03
            3772            4135     42.9428E-03     42.2680E-03
            3822            4135     42.9428E-03     42.2680E-03
            3823            4135     42.9428E-03     42.2680E-03
            3773            4135     42.9428E-03     42.2680E-03
            3823            4136     41.2986E-03     39.1147E-03
            3824            4136     41.2986E-03     39.1147E-03
            3774            4136     41.2986E-03     39.1147E-03
            3773            4136     41.2986E-03     39.1147E-03
            3824            4137     35.3221E-03     38.0409E-03
            3825            4137     35.3221E-03     38.0409E-03
            3774            4137     35.3221E-03     38.0409E-03
            3775            4137     35.3221E-03     38.0409E-03
            3775            4138     34.3479E-03     34.2226E-03
            3825            4138     34.3479E-03     34.2226E-03
            3776            4138     34.3479E-03     34.2226E-03
            3826            4138     34.3479E-03     34.2226E-03
            3776            4139     31.8884E-03     32.6618E-03
            3827            4139     31.8884E-03     32.6618E-03
            3777            4139     31.8884E-03     32.6618E-03
            3826            4139     31.8884E-03     32.6618E-03
            3777            4140     29.8366E-03     30.5588E-03
            3827            4140     29.8366E-03     30.5588E-03
            3828            4140     29.8366E-03     30.5588E-03
            3778            4140     29.8366E-03     30.5588E-03
            3778            4141     28.1335E-03     28.2673E-03
            3779            4141     28.1335E-03     28.2673E-03
            3828            4141     28.1335E-03     28.2673E-03
            3829            4141     28.1335E-03     28.2673E-03
            3780            4142     25.7166E-03     26.9952E-03
            3830            4142     25.7166E-03     26.9952E-03
            3829            4142     25.7166E-03     26.9952E-03
            3779            4142     25.7166E-03     26.9952E-03
            3780            4143     25.6278E-03     24.7106E-03
            3831            4143     25.6278E-03     24.7106E-03
            3830            4143     25.6278E-03     24.7106E-03
            3781            4143     25.6278E-03     24.7106E-03
            3782            4144     24.4467E-03     23.5886E-03
            3831            4144     24.4467E-03     23.5886E-03
            3832            4144     24.4467E-03     23.5886E-03
            3781            4144     24.4467E-03     23.5886E-03
            3832            4145     23.1777E-03     27.7491E-03
            3782            4145     23.1777E-03     27.7491E-03
            3833            4145     23.1777E-03     27.7491E-03
            3783            4145     23.1777E-03     27.7491E-03
            3834            4146     27.3110E-03     26.9901E-03
            3783            4146     27.3110E-03     26.9901E-03
            3784            4146     27.3110E-03     26.9901E-03
            3833            4146     27.3110E-03     26.9901E-03
            3784            4147     25.7337E-03     24.2749E-03
            3785            4147     25.7337E-03     24.2749E-03
            3835            4147     25.7337E-03     24.2749E-03
            3834            4147     25.7337E-03     24.2749E-03
            3785            4148     21.1251E-03     22.8862E-03
            3835            4148     21.1251E-03     22.8862E-03
            3786            4148     21.1251E-03     22.8862E-03
            3836            4148     21.1251E-03     22.8862E-03
            3837            4149     19.7986E-03     19.6637E-03
            3836            4149     19.7986E-03     19.6637E-03
            3787            4149     19.7986E-03     19.6637E-03
            3786            4149     19.7986E-03     19.6637E-03
            3837            4150     17.5172E-03     17.9289E-03
            3787            4150     17.5172E-03     17.9289E-03
            3838            4150     17.5172E-03     17.9289E-03
            3788            4150     17.5172E-03     17.9289E-03
            3789            4151     15.4745E-03     15.8351E-03
            3788            4151     15.4745E-03     15.8351E-03
            3838            4151     15.4745E-03     15.8351E-03
            3839            4151     15.4745E-03     15.8351E-03
            3840            4152     13.6198E-03     13.7376E-03
            3790            4152     13.6198E-03     13.7376E-03
            3839            4152     13.6198E-03     13.7376E-03
            3789            4152     13.6198E-03     13.7376E-03
            3841            4153     11.5918E-03     11.9013E-03
            3790            4153     11.5918E-03     11.9013E-03
            3840            4153     11.5918E-03     11.9013E-03
            3791            4153     11.5918E-03     11.9013E-03
            3791            4154     10.2023E-03     9.99944E-03
            3842            4154     10.2023E-03     9.99944E-03
            3841            4154     10.2023E-03     9.99944E-03
            3792            4154     10.2023E-03     9.99944E-03
            3792            4155     9.05068E-03     8.56348E-03
            3842            4155     9.05068E-03     8.56348E-03
            3793            4155     9.05068E-03     8.56348E-03
            3843            4155     9.05068E-03     8.56348E-03
            3843            4156     9.08805E-03     10.8109E-03
            3844            4156     9.08805E-03     10.8109E-03
            3794            4156     9.08805E-03     10.8109E-03
            3793            4156     9.08805E-03     10.8109E-03
            3794            4157     10.9069E-03     10.9692E-03
            3844            4157     10.9069E-03     10.9692E-03
            3845            4157     10.9069E-03     10.9692E-03
            3795            4157     10.9069E-03     10.9692E-03
            3796            4158     9.14066E-03     8.41166E-03
            3846            4158     9.14066E-03     8.41166E-03
            3845            4158     9.14066E-03     8.41166E-03
            3795            4158     9.14066E-03     8.41166E-03
            3797            4159     5.81169E-03     6.54213E-03
            3847            4159     5.81169E-03     6.54213E-03
            3846            4159     5.81169E-03     6.54213E-03
            3796            4159     5.81169E-03     6.54213E-03
            3798            4160     4.19776E-03     3.80909E-03
            3847            4160     4.19776E-03     3.80909E-03
            3797            4160     4.19776E-03     3.80909E-03
            3848            4160     4.19776E-03     3.80909E-03
            3798            4161     2.88211E-03     2.63992E-03
            3799            4161     2.88211E-03     2.63992E-03
            3849            4161     2.88211E-03     2.63992E-03
            3848            4161     2.88211E-03     2.63992E-03
            3850            4162     2.86692E-03     3.31496E-03
            3800            4162     2.86692E-03     3.31496E-03
            3799            4162     2.86692E-03     3.31496E-03
            3849            4162     2.86692E-03     3.31496E-03
            4107            4328     13.7509E-03     13.6364E-03
            4108            4328     13.7509E-03     13.6364E-03
            4068            4328     13.7509E-03     13.6364E-03
            4067            4328     13.7509E-03     13.6364E-03
            4108            4329     13.7541E-03     13.7495E-03
            4068            4329     13.7541E-03     13.7495E-03
            4069            4329     13.7541E-03     13.7495E-03
            4109            4329     13.7541E-03     13.7495E-03
            4070            4330     13.8676E-03     13.7882E-03
            4110            4330     13.8676E-03     13.7882E-03
            4069            4330     13.8676E-03     13.7882E-03
            4109            4330     13.8676E-03     13.7882E-03
            4111            4331     13.8519E-03     13.6273E-03
            4071            4331     13.8519E-03     13.6273E-03
            4110            4331     13.8519E-03     13.6273E-03
            4070            4331     13.8519E-03     13.6273E-03
            4072            4332     14.0013E-03     13.8992E-03
            4111            4332     14.0013E-03     13.8992E-03
            4112            4332     14.0013E-03     13.8992E-03
            4071            4332     14.0013E-03     13.8992E-03
            4112            4333     14.4158E-03     14.2536E-03
            4073            4333     14.4158E-03     14.2536E-03
            4072            4333     14.4158E-03     14.2536E-03
            4113            4333     14.4158E-03     14.2536E-03
            4113            4334     14.5496E-03     14.3175E-03
            4114            4334     14.5496E-03     14.3175E-03
            4073            4334     14.5496E-03     14.3175E-03
            4074            4334     14.5496E-03     14.3175E-03
            4074            4335     14.6558E-03     14.4778E-03
            4114            4335     14.6558E-03     14.4778E-03
            4075            4335     14.6558E-03     14.4778E-03
            4115            4335     14.6558E-03     14.4778E-03
            4075            4336     14.7531E-03     14.6195E-03
            4076            4336     14.7531E-03     14.6195E-03
            4115            4336     14.7531E-03     14.6195E-03
            4116            4336     14.7531E-03     14.6195E-03
            4076            4337     14.8567E-03     14.8337E-03
            4077            4337     14.8567E-03     14.8337E-03
            4117            4337     14.8567E-03     14.8337E-03
            4116            4337     14.8567E-03     14.8337E-03
            4118            4338     15.0259E-03     15.0472E-03
            4117            4338     15.0259E-03     15.0472E-03
            4078            4338     15.0259E-03     15.0472E-03
            4077            4338     15.0259E-03     15.0472E-03
            4078            4339     15.1702E-03     15.1782E-03
            4118            4339     15.1702E-03     15.1782E-03
            4079            4339     15.1702E-03     15.1782E-03
            4119            4339     15.1702E-03     15.1782E-03
            4079            4340     15.1295E-03     15.5216E-03
            4080            4340     15.1295E-03     15.5216E-03
            4120            4340     15.1295E-03     15.5216E-03
            4119            4340     15.1295E-03     15.5216E-03
            4080            4341     15.7308E-03     15.5810E-03
            4120            4341     15.7308E-03     15.5810E-03
            4081            4341     15.7308E-03     15.5810E-03
            4121            4341     15.7308E-03     15.5810E-03
            4122            4342     15.6835E-03     15.1620E-03
            4121            4342     15.6835E-03     15.1620E-03
            4082            4342     15.6835E-03     15.1620E-03
            4081            4342     15.6835E-03     15.1620E-03
            4083            4343     15.1521E-03     15.3519E-03
            4123            4343     15.1521E-03     15.3519E-03
            4082            4343     15.1521E-03     15.3519E-03
            4122            4343     15.1521E-03     15.3519E-03
            4084            4344     15.6230E-03     15.4612E-03
            4123            4344     15.6230E-03     15.4612E-03
            4124            4344     15.6230E-03     15.4612E-03
            4083            4344     15.6230E-03     15.4612E-03
            4084            4345     16.0521E-03     15.5128E-03
            4125            4345     16.0521E-03     15.5128E-03
            4124            4345     16.0521E-03     15.5128E-03
            4085            4345     16.0521E-03     15.5128E-03
            4085            4346     16.3048E-03     15.9971E-03
            4126            4346     16.3048E-03     15.9971E-03
            4125            4346     16.3048E-03     15.9971E-03
            4086            4346     16.3048E-03     15.9971E-03
            4126            4347     16.5905E-03     16.3243E-03
            4086            4347     16.5905E-03     16.3243E-03
            4127            4347     16.5905E-03     16.3243E-03
            4087            4347     16.5905E-03     16.3243E-03
            4087            4348     16.8716E-03     16.6995E-03
            4127            4348     16.8716E-03     16.6995E-03
            4088            4348     16.8716E-03     16.6995E-03
            4128            4348     16.8716E-03     16.6995E-03
            4088            4349     17.0830E-03     17.1393E-03
            4129            4349     17.0830E-03     17.1393E-03
            4089            4349     17.0830E-03     17.1393E-03
            4128            4349     17.0830E-03     17.1393E-03
            4129            4350     17.3769E-03     17.4738E-03
            4089            4350     17.3769E-03     17.4738E-03
            4130            4350     17.3769E-03     17.4738E-03
            4090            4350     17.3769E-03     17.4738E-03
            4130            4351     17.5615E-03     17.6463E-03
            4090            4351     17.5615E-03     17.6463E-03
            4091            4351     17.5615E-03     17.6463E-03
            4131            4351     17.5615E-03     17.6463E-03
            4132            4352     17.3830E-03     18.1990E-03
            4092            4352     17.3830E-03     18.1990E-03
            4131            4352     17.3830E-03     18.1990E-03
            4091            4352     17.3830E-03     18.1990E-03
            4133            4353     18.4099E-03     18.1109E-03
            4093            4353     18.4099E-03     18.1109E-03
            4132            4353     18.4099E-03     18.1109E-03
            4092            4353     18.4099E-03     18.1109E-03
            4133            4354     18.1698E-03     17.3591E-03
            4134            4354     18.1698E-03     17.3591E-03
            4093            4354     18.1698E-03     17.3591E-03
            4094            4354     18.1698E-03     17.3591E-03
            4094            4355     17.0225E-03     17.8104E-03
            4095            4355     17.0225E-03     17.8104E-03
            4134            4355     17.0225E-03     17.8104E-03
            4135            4355     17.0225E-03     17.8104E-03
            4136            4356     18.0963E-03     17.8660E-03
            4095            4356     18.0963E-03     17.8660E-03
            4096            4356     18.0963E-03     17.8660E-03
            4135            4356     18.0963E-03     17.8660E-03
            4097            4357     18.8638E-03     18.0153E-03
            4096            4357     18.8638E-03     18.0153E-03
            4137            4357     18.8638E-03     18.0153E-03
            4136            4357     18.8638E-03     18.0153E-03
            4137            4358     19.1194E-03     18.9190E-03
            4098            4358     19.1194E-03     18.9190E-03
            4138            4358     19.1194E-03     18.9190E-03
            4097            4358     19.1194E-03     18.9190E-03
            4139            4359     19.5551E-03     19.2955E-03
            4138            4359     19.5551E-03     19.2955E-03
            4098            4359     19.5551E-03     19.2955E-03
            4099            4359     19.5551E-03     19.2955E-03
            4099            4360     19.8588E-03     19.8865E-03
            4140            4360     19.8588E-03     19.8865E-03
            4100            4360     19.8588E-03     19.8865E-03
            4139            4360     19.8588E-03     19.8865E-03
            4140            4361     20.1841E-03     20.3595E-03
            4141            4361     20.1841E-03     20.3595E-03
            4101            4361     20.1841E-03     20.3595E-03
            4100            4361     20.1841E-03     20.3595E-03
            4142            4362     20.3395E-03     20.4902E-03
            4101            4362     20.3395E-03     20.4902E-03
            4141            4362     20.3395E-03     20.4902E-03
            4102            4362     20.3395E-03     20.4902E-03
            4142            4363     19.9708E-03     21.1560E-03
            4103            4363     19.9708E-03     21.1560E-03
            4143            4363     19.9708E-03     21.1560E-03
            4102            4363     19.9708E-03     21.1560E-03
            4144            4364     21.2638E-03     20.8409E-03
            4104            4364     21.2638E-03     20.8409E-03
            4103            4364     21.2638E-03     20.8409E-03
            4143            4364     21.2638E-03     20.8409E-03
            4104            4365     20.7613E-03     19.7413E-03
            4144            4365     20.7613E-03     19.7413E-03
            4105            4365     20.7613E-03     19.7413E-03
            4145            4365     20.7613E-03     19.7413E-03
            4106            4366     17.7370E-03     18.2961E-03
            4105            4366     17.7370E-03     18.2961E-03
            4145            4366     17.7370E-03     18.2961E-03
            4146            4366     17.7370E-03     18.2961E-03
            4147            4367     12.7135E-03     12.5969E-03
            4148            4367     12.7135E-03     12.5969E-03
            4108            4367     12.7135E-03     12.5969E-03
            4107            4367     12.7135E-03     12.5969E-03
            4148            4368     12.7736E-03     12.7806E-03
            4108            4368     12.7736E-03     12.7806E-03
            4149            4368     12.7736E-03     12.7806E-03
            4109            4368     12.7736E-03     12.7806E-03
            4150            4369     13.0287E-03     12.8743E-03
            4149            4369     13.0287E-03     12.8743E-03
            4110            4369     13.0287E-03     12.8743E-03
            4109            4369     13.0287E-03     12.8743E-03
            4110            4370     13.0220E-03     12.8863E-03
            4111            4370     13.0220E-03     12.8863E-03
            4151            4370     13.0220E-03     12.8863E-03
            4150            4370     13.0220E-03     12.8863E-03
            4112            4371     12.9939E-03     13.0632E-03
            4152            4371     12.9939E-03     13.0632E-03
            4151            4371     12.9939E-03     13.0632E-03
            4111            4371     12.9939E-03     13.0632E-03
            4113            4372     13.3797E-03     13.2850E-03
            4153            4372     13.3797E-03     13.2850E-03
            4112            4372     13.3797E-03     13.2850E-03
            4152            4372     13.3797E-03     13.2850E-03
            4113            4373     13.6838E-03     13.6479E-03
            4153            4373     13.6838E-03     13.6479E-03
            4154            4373     13.6838E-03     13.6479E-03
            4114            4373     13.6838E-03     13.6479E-03
            4154            4374     14.0502E-03     14.1120E-03
            4114            4374     14.0502E-03     14.1120E-03
            4115            4374     14.0502E-03     14.1120E-03
            4155            4374     14.0502E-03     14.1120E-03
            4155            4375     14.5155E-03     14.5825E-03
            4156            4375     14.5155E-03     14.5825E-03
            4116            4375     14.5155E-03     14.5825E-03
            4115            4375     14.5155E-03     14.5825E-03
            4117            4376     14.9887E-03     15.1217E-03
            4157            4376     14.9887E-03     15.1217E-03
            4156            4376     14.9887E-03     15.1217E-03
            4116            4376     14.9887E-03     15.1217E-03
            4157            4377     15.6391E-03     15.5987E-03
            4158            4377     15.6391E-03     15.5987E-03
            4118            4377     15.6391E-03     15.5987E-03
            4117            4377     15.6391E-03     15.5987E-03
            4118            4378     16.2127E-03     16.0110E-03
            4158            4378     16.2127E-03     16.0110E-03
            4119            4378     16.2127E-03     16.0110E-03
            4159            4378     16.2127E-03     16.0110E-03
            4119            4379     16.5053E-03     16.9691E-03
            4159            4379     16.5053E-03     16.9691E-03
            4120            4379     16.5053E-03     16.9691E-03
            4160            4379     16.5053E-03     16.9691E-03
            4121            4380     17.9674E-03     17.1022E-03
            4120            4380     17.9674E-03     17.1022E-03
            4161            4380     17.9674E-03     17.1022E-03
            4160            4380     17.9674E-03     17.1022E-03
            4122            4381     17.7658E-03     17.1184E-03
            4161            4381     17.7658E-03     17.1184E-03
            4162            4381     17.7658E-03     17.1184E-03
            4121            4381     17.7658E-03     17.1184E-03
            4162            4382     16.2393E-03     17.4194E-03
            4122            4382     16.2393E-03     17.4194E-03
            4123            4382     16.2393E-03     17.4194E-03
            4163            4382     16.2393E-03     17.4194E-03
            4163            4383     17.2510E-03     16.9832E-03
            4164            4383     17.2510E-03     16.9832E-03
            4123            4383     17.2510E-03     16.9832E-03
            4124            4383     17.2510E-03     16.9832E-03
            4164            4384     18.2196E-03     17.8276E-03
            4165            4384     18.2196E-03     17.8276E-03
            4124            4384     18.2196E-03     17.8276E-03
            4125            4384     18.2196E-03     17.8276E-03
            4125            4385     18.6250E-03     19.0231E-03
            4165            4385     18.6250E-03     19.0231E-03
            4166            4385     18.6250E-03     19.0231E-03
            4126            4385     18.6250E-03     19.0231E-03
            4167            4386     19.5793E-03     19.6329E-03
            4127            4386     19.5793E-03     19.6329E-03
            4166            4386     19.5793E-03     19.6329E-03
            4126            4386     19.5793E-03     19.6329E-03
            4127            4387     20.4384E-03     20.4068E-03
            4128            4387     20.4384E-03     20.4068E-03
            4167            4387     20.4384E-03     20.4068E-03
            4168            4387     20.4384E-03     20.4068E-03
            4169            4388     21.1530E-03     21.2313E-03
            4128            4388     21.1530E-03     21.2313E-03
            4129            4388     21.1530E-03     21.2313E-03
            4168            4388     21.1530E-03     21.2313E-03
            4170            4389     22.1619E-03     21.8757E-03
            4169            4389     22.1619E-03     21.8757E-03
            4130            4389     22.1619E-03     21.8757E-03
            4129            4389     22.1619E-03     21.8757E-03
            4131            4390     22.9080E-03     22.4451E-03
            4171            4390     22.9080E-03     22.4451E-03
            4170            4390     22.9080E-03     22.4451E-03
            4130            4390     22.9080E-03     22.4451E-03
            4131            4391     23.0551E-03     23.9970E-03
            4132            4391     23.0551E-03     23.9970E-03
            4171            4391     23.0551E-03     23.9970E-03
            4172            4391     23.0551E-03     23.9970E-03
            4132            4392     25.3784E-03     23.7684E-03
            4172            4392     25.3784E-03     23.7684E-03
            4173            4392     25.3784E-03     23.7684E-03
            4133            4392     25.3784E-03     23.7684E-03
            4174            4393     24.6353E-03     23.5420E-03
            4133            4393     24.6353E-03     23.5420E-03
            4173            4393     24.6353E-03     23.5420E-03
            4134            4393     24.6353E-03     23.5420E-03
            4135            4394     21.5899E-03     24.2899E-03
            4175            4394     21.5899E-03     24.2899E-03
            4174            4394     21.5899E-03     24.2899E-03
            4134            4394     21.5899E-03     24.2899E-03
            4175            4395     23.9241E-03     23.2989E-03
            4135            4395     23.9241E-03     23.2989E-03
            4136            4395     23.9241E-03     23.2989E-03
            4176            4395     23.9241E-03     23.2989E-03
            4137            4396     25.6469E-03     24.6317E-03
            4177            4396     25.6469E-03     24.6317E-03
            4136            4396     25.6469E-03     24.6317E-03
            4176            4396     25.6469E-03     24.6317E-03
            4137            4397     25.7127E-03     26.5379E-03
            4177            4397     25.7127E-03     26.5379E-03
            4178            4397     25.7127E-03     26.5379E-03
            4138            4397     25.7127E-03     26.5379E-03
            4179            4398     27.0932E-03     26.9921E-03
            4178            4398     27.0932E-03     26.9921E-03
            4138            4398     27.0932E-03     26.9921E-03
            4139            4398     27.0932E-03     26.9921E-03
            4180            4399     28.0068E-03     28.0983E-03
            4139            4399     28.0068E-03     28.0983E-03
            4140            4399     28.0068E-03     28.0983E-03
            4179            4399     28.0068E-03     28.0983E-03
            4181            4400     29.0730E-03     28.9069E-03
            4180            4400     29.0730E-03     28.9069E-03
            4140            4400     29.0730E-03     28.9069E-03
            4141            4400     29.0730E-03     28.9069E-03
            4182            4401     29.8995E-03     29.4066E-03
            4181            4401     29.8995E-03     29.4066E-03
            4141            4401     29.8995E-03     29.4066E-03
            4142            4401     29.8995E-03     29.4066E-03
            4183            4402     29.8116E-03     31.2780E-03
            4142            4402     29.8116E-03     31.2780E-03
            4143            4402     29.8116E-03     31.2780E-03
            4182            4402     29.8116E-03     31.2780E-03
            4184            4403     32.6938E-03     30.5574E-03
            4183            4403     32.6938E-03     30.5574E-03
            4143            4403     32.6938E-03     30.5574E-03
            4144            4403     32.6938E-03     30.5574E-03
            4185            4404     31.3809E-03     29.9369E-03
            4184            4404     31.3809E-03     29.9369E-03
            4144            4404     31.3809E-03     29.9369E-03
            4145            4404     31.3809E-03     29.9369E-03
            4186            4405     27.3981E-03     29.8070E-03
            4185            4405     27.3981E-03     29.8070E-03
            4145            4405     27.3981E-03     29.8070E-03
            4146            4405     27.3981E-03     29.8070E-03
            4188            4406     11.0231E-03     10.9571E-03
            4147            4406     11.0231E-03     10.9571E-03
            4148            4406     11.0231E-03     10.9571E-03
            4187            4406     11.0231E-03     10.9571E-03
            4149            4407     11.0890E-03     11.2433E-03
            4188            4407     11.0890E-03     11.2433E-03
            4148            4407     11.0890E-03     11.2433E-03
            4189            4407     11.0890E-03     11.2433E-03
            4149            4408     11.6969E-03     11.4101E-03
            4189            4408     11.6969E-03     11.4101E-03
            4190            4408     11.6969E-03     11.4101E-03
            4150            4408     11.6969E-03     11.4101E-03
            4191            4409     11.8604E-03     11.7355E-03
            4150            4409     11.8604E-03     11.7355E-03
            4151            4409     11.8604E-03     11.7355E-03
            4190            4409     11.8604E-03     11.7355E-03
            4192            4410     11.5914E-03     11.9483E-03
            4191            4410     11.5914E-03     11.9483E-03
            4151            4410     11.5914E-03     11.9483E-03
            4152            4410     11.5914E-03     11.9483E-03
            4193            4411     12.0040E-03     12.1103E-03
            4192            4411     12.0040E-03     12.1103E-03
            4152            4411     12.0040E-03     12.1103E-03
            4153            4411     12.0040E-03     12.1103E-03
            4194            4412     12.5640E-03     12.8924E-03
            4153            4412     12.5640E-03     12.8924E-03
            4154            4412     12.5640E-03     12.8924E-03
            4193            4412     12.5640E-03     12.8924E-03
            4195            4413     13.3234E-03     13.6930E-03
            4194            4413     13.3234E-03     13.6930E-03
            4154            4413     13.3234E-03     13.6930E-03
            4155            4413     13.3234E-03     13.6930E-03
            4196            4414     14.2334E-03     14.3900E-03
            4156            4414     14.2334E-03     14.3900E-03
            4155            4414     14.2334E-03     14.3900E-03
            4195            4414     14.2334E-03     14.3900E-03
            4197            4415     15.1238E-03     15.2611E-03
            4156            4415     15.1238E-03     15.2611E-03
            4196            4415     15.1238E-03     15.2611E-03
            4157            4415     15.1238E-03     15.2611E-03
            4198            4416     16.2570E-03     16.0937E-03
            4157            4416     16.2570E-03     16.0937E-03
            4158            4416     16.2570E-03     16.0937E-03
            4197            4416     16.2570E-03     16.0937E-03
            4198            4417     17.2982E-03     16.9225E-03
            4158            4417     17.2982E-03     16.9225E-03
            4159            4417     17.2982E-03     16.9225E-03
            4199            4417     17.2982E-03     16.9225E-03
            4160            4418     18.0233E-03     18.6865E-03
            4199            4418     18.0233E-03     18.6865E-03
            4159            4418     18.0233E-03     18.6865E-03
            4200            4418     18.0233E-03     18.6865E-03
            4201            4419     20.7962E-03     19.0435E-03
            4160            4419     20.7962E-03     19.0435E-03
            4161            4419     20.7962E-03     19.0435E-03
            4200            4419     20.7962E-03     19.0435E-03
            4202            4420     20.6181E-03     19.9148E-03
            4201            4420     20.6181E-03     19.9148E-03
            4161            4420     20.6181E-03     19.9148E-03
            4162            4420     20.6181E-03     19.9148E-03
            4203            4421     18.0244E-03     20.8704E-03
            4163            4421     18.0244E-03     20.8704E-03
            4162            4421     18.0244E-03     20.8704E-03
            4202            4421     18.0244E-03     20.8704E-03
            4204            4422     20.0502E-03     19.8758E-03
            4203            4422     20.0502E-03     19.8758E-03
            4163            4422     20.0502E-03     19.8758E-03
            4164            4422     20.0502E-03     19.8758E-03
            4164            4423     21.5874E-03     21.2395E-03
            4204            4423     21.5874E-03     21.2395E-03
            4165            4423     21.5874E-03     21.2395E-03
            4205            4423     21.5874E-03     21.2395E-03
            4205            4424     21.7824E-03     22.8286E-03
            4165            4424     21.7824E-03     22.8286E-03
            4206            4424     21.7824E-03     22.8286E-03
            4166            4424     21.7824E-03     22.8286E-03
            4207            4425     23.1924E-03     23.2854E-03
            4206            4425     23.1924E-03     23.2854E-03
            4166            4425     23.1924E-03     23.2854E-03
            4167            4425     23.1924E-03     23.2854E-03
            4167            4426     24.3587E-03     24.2753E-03
            4208            4426     24.3587E-03     24.2753E-03
            4168            4426     24.3587E-03     24.2753E-03
            4207            4426     24.3587E-03     24.2753E-03
            4208            4427     25.3973E-03     25.5154E-03
            4169            4427     25.3973E-03     25.5154E-03
            4168            4427     25.3973E-03     25.5154E-03
            4209            4427     25.3973E-03     25.5154E-03
            4209            4428     27.0151E-03     26.5584E-03
            4169            4428     27.0151E-03     26.5584E-03
            4210            4428     27.0151E-03     26.5584E-03
            4170            4428     27.0151E-03     26.5584E-03
            4210            4429     28.3710E-03     27.6617E-03
            4211            4429     28.3710E-03     27.6617E-03
            4170            4429     28.3710E-03     27.6617E-03
            4171            4429     28.3710E-03     27.6617E-03
            4211            4430     29.0615E-03     30.4047E-03
            4212            4430     29.0615E-03     30.4047E-03
            4171            4430     29.0615E-03     30.4047E-03
            4172            4430     29.0615E-03     30.4047E-03
            4212            4431     33.3168E-03     30.3952E-03
            4173            4431     33.3168E-03     30.3952E-03
            4213            4431     33.3168E-03     30.3952E-03
            4172            4431     33.3168E-03     30.3952E-03
            4213            4432     32.3837E-03     31.2339E-03
            4173            4432     32.3837E-03     31.2339E-03
            4214            4432     32.3837E-03     31.2339E-03
            4174            4432     32.3837E-03     31.2339E-03
            4175            4433     27.4482E-03     32.9928E-03
            4215            4433     27.4482E-03     32.9928E-03
            4214            4433     27.4482E-03     32.9928E-03
            4174            4433     27.4482E-03     32.9928E-03
            4216            4434     31.4979E-03     30.8574E-03
            4176            4434     31.4979E-03     30.8574E-03
            4215            4434     31.4979E-03     30.8574E-03
            4175            4434     31.4979E-03     30.8574E-03
            4217            4435     33.9738E-03     32.5950E-03
            4177            4435     33.9738E-03     32.5950E-03
            4216            4435     33.9738E-03     32.5950E-03
            4176            4435     33.9738E-03     32.5950E-03
            4177            4436     33.2119E-03     34.8186E-03
            4218            4436     33.2119E-03     34.8186E-03
            4217            4436     33.2119E-03     34.8186E-03
            4178            4436     33.2119E-03     34.8186E-03
            4179            4437     34.9713E-03     34.6975E-03
            4219            4437     34.9713E-03     34.6975E-03
            4178            4437     34.9713E-03     34.6975E-03
            4218            4437     34.9713E-03     34.6975E-03
            4219            4438     36.0897E-03     36.0421E-03
            4220            4438     36.0897E-03     36.0421E-03
            4180            4438     36.0897E-03     36.0421E-03
            4179            4438     36.0897E-03     36.0421E-03
            4181            4439     37.6087E-03     37.1683E-03
            4220            4439     37.6087E-03     37.1683E-03
            4180            4439     37.6087E-03     37.1683E-03
            4221            4439     37.6087E-03     37.1683E-03
            4222            4440     39.0988E-03     38.1202E-03
            4182            4440     39.0988E-03     38.1202E-03
            4181            4440     39.0988E-03     38.1202E-03
            4221            4440     39.0988E-03     38.1202E-03
            4182            4441     39.6026E-03     41.4915E-03
            4223            4441     39.6026E-03     41.4915E-03
            4222            4441     39.6026E-03     41.4915E-03
            4183            4441     39.6026E-03     41.4915E-03
            4224            4442     44.8955E-03     41.0206E-03
            4184            4442     44.8955E-03     41.0206E-03
            4183            4442     44.8955E-03     41.0206E-03
            4223            4442     44.8955E-03     41.0206E-03
            4184            4443     43.2340E-03     41.6519E-03
            4225            4443     43.2340E-03     41.6519E-03
            4185            4443     43.2340E-03     41.6519E-03
            4224            4443     43.2340E-03     41.6519E-03
            4186            4444     37.5069E-03     42.1984E-03
            4226            4444     37.5069E-03     42.1984E-03
            4185            4444     37.5069E-03     42.1984E-03
            4225            4444     37.5069E-03     42.1984E-03
            4227            4445     8.65553E-03     8.73432E-03
            4228            4445     8.65553E-03     8.73432E-03
            4188            4445     8.65553E-03     8.73432E-03
            4187            4445     8.65553E-03     8.73432E-03
            4228            4446     8.86805E-03     9.34775E-03
            4229            4446     8.86805E-03     9.34775E-03
            4189            4446     8.86805E-03     9.34775E-03
            4188            4446     8.86805E-03     9.34775E-03
            4229            4447     9.97638E-03     9.45719E-03
            4190            4447     9.97638E-03     9.45719E-03
            4230            4447     9.97638E-03     9.45719E-03
            4189            4447     9.97638E-03     9.45719E-03
            4190            4448     10.2532E-03     10.1330E-03
            4231            4448     10.2532E-03     10.1330E-03
            4191            4448     10.2532E-03     10.1330E-03
            4230            4448     10.2532E-03     10.1330E-03
            4192            4449     9.89778E-03     10.9081E-03
            4231            4449     9.89778E-03     10.9081E-03
            4232            4449     9.89778E-03     10.9081E-03
            4191            4449     9.89778E-03     10.9081E-03
            4233            4450     10.7781E-03     11.1235E-03
            4192            4450     10.7781E-03     11.1235E-03
            4193            4450     10.7781E-03     11.1235E-03
            4232            4450     10.7781E-03     11.1235E-03
            4193            4451     11.6179E-03     12.0890E-03
            4194            4451     11.6179E-03     12.0890E-03
            4234            4451     11.6179E-03     12.0890E-03
            4233            4451     11.6179E-03     12.0890E-03
            4234            4452     12.5206E-03     12.9712E-03
            4194            4452     12.5206E-03     12.9712E-03
            4195            4452     12.5206E-03     12.9712E-03
            4235            4452     12.5206E-03     12.9712E-03
            4236            4453     13.8004E-03     13.8398E-03
            4196            4453     13.8004E-03     13.8398E-03
            4235            4453     13.8004E-03     13.8398E-03
            4195            4453     13.8004E-03     13.8398E-03
            4237            4454     15.0009E-03     15.2571E-03
            4197            4454     15.0009E-03     15.2571E-03
            4236            4454     15.0009E-03     15.2571E-03
            4196            4454     15.0009E-03     15.2571E-03
            4198            4455     16.6810E-03     16.6372E-03
            4197            4455     16.6810E-03     16.6372E-03
            4237            4455     16.6810E-03     16.6372E-03
            4238            4455     16.6810E-03     16.6372E-03
            4238            4456     18.2239E-03     18.0477E-03
            4239            4456     18.2239E-03     18.0477E-03
            4199            4456     18.2239E-03     18.0477E-03
            4198            4456     18.2239E-03     18.0477E-03
            4240            4457     19.3172E-03     20.7823E-03
            4199            4457     19.3172E-03     20.7823E-03
            4239            4457     19.3172E-03     20.7823E-03
            4200            4457     19.3172E-03     20.7823E-03
            4200            4458     23.4619E-03     21.1255E-03
            4241            4458     23.4619E-03     21.1255E-03
            4240            4458     23.4619E-03     21.1255E-03
            4201            4458     23.4619E-03     21.1255E-03
            4202            4459     23.4707E-03     22.9974E-03
            4201            4459     23.4707E-03     22.9974E-03
            4242            4459     23.4707E-03     22.9974E-03
            4241            4459     23.4707E-03     22.9974E-03
            4203            4460     20.1586E-03     25.4270E-03
            4202            4460     20.1586E-03     25.4270E-03
            4243            4460     20.1586E-03     25.4270E-03
            4242            4460     20.1586E-03     25.4270E-03
            4243            4461     23.4422E-03     23.5410E-03
            4204            4461     23.4422E-03     23.5410E-03
            4244            4461     23.4422E-03     23.5410E-03
            4203            4461     23.4422E-03     23.5410E-03
            4245            4462     25.2016E-03     24.4858E-03
            4205            4462     25.2016E-03     24.4858E-03
            4204            4462     25.2016E-03     24.4858E-03
            4244            4462     25.2016E-03     24.4858E-03
            4205            4463     24.5948E-03     26.0803E-03
            4206            4463     24.5948E-03     26.0803E-03
            4245            4463     24.5948E-03     26.0803E-03
            4246            4463     24.5948E-03     26.0803E-03
            4206            4464     26.2254E-03     26.3942E-03
            4207            4464     26.2254E-03     26.3942E-03
            4246            4464     26.2254E-03     26.3942E-03
            4247            4464     26.2254E-03     26.3942E-03
            4248            4465     27.5851E-03     27.8186E-03
            4208            4465     27.5851E-03     27.8186E-03
            4247            4465     27.5851E-03     27.8186E-03
            4207            4465     27.5851E-03     27.8186E-03
            4209            4466     28.8312E-03     29.6252E-03
            4208            4466     28.8312E-03     29.6252E-03
            4249            4466     28.8312E-03     29.6252E-03
            4248            4466     28.8312E-03     29.6252E-03
            4209            4467     31.0622E-03     31.1629E-03
            4210            4467     31.0622E-03     31.1629E-03
            4249            4467     31.0622E-03     31.1629E-03
            4250            4467     31.0622E-03     31.1629E-03
            4210            4468     32.9064E-03     32.7688E-03
            4211            4468     32.9064E-03     32.7688E-03
            4250            4468     32.9064E-03     32.7688E-03
            4251            4468     32.9064E-03     32.7688E-03
            4252            4469     33.9764E-03     36.6194E-03
            4211            4469     33.9764E-03     36.6194E-03
            4212            4469     33.9764E-03     36.6194E-03
            4251            4469     33.9764E-03     36.6194E-03
            4212            4470     40.2594E-03     36.4746E-03
            4213            4470     40.2594E-03     36.4746E-03
            4253            4470     40.2594E-03     36.4746E-03
            4252            4470     40.2594E-03     36.4746E-03
            4214            4471     39.5558E-03     38.7846E-03
            4213            4471     39.5558E-03     38.7846E-03
            4253            4471     39.5558E-03     38.7846E-03
            4254            4471     39.5558E-03     38.7846E-03
            4255            4472     33.2455E-03     42.7648E-03
            4214            4472     33.2455E-03     42.7648E-03
            4215            4472     33.2455E-03     42.7648E-03
            4254            4472     33.2455E-03     42.7648E-03
            4255            4473     39.1132E-03     38.8468E-03
            4256            4473     39.1132E-03     38.8468E-03
            4216            4473     39.1132E-03     38.8468E-03
            4215            4473     39.1132E-03     38.8468E-03
            4256            4474     41.6604E-03     39.5699E-03
            4216            4474     41.6604E-03     39.5699E-03
            4257            4474     41.6604E-03     39.5699E-03
            4217            4474     41.6604E-03     39.5699E-03
            4257            4475     39.3183E-03     41.7821E-03
            4258            4475     39.3183E-03     41.7821E-03
            4217            4475     39.3183E-03     41.7821E-03
            4218            4475     39.3183E-03     41.7821E-03
            4219            4476     41.2175E-03     41.1369E-03
            4258            4476     41.2175E-03     41.1369E-03
            4218            4476     41.2175E-03     41.1369E-03
            4259            4476     41.2175E-03     41.1369E-03
            4219            4477     42.3397E-03     43.0537E-03
            4259            4477     42.3397E-03     43.0537E-03
            4220            4477     42.3397E-03     43.0537E-03
            4260            4477     42.3397E-03     43.0537E-03
            4260            4478     44.2806E-03     44.6429E-03
            4221            4478     44.2806E-03     44.6429E-03
            4220            4478     44.2806E-03     44.6429E-03
            4261            4478     44.2806E-03     44.6429E-03
            4222            4479     46.3504E-03     45.9979E-03
            4221            4479     46.3504E-03     45.9979E-03
            4261            4479     46.3504E-03     45.9979E-03
            4262            4479     46.3504E-03     45.9979E-03
            4262            4480     47.2547E-03     50.7818E-03
            4222            4480     47.2547E-03     50.7818E-03
            4263            4480     47.2547E-03     50.7818E-03
            4223            4480     47.2547E-03     50.7818E-03
            4263            4481     55.2490E-03     50.1811E-03
            4224            4481     55.2490E-03     50.1811E-03
            4264            4481     55.2490E-03     50.1811E-03
            4223            4481     55.2490E-03     50.1811E-03
            4264            4482     53.9235E-03     52.8421E-03
            4225            4482     53.9235E-03     52.8421E-03
            4224            4482     53.9235E-03     52.8421E-03
            4265            4482     53.9235E-03     52.8421E-03
            4265            4483     46.4367E-03     54.0515E-03
            4225            4483     46.4367E-03     54.0515E-03
            4226            4483     46.4367E-03     54.0515E-03
            4266            4483     46.4367E-03     54.0515E-03
            4227            4484     5.81681E-03     5.97104E-03
            4228            4484     5.81681E-03     5.97104E-03
            4268            4484     5.81681E-03     5.97104E-03
            4267            4484     5.81681E-03     5.97104E-03
            4229            4485     6.14178E-03     6.68339E-03
            4268            4485     6.14178E-03     6.68339E-03
            4269            4485     6.14178E-03     6.68339E-03
            4228            4485     6.14178E-03     6.68339E-03
            4229            4486     8.11921E-03     7.18067E-03
            4270            4486     8.11921E-03     7.18067E-03
            4269            4486     8.11921E-03     7.18067E-03
            4230            4486     8.11921E-03     7.18067E-03
            4271            4487     8.66475E-03     8.81643E-03
            4230            4487     8.66475E-03     8.81643E-03
            4270            4487     8.66475E-03     8.81643E-03
            4231            4487     8.66475E-03     8.81643E-03
            4231            4488     8.36002E-03     10.1388E-03
            4272            4488     8.36002E-03     10.1388E-03
            4271            4488     8.36002E-03     10.1388E-03
            4232            4488     8.36002E-03     10.1388E-03
            4272            4489     9.88993E-03     10.0198E-03
            4233            4489     9.88993E-03     10.0198E-03
            4273            4489     9.88993E-03     10.0198E-03
            4232            4489     9.88993E-03     10.0198E-03
            4234            4490     10.5709E-03     10.8275E-03
            4273            4490     10.5709E-03     10.8275E-03
            4233            4490     10.5709E-03     10.8275E-03
            4274            4490     10.5709E-03     10.8275E-03
            4234            4491     11.5062E-03     11.9684E-03
            4235            4491     11.5062E-03     11.9684E-03
            4275            4491     11.5062E-03     11.9684E-03
            4274            4491     11.5062E-03     11.9684E-03
            4236            4492     13.2591E-03     13.4420E-03
            4276            4492     13.2591E-03     13.4420E-03
            4235            4492     13.2591E-03     13.4420E-03
            4275            4492     13.2591E-03     13.4420E-03
            4276            4493     14.8787E-03     15.5493E-03
            4236            4493     14.8787E-03     15.5493E-03
            4237            4493     14.8787E-03     15.5493E-03
            4277            4493     14.8787E-03     15.5493E-03
            4278            4494     17.1358E-03     17.5817E-03
            4237            4494     17.1358E-03     17.5817E-03
            4277            4494     17.1358E-03     17.5817E-03
            4238            4494     17.1358E-03     17.5817E-03
            4239            4495     19.3323E-03     19.5018E-03
            4279            4495     19.3323E-03     19.5018E-03
            4238            4495     19.3323E-03     19.5018E-03
            4278            4495     19.3323E-03     19.5018E-03
            4280            4496     20.6836E-03     23.1242E-03
            4239            4496     20.6836E-03     23.1242E-03
            4279            4496     20.6836E-03     23.1242E-03
            4240            4496     20.6836E-03     23.1242E-03
            4281            4497     25.9863E-03     23.8617E-03
            4240            4497     25.9863E-03     23.8617E-03
            4280            4497     25.9863E-03     23.8617E-03
            4241            4497     25.9863E-03     23.8617E-03
            4281            4498     26.2200E-03     26.1882E-03
            4242            4498     26.2200E-03     26.1882E-03
            4282            4498     26.2200E-03     26.1882E-03
            4241            4498     26.2200E-03     26.1882E-03
            4282            4499     22.3017E-03     29.1215E-03
            4243            4499     22.3017E-03     29.1215E-03
            4242            4499     22.3017E-03     29.1215E-03
            4283            4499     22.3017E-03     29.1215E-03
            4243            4500     26.1849E-03     26.1962E-03
            4283            4500     26.1849E-03     26.1962E-03
            4244            4500     26.1849E-03     26.1962E-03
            4284            4500     26.1849E-03     26.1962E-03
            4285            4501     27.3996E-03     26.6171E-03
            4284            4501     27.3996E-03     26.6171E-03
            4245            4501     27.3996E-03     26.6171E-03
            4244            4501     27.3996E-03     26.6171E-03
            4286            4502     26.3612E-03     28.4301E-03
            4285            4502     26.3612E-03     28.4301E-03
            4245            4502     26.3612E-03     28.4301E-03
            4246            4502     26.3612E-03     28.4301E-03
            4246            4503     28.4920E-03     29.1873E-03
            4247            4503     28.4920E-03     29.1873E-03
            4286            4503     28.4920E-03     29.1873E-03
            4287            4503     28.4920E-03     29.1873E-03
            4247            4504     30.2432E-03     31.2657E-03
            4248            4504     30.2432E-03     31.2657E-03
            4287            4504     30.2432E-03     31.2657E-03
            4288            4504     30.2432E-03     31.2657E-03
            4249            4505     31.8460E-03     33.5431E-03
            4288            4505     31.8460E-03     33.5431E-03
            4289            4505     31.8460E-03     33.5431E-03
            4248            4505     31.8460E-03     33.5431E-03
            4290            4506     34.5160E-03     35.6255E-03
            4250            4506     34.5160E-03     35.6255E-03
            4289            4506     34.5160E-03     35.6255E-03
            4249            4506     34.5160E-03     35.6255E-03
            4251            4507     36.9085E-03     37.4967E-03
            4250            4507     36.9085E-03     37.4967E-03
            4291            4507     36.9085E-03     37.4967E-03
            4290            4507     36.9085E-03     37.4967E-03
            4251            4508     37.9318E-03     42.1810E-03
            4252            4508     37.9318E-03     42.1810E-03
            4292            4508     37.9318E-03     42.1810E-03
            4291            4508     37.9318E-03     42.1810E-03
            4293            4509     45.6630E-03     42.3239E-03
            4292            4509     45.6630E-03     42.3239E-03
            4252            4509     45.6630E-03     42.3239E-03
            4253            4509     45.6630E-03     42.3239E-03
            4294            4510     45.4218E-03     45.2772E-03
            4254            4510     45.4218E-03     45.2772E-03
            4253            4510     45.4218E-03     45.2772E-03
            4293            4510     45.4218E-03     45.2772E-03
            4294            4511     38.1910E-03     50.2152E-03
            4254            4511     38.1910E-03     50.2152E-03
            4295            4511     38.1910E-03     50.2152E-03
            4255            4511     38.1910E-03     50.2152E-03
            4295            4512     44.9239E-03     44.8100E-03
            4255            4512     44.9239E-03     44.8100E-03
            4256            4512     44.9239E-03     44.8100E-03
            4296            4512     44.9239E-03     44.8100E-03
            4296            4513     46.6212E-03     44.6713E-03
            4257            4513     46.6212E-03     44.6713E-03
            4297            4513     46.6212E-03     44.6713E-03
            4256            4513     46.6212E-03     44.6713E-03
            4257            4514     43.3088E-03     47.1448E-03
            4297            4514     43.3088E-03     47.1448E-03
            4258            4514     43.3088E-03     47.1448E-03
            4298            4514     43.3088E-03     47.1448E-03
            4298            4515     46.0055E-03     46.8000E-03
            4259            4515     46.0055E-03     46.8000E-03
            4299            4515     46.0055E-03     46.8000E-03
            4258            4515     46.0055E-03     46.8000E-03
            4299            4516     47.2797E-03     49.4612E-03
            4259            4516     47.2797E-03     49.4612E-03
            4300            4516     47.2797E-03     49.4612E-03
            4260            4516     47.2797E-03     49.4612E-03
            4301            4517     49.6530E-03     51.5864E-03
            4300            4517     49.6530E-03     51.5864E-03
            4261            4517     49.6530E-03     51.5864E-03
            4260            4517     49.6530E-03     51.5864E-03
            4261            4518     52.4026E-03     53.1578E-03
            4301            4518     52.4026E-03     53.1578E-03
            4262            4518     52.4026E-03     53.1578E-03
            4302            4518     52.4026E-03     53.1578E-03
            4303            4519     53.0626E-03     58.8894E-03
            4263            4519     53.0626E-03     58.8894E-03
            4262            4519     53.0626E-03     58.8894E-03
            4302            4519     53.0626E-03     58.8894E-03
            4263            4520     62.9734E-03     58.5719E-03
            4303            4520     62.9734E-03     58.5719E-03
            4304            4520     62.9734E-03     58.5719E-03
            4264            4520     62.9734E-03     58.5719E-03
            4305            4521     62.4078E-03     62.1907E-03
            4265            4521     62.4078E-03     62.1907E-03
            4264            4521     62.4078E-03     62.1907E-03
            4304            4521     62.4078E-03     62.1907E-03
            4306            4522     53.4255E-03     63.0893E-03
            4266            4522     53.4255E-03     63.0893E-03
            4305            4522     53.4255E-03     63.0893E-03
            4265            4522     53.4255E-03     63.0893E-03
            4268            4523     3.37876E-03     3.94991E-03
            4307            4523     3.37876E-03     3.94991E-03
            4267            4523     3.37876E-03     3.94991E-03
            4308            4523     3.37876E-03     3.94991E-03
            4308            4524     3.79542E-03     4.28402E-03
            4268            4524     3.79542E-03     4.28402E-03
            4269            4524     3.79542E-03     4.28402E-03
            4309            4524     3.79542E-03     4.28402E-03
            4309            4525     7.09312E-03     6.08345E-03
            4269            4525     7.09312E-03     6.08345E-03
            4310            4525     7.09312E-03     6.08345E-03
            4270            4525     7.09312E-03     6.08345E-03
            4310            4526     9.20538E-03     9.47477E-03
            4270            4526     9.20538E-03     9.47477E-03
            4271            4526     9.20538E-03     9.47477E-03
            4311            4526     9.20538E-03     9.47477E-03
            4312            4527     7.86780E-03     9.36103E-03
            4272            4527     7.86780E-03     9.36103E-03
            4271            4527     7.86780E-03     9.36103E-03
            4311            4527     7.86780E-03     9.36103E-03
            4312            4528     7.75479E-03     7.28120E-03
            4272            4528     7.75479E-03     7.28120E-03
            4273            4528     7.75479E-03     7.28120E-03
            4313            4528     7.75479E-03     7.28120E-03
            4314            4529     9.06346E-03     8.96443E-03
            4273            4529     9.06346E-03     8.96443E-03
            4313            4529     9.06346E-03     8.96443E-03
            4274            4529     9.06346E-03     8.96443E-03
            4314            4530     11.0007E-03     11.1440E-03
            4315            4530     11.0007E-03     11.1440E-03
            4275            4530     11.0007E-03     11.1440E-03
            4274            4530     11.0007E-03     11.1440E-03
            4316            4531     13.3606E-03     13.4970E-03
            4315            4531     13.3606E-03     13.4970E-03
            4275            4531     13.3606E-03     13.4970E-03
            4276            4531     13.3606E-03     13.4970E-03
            4277            4532     15.6526E-03     16.0113E-03
            4276            4532     15.6526E-03     16.0113E-03
            4317            4532     15.6526E-03     16.0113E-03
            4316            4532     15.6526E-03     16.0113E-03
            4318            4533     18.1563E-03     18.5513E-03
            4317            4533     18.1563E-03     18.5513E-03
            4278            4533     18.1563E-03     18.5513E-03
            4277            4533     18.1563E-03     18.5513E-03
            4279            4534     20.8763E-03     20.7400E-03
            4278            4534     20.8763E-03     20.7400E-03
            4319            4534     20.8763E-03     20.7400E-03
            4318            4534     20.8763E-03     20.7400E-03
            4320            4535     22.6107E-03     24.5535E-03
            4280            4535     22.6107E-03     24.5535E-03
            4319            4535     22.6107E-03     24.5535E-03
            4279            4535     22.6107E-03     24.5535E-03
            4280            4536     27.9845E-03     26.2641E-03
            4281            4536     27.9845E-03     26.2641E-03
            4320            4536     27.9845E-03     26.2641E-03
            4321            4536     27.9845E-03     26.2641E-03
            4321            4537     29.8015E-03     29.5222E-03
            4282            4537     29.8015E-03     29.5222E-03
            4322            4537     29.8015E-03     29.5222E-03
            4281            4537     29.8015E-03     29.5222E-03
            4282            4538     25.0907E-03     30.1335E-03
            4323            4538     25.0907E-03     30.1335E-03
            4322            4538     25.0907E-03     30.1335E-03
            4283            4538     25.0907E-03     30.1335E-03
            4283            4539     26.2834E-03     25.3068E-03
            4323            4539     26.2834E-03     25.3068E-03
            4284            4539     26.2834E-03     25.3068E-03
            4324            4539     26.2834E-03     25.3068E-03
            4324            4540     27.7092E-03     26.6617E-03
            4325            4540     27.7092E-03     26.6617E-03
            4284            4540     27.7092E-03     26.6617E-03
            4285            4540     27.7092E-03     26.6617E-03
            4325            4541     28.0158E-03     29.3295E-03
            4286            4541     28.0158E-03     29.3295E-03
            4285            4541     28.0158E-03     29.3295E-03
            4326            4541     28.0158E-03     29.3295E-03
            4327            4542     30.7632E-03     30.9961E-03
            4286            4542     30.7632E-03     30.9961E-03
            4287            4542     30.7632E-03     30.9961E-03
            4326            4542     30.7632E-03     30.9961E-03
            4288            4543     32.9703E-03     33.5761E-03
            4328            4543     32.9703E-03     33.5761E-03
            4327            4543     32.9703E-03     33.5761E-03
            4287            4543     32.9703E-03     33.5761E-03
            4288            4544     35.1700E-03     36.0409E-03
            4289            4544     35.1700E-03     36.0409E-03
            4329            4544     35.1700E-03     36.0409E-03
            4328            4544     35.1700E-03     36.0409E-03
            4290            4545     37.7726E-03     38.5504E-03
            4329            4545     37.7726E-03     38.5504E-03
            4289            4545     37.7726E-03     38.5504E-03
            4330            4545     37.7726E-03     38.5504E-03
            4331            4546     40.6160E-03     40.5409E-03
            4291            4546     40.6160E-03     40.5409E-03
            4330            4546     40.6160E-03     40.5409E-03
            4290            4546     40.6160E-03     40.5409E-03
            4331            4547     41.8737E-03     45.1001E-03
            4292            4547     41.8737E-03     45.1001E-03
            4291            4547     41.8737E-03     45.1001E-03
            4332            4547     41.8737E-03     45.1001E-03
            4293            4548     49.0742E-03     46.3111E-03
            4333            4548     49.0742E-03     46.3111E-03
            4292            4548     49.0742E-03     46.3111E-03
            4332            4548     49.0742E-03     46.3111E-03
            4333            4549     50.8613E-03     50.1127E-03
            4293            4549     50.8613E-03     50.1127E-03
            4334            4549     50.8613E-03     50.1127E-03
            4294            4549     50.8613E-03     50.1127E-03
            4334            4550     43.6075E-03     52.5134E-03
            4335            4550     43.6075E-03     52.5134E-03
            4294            4550     43.6075E-03     52.5134E-03
            4295            4550     43.6075E-03     52.5134E-03
            4295            4551     46.9343E-03     45.5031E-03
            4335            4551     46.9343E-03     45.5031E-03
            4336            4551     46.9343E-03     45.5031E-03
            4296            4551     46.9343E-03     45.5031E-03
            4337            4552     48.4006E-03     46.3642E-03
            4297            4552     48.4006E-03     46.3642E-03
            4296            4552     48.4006E-03     46.3642E-03
            4336            4552     48.4006E-03     46.3642E-03
            4297            4553     46.9581E-03     49.5595E-03
            4337            4553     46.9581E-03     49.5595E-03
            4338            4553     46.9581E-03     49.5595E-03
            4298            4553     46.9581E-03     49.5595E-03
            4338            4554     50.2513E-03     50.4634E-03
            4298            4554     50.2513E-03     50.4634E-03
            4339            4554     50.2513E-03     50.4634E-03
            4299            4554     50.2513E-03     50.4634E-03
            4300            4555     52.1850E-03     53.4395E-03
            4339            4555     52.1850E-03     53.4395E-03
            4340            4555     52.1850E-03     53.4395E-03
            4299            4555     52.1850E-03     53.4395E-03
            4301            4556     54.7100E-03     56.0003E-03
            4340            4556     54.7100E-03     56.0003E-03
            4300            4556     54.7100E-03     56.0003E-03
            4341            4556     54.7100E-03     56.0003E-03
            4302            4557     57.8488E-03     57.7737E-03
            4342            4557     57.8488E-03     57.7737E-03
            4301            4557     57.8488E-03     57.7737E-03
            4341            4557     57.8488E-03     57.7737E-03
            4343            4558     58.7343E-03     63.1124E-03
            4342            4558     58.7343E-03     63.1124E-03
            4303            4558     58.7343E-03     63.1124E-03
            4302            4558     58.7343E-03     63.1124E-03
            4304            4559     67.6523E-03     63.9665E-03
            4303            4559     67.6523E-03     63.9665E-03
            4344            4559     67.6523E-03     63.9665E-03
            4343            4559     67.6523E-03     63.9665E-03
            4344            4560     69.5484E-03     68.3877E-03
            4304            4560     69.5484E-03     68.3877E-03
            4345            4560     69.5484E-03     68.3877E-03
            4305            4560     69.5484E-03     68.3877E-03
            4345            4561     60.4916E-03     68.2697E-03
            4305            4561     60.4916E-03     68.2697E-03
            4306            4561     60.4916E-03     68.2697E-03
            4346            4561     60.4916E-03     68.2697E-03
            5283            5395     21.2100E-03     21.5095E-03
            5290            5395     21.2100E-03     21.5095E-03
            5289            5395     21.2100E-03     21.5095E-03
            5284            5395     21.2100E-03     21.5095E-03
            5290            5396     21.9850E-03     21.1970E-03
            5284            5396     21.9850E-03     21.1970E-03
            5291            5396     21.9850E-03     21.1970E-03
            5285            5396     21.9850E-03     21.1970E-03
            5292            5397     21.1211E-03     22.6703E-03
            5291            5397     21.1211E-03     22.6703E-03
            5286            5397     21.1211E-03     22.6703E-03
            5285            5397     21.1211E-03     22.6703E-03
            5287            5398     22.9384E-03     22.0646E-03
            5292            5398     22.9384E-03     22.0646E-03
            5286            5398     22.9384E-03     22.0646E-03
            5293            5398     22.9384E-03     22.0646E-03
            5288            5399     22.3119E-03     21.1736E-03
            5287            5399     22.3119E-03     21.1736E-03
            5293            5399     22.3119E-03     21.1736E-03
            5294            5399     22.3119E-03     21.1736E-03
            5295            5400     32.2568E-03     31.2539E-03
            5290            5400     32.2568E-03     31.2539E-03
            5296            5400     32.2568E-03     31.2539E-03
            5289            5400     32.2568E-03     31.2539E-03
            5296            5401     34.3488E-03     32.5392E-03
            5297            5401     34.3488E-03     32.5392E-03
            5291            5401     34.3488E-03     32.5392E-03
            5290            5401     34.3488E-03     32.5392E-03
            5297            5402     32.5452E-03     36.0348E-03
            5292            5402     32.5452E-03     36.0348E-03
            5291            5402     32.5452E-03     36.0348E-03
            5298            5402     32.5452E-03     36.0348E-03
            5298            5403     36.2570E-03     34.1666E-03
            5293            5403     36.2570E-03     34.1666E-03
            5292            5403     36.2570E-03     34.1666E-03
            5299            5403     36.2570E-03     34.1666E-03
            5293            5404     34.6096E-03     33.5291E-03
            5300            5404     34.6096E-03     33.5291E-03
            5294            5404     34.6096E-03     33.5291E-03
            5299            5404     34.6096E-03     33.5291E-03
            5301            5405     43.5942E-03     41.8960E-03
            5296            5405     43.5942E-03     41.8960E-03
            5295            5405     43.5942E-03     41.8960E-03
            5302            5405     43.5942E-03     41.8960E-03
            5296            5406     47.1151E-03     44.0493E-03
            5297            5406     47.1151E-03     44.0493E-03
            5302            5406     47.1151E-03     44.0493E-03
            5303            5406     47.1151E-03     44.0493E-03
            5298            5407     44.5765E-03     49.0819E-03
            5304            5407     44.5765E-03     49.0819E-03
            5303            5407     44.5765E-03     49.0819E-03
            5297            5407     44.5765E-03     49.0819E-03
            5299            5408     50.4297E-03     46.1013E-03
            5298            5408     50.4297E-03     46.1013E-03
            5305            5408     50.4297E-03     46.1013E-03
            5304            5408     50.4297E-03     46.1013E-03
            5300            5409     47.7616E-03     45.9696E-03
            5305            5409     47.7616E-03     45.9696E-03
            5306            5409     47.7616E-03     45.9696E-03
            5299            5409     47.7616E-03     45.9696E-03
            5301            5410     53.8986E-03     52.1837E-03
            5302            5410     53.8986E-03     52.1837E-03
            5308            5410     53.8986E-03     52.1837E-03
            5307            5410     53.8986E-03     52.1837E-03
            5302            5411     57.8873E-03     53.1945E-03
            5308            5411     57.8873E-03     53.1945E-03
            5303            5411     57.8873E-03     53.1945E-03
            5309            5411     57.8873E-03     53.1945E-03
            5303            5412     53.6416E-03     59.3793E-03
            5310            5412     53.6416E-03     59.3793E-03
            5304            5412     53.6416E-03     59.3793E-03
            5309            5412     53.6416E-03     59.3793E-03
            5304            5413     62.1164E-03     55.1452E-03
            5311            5413     62.1164E-03     55.1452E-03
            5310            5413     62.1164E-03     55.1452E-03
            5305            5413     62.1164E-03     55.1452E-03
            5311            5414     59.3362E-03     57.3138E-03
            5306            5414     59.3362E-03     57.3138E-03
            5305            5414     59.3362E-03     57.3138E-03
            5312            5414     59.3362E-03     57.3138E-03
            5313            5415     61.9332E-03     60.8266E-03
            5314            5415     61.9332E-03     60.8266E-03
            5308            5415     61.9332E-03     60.8266E-03
            5307            5415     61.9332E-03     60.8266E-03
            5308            5416     65.0894E-03     60.4223E-03
            5315            5416     65.0894E-03     60.4223E-03
            5314            5416     65.0894E-03     60.4223E-03
            5309            5416     65.0894E-03     60.4223E-03
            5315            5417     58.9207E-03     67.5361E-03
            5309            5417     58.9207E-03     67.5361E-03
            5310            5417     58.9207E-03     67.5361E-03
            5316            5417     58.9207E-03     67.5361E-03
            5317            5418     70.2986E-03     63.5307E-03
            5316            5418     70.2986E-03     63.5307E-03
            5311            5418     70.2986E-03     63.5307E-03
            5310            5418     70.2986E-03     63.5307E-03
            5312            5419     68.4729E-03     67.7011E-03
            5317            5419     68.4729E-03     67.7011E-03
            5311            5419     68.4729E-03     67.7011E-03
            5318            5419     68.4729E-03     67.7011E-03
            5314            5420     65.7074E-03     63.9613E-03
            5320            5420     65.7074E-03     63.9613E-03
            5313            5420     65.7074E-03     63.9613E-03
            5319            5420     65.7074E-03     63.9613E-03
            5314            5421     68.5161E-03     64.1209E-03
            5315            5421     68.5161E-03     64.1209E-03
            5320            5421     68.5161E-03     64.1209E-03
            5321            5421     68.5161E-03     64.1209E-03
            5316            5422     64.3058E-03     71.4034E-03
            5321            5422     64.3058E-03     71.4034E-03
            5315            5422     64.3058E-03     71.4034E-03
            5322            5422     64.3058E-03     71.4034E-03
            5323            5423     75.4125E-03     69.7569E-03
            5316            5423     75.4125E-03     69.7569E-03
            5322            5423     75.4125E-03     69.7569E-03
            5317            5423     75.4125E-03     69.7569E-03
            5323            5424     76.5953E-03     75.4251E-03
            5317            5424     76.5953E-03     75.4251E-03
            5318            5424     76.5953E-03     75.4251E-03
            5324            5424     76.5953E-03     75.4251E-03
            6568            6525     11.5674E-15     11.2905E-15
            6574            6525     11.5674E-15     11.2905E-15
            6573            6525     11.5674E-15     11.2905E-15
            6567            6525     11.5674E-15     11.2905E-15
            6569            6526     10.7462E-15     11.8278E-15
            6574            6526     10.7462E-15     11.8278E-15
            6575            6526     10.7462E-15     11.8278E-15
            6568            6526     10.7462E-15     11.8278E-15
            6576            6527     13.1718E-15     16.8210E-15
            6575            6527     13.1718E-15     16.8210E-15
            6570            6527     13.1718E-15     16.8210E-15
            6569            6527     13.1718E-15     16.8210E-15
            6571            6528     12.7919E-15     15.0759E-15
            6576            6528     12.7919E-15     15.0759E-15
            6577            6528     12.7919E-15     15.0759E-15
            6570            6528     12.7919E-15     15.0759E-15
            6577            6529     15.8506E-15     14.2900E-15
            6578            6529     15.8506E-15     14.2900E-15
            6572            6529     15.8506E-15     14.2900E-15
            6571            6529     15.8506E-15     14.2900E-15
            6574            6530     13.3593E-15     13.4214E-15
            6579            6530     13.3593E-15     13.4214E-15
            6580            6530     13.3593E-15     13.4214E-15
            6573            6530     13.3593E-15     13.4214E-15
            6574            6531     12.7403E-15     12.5294E-15
            6581            6531     12.7403E-15     12.5294E-15
            6575            6531     12.7403E-15     12.5294E-15
            6580            6531     12.7403E-15     12.5294E-15
            6576            6532     16.8959E-15     18.4890E-15
            6575            6532     16.8959E-15     18.4890E-15
            6582            6532     16.8959E-15     18.4890E-15
            6581            6532     16.8959E-15     18.4890E-15
            6576            6533     13.5158E-15     15.4780E-15
            6577            6533     13.5158E-15     15.4780E-15
            6582            6533     13.5158E-15     15.4780E-15
            6583            6533     13.5158E-15     15.4780E-15
            6578            6534     9.20470E-15     9.96681E-15
            6577            6534     9.20470E-15     9.96681E-15
            6584            6534     9.20470E-15     9.96681E-15
            6583            6534     9.20470E-15     9.96681E-15
            6585            6535     11.4731E-15     11.5853E-15
            6580            6535     11.4731E-15     11.5853E-15
            6586            6535     11.4731E-15     11.5853E-15
            6579            6535     11.4731E-15     11.5853E-15
            6586            6536     13.5072E-15     14.8785E-15
            6580            6536     13.5072E-15     14.8785E-15
            6581            6536     13.5072E-15     14.8785E-15
            6587            6536     13.5072E-15     14.8785E-15
            6588            6537     24.7767E-15     27.1263E-15
            6581            6537     24.7767E-15     27.1263E-15
            6587            6537     24.7767E-15     27.1263E-15
            6582            6537     24.7767E-15     27.1263E-15
            6583            6538     23.7864E-15     23.1908E-15
            6582            6538     23.7864E-15     23.1908E-15
            6588            6538     23.7864E-15     23.1908E-15
            6589            6538     23.7864E-15     23.1908E-15
            6589            6539     12.6166E-15     13.5591E-15
            6590            6539     12.6166E-15     13.5591E-15
            6583            6539     12.6166E-15     13.5591E-15
            6584            6539     12.6166E-15     13.5591E-15
            6591            6540     15.5464E-15     17.9959E-15
            6586            6540     15.5464E-15     17.9959E-15
            6592            6540     15.5464E-15     17.9959E-15
            6585            6540     15.5464E-15     17.9959E-15
            6592            6541     16.4400E-15     15.6231E-15
            6587            6541     16.4400E-15     15.6231E-15
            6586            6541     16.4400E-15     15.6231E-15
            6593            6541     16.4400E-15     15.6231E-15
            6594            6542     20.8909E-15     19.5063E-15
            6588            6542     20.8909E-15     19.5063E-15
            6593            6542     20.8909E-15     19.5063E-15
            6587            6542     20.8909E-15     19.5063E-15
            6589            6543     25.0220E-15     26.8854E-15
            6594            6543     25.0220E-15     26.8854E-15
            6595            6543     25.0220E-15     26.8854E-15
            6588            6543     25.0220E-15     26.8854E-15
            6595            6544     19.7473E-15     22.3676E-15
            6596            6544     19.7473E-15     22.3676E-15
            6589            6544     19.7473E-15     22.3676E-15
            6590            6544     19.7473E-15     22.3676E-15
            6598            6545     32.5704E-15     32.0430E-15
            6597            6545     32.5704E-15     32.0430E-15
            6592            6545     32.5704E-15     32.0430E-15
            6591            6545     32.5704E-15     32.0430E-15
            6593            6546     31.5120E-15     26.5940E-15
            6599            6546     31.5120E-15     26.5940E-15
            6592            6546     31.5120E-15     26.5940E-15
            6598            6546     31.5120E-15     26.5940E-15
            6599            6547     24.9715E-15     21.5494E-15
            6593            6547     24.9715E-15     21.5494E-15
            6594            6547     24.9715E-15     21.5494E-15
            6600            6547     24.9715E-15     21.5494E-15
            6600            6548     20.1945E-15     22.2365E-15
            6594            6548     20.1945E-15     22.2365E-15
            6601            6548     20.1945E-15     22.2365E-15
            6595            6548     20.1945E-15     22.2365E-15
            6595            6549     16.9257E-15     18.3742E-15
            6601            6549     16.9257E-15     18.3742E-15
            6596            6549     16.9257E-15     18.3742E-15
            6602            6549     16.9257E-15     18.3742E-15
            6597            6550     37.4068E-15     34.9237E-15
            6603            6550     37.4068E-15     34.9237E-15
            6598            6550     37.4068E-15     34.9237E-15
            6604            6550     37.4068E-15     34.9237E-15
            6605            6551     33.3182E-15     29.8389E-15
            6599            6551     33.3182E-15     29.8389E-15
            6598            6551     33.3182E-15     29.8389E-15
            6604            6551     33.3182E-15     29.8389E-15
            6600            6552     26.0509E-15     26.3829E-15
            6605            6552     26.0509E-15     26.3829E-15
            6599            6552     26.0509E-15     26.3829E-15
            6606            6552     26.0509E-15     26.3829E-15
            6600            6553     23.3026E-15     23.9646E-15
            6601            6553     23.3026E-15     23.9646E-15
            6607            6553     23.3026E-15     23.9646E-15
            6606            6553     23.3026E-15     23.9646E-15
            6607            6554     27.2600E-15     25.2284E-15
            6602            6554     27.2600E-15     25.2284E-15
            6601            6554     27.2600E-15     25.2284E-15
            6608            6554     27.2600E-15     25.2284E-15


  Minimum                            8.56848E-15     8.41526E-15
      At Element                            6590            6584
            Node                             827             826

  Maximum                            80.6470E-03     86.7927E-03
      At Element                            5324            5324
            Node                             629              22

           Total                         158.838         160.999


Field Output reported at element nodes for region: A320-1.Region_4
   Computation algorithm: EXTRAPOLATE_COMPUTE_AVERAGE
   Averaged at nodes
   Averaging regions: ODB_REGIONS

   Element Label      Node Label         S.Mises         S.Mises
                                          @Loc 1          @Loc 2
-----------------------------------------------------------------
            5049              13     1.04712E-03     1.97859E-03
            5739              13     1.04712E-03     1.97859E-03
            5829              14     34.0619E-15     34.7025E-15
            2510              16     1.63225E-03     1.97444E-03
             785              16     1.63225E-03     1.97444E-03
            2493              17     1.23725E-03     1.97210E-03
             802              17     1.23725E-03     1.97210E-03
             856              18     26.3767E-15     29.2801E-15
             839              19     14.7943E-15     49.9344E-15
            3392              20     2.87765E-03     3.89377E-03
            2402              20     2.87765E-03     3.89377E-03
            3375              21     64.9426E-03     67.1672E-03
            2385              21     64.9426E-03     67.1672E-03
            5175              22     73.1378E-03     77.7027E-03
            2475              22     73.1378E-03     77.7027E-03
            5192              23     2.14728E-03     3.33133E-03
            2492              23     2.14728E-03     3.33133E-03
            4364              24     4.99412E-03     6.26705E-03
            5282              24     4.99412E-03     6.26705E-03
            5265              25     60.3206E-03     60.8338E-03
            4347              25     60.3206E-03     60.8338E-03
            5066              26     1.81403E-03     2.10098E-03
            5756              26     1.81403E-03     2.10098E-03
            5846              28     10.8320E-15     14.3339E-15
            5739             194     16.2376E-15     16.0485E-15
            5757             194     16.2376E-15     16.0485E-15
            5775             195     22.8145E-15     21.6203E-15
            5757             195     22.8145E-15     21.6203E-15
            5793             196     21.0296E-15     20.6967E-15
            5775             196     21.0296E-15     20.6967E-15
            5811             197     14.9350E-15     14.2201E-15
            5793             197     14.9350E-15     14.2201E-15
            5829             198     24.3555E-15     23.9306E-15
            5811             198     24.3555E-15     23.9306E-15
            2510             289     1.73490E-03     1.93351E-03
             786             289     1.73490E-03     1.93351E-03
             785             289     1.73490E-03     1.93351E-03
            2509             289     1.73490E-03     1.93351E-03
             786             290     1.86309E-03     1.85578E-03
            2508             290     1.86309E-03     1.85578E-03
             787             290     1.86309E-03     1.85578E-03
            2509             290     1.86309E-03     1.85578E-03
            2508             291     1.91714E-03     1.83746E-03
            2507             291     1.91714E-03     1.83746E-03
             788             291     1.91714E-03     1.83746E-03
             787             291     1.91714E-03     1.83746E-03
             788             292     1.96734E-03     1.85615E-03
             789             292     1.96734E-03     1.85615E-03
            2507             292     1.96734E-03     1.85615E-03
            2506             292     1.96734E-03     1.85615E-03
            2505             293     2.01701E-03     1.87440E-03
             790             293     2.01701E-03     1.87440E-03
             789             293     2.01701E-03     1.87440E-03
            2506             293     2.01701E-03     1.87440E-03
             791             294     2.07169E-03     1.90430E-03
            2505             294     2.07169E-03     1.90430E-03
             790             294     2.07169E-03     1.90430E-03
            2504             294     2.07169E-03     1.90430E-03
             792             295     2.12815E-03     1.93762E-03
             791             295     2.12815E-03     1.93762E-03
            2503             295     2.12815E-03     1.93762E-03
            2504             295     2.12815E-03     1.93762E-03
            2502             296     2.18687E-03     1.97330E-03
            2503             296     2.18687E-03     1.97330E-03
             792             296     2.18687E-03     1.97330E-03
             793             296     2.18687E-03     1.97330E-03
            2501             297     2.24437E-03     2.01087E-03
             793             297     2.24437E-03     2.01087E-03
             794             297     2.24437E-03     2.01087E-03
            2502             297     2.24437E-03     2.01087E-03
             795             298     2.29636E-03     2.04086E-03
            2500             298     2.29636E-03     2.04086E-03
             794             298     2.29636E-03     2.04086E-03
            2501             298     2.29636E-03     2.04086E-03
            2499             299     2.33461E-03     2.05949E-03
             795             299     2.33461E-03     2.05949E-03
             796             299     2.33461E-03     2.05949E-03
            2500             299     2.33461E-03     2.05949E-03
             796             300     2.34750E-03     2.04972E-03
             797             300     2.34750E-03     2.04972E-03
            2499             300     2.34750E-03     2.04972E-03
            2498             300     2.34750E-03     2.04972E-03
             797             301     2.30269E-03     1.98103E-03
             798             301     2.30269E-03     1.98103E-03
            2497             301     2.30269E-03     1.98103E-03
            2498             301     2.30269E-03     1.98103E-03
             798             302     2.18791E-03     1.83066E-03
            2497             302     2.18791E-03     1.83066E-03
            2496             302     2.18791E-03     1.83066E-03
             799             302     2.18791E-03     1.83066E-03
            2496             303     1.88827E-03     1.48435E-03
            2495             303     1.88827E-03     1.48435E-03
             800             303     1.88827E-03     1.48435E-03
             799             303     1.88827E-03     1.48435E-03
            2494             304     1.41400E-03     937.063E-06
             800             304     1.41400E-03     937.063E-06
             801             304     1.41400E-03     937.063E-06
            2495             304     1.41400E-03     937.063E-06
            2493             305     1.20237E-03     1.30238E-03
             801             305     1.20237E-03     1.30238E-03
             802             305     1.20237E-03     1.30238E-03
            2494             305     1.20237E-03     1.30238E-03
             820             306     31.5402E-15     31.3025E-15
             802             306     31.5402E-15     31.3025E-15
             838             307     34.8770E-15     33.8891E-15
             820             307     34.8770E-15     33.8891E-15
             838             308     22.1461E-15     23.0104E-15
             856             308     22.1461E-15     23.0104E-15
             856             309     14.1159E-15     16.2958E-15
             855             309     14.1159E-15     16.2958E-15
             855             310     5.37380E-15     5.97962E-15
             854             310     5.37380E-15     5.97962E-15
             853             311     11.4880E-15     9.36738E-15
             854             311     11.4880E-15     9.36738E-15
             852             312     12.5397E-15     10.9955E-15
             853             312     12.5397E-15     10.9955E-15
             852             313     14.8976E-15     14.4990E-15
             851             313     14.8976E-15     14.4990E-15
             850             314     13.6599E-15     15.7177E-15
             851             314     13.6599E-15     15.7177E-15
             849             315     11.6182E-15     18.0044E-15
             850             315     11.6182E-15     18.0044E-15
             849             316     15.7422E-15     22.1805E-15
             848             316     15.7422E-15     22.1805E-15
             848             317     12.8620E-15     16.6233E-15
             847             317     12.8620E-15     16.6233E-15
             846             318     8.10575E-15     11.1917E-15
             847             318     8.10575E-15     11.1917E-15
             845             319     19.4825E-15     13.2979E-15
             846             319     19.4825E-15     13.2979E-15
             845             320     37.3021E-15     21.9892E-15
             844             320     37.3021E-15     21.9892E-15
             843             321     28.8942E-15     18.8595E-15
             844             321     28.8942E-15     18.8595E-15
             843             322     12.6382E-15     10.2391E-15
             842             322     12.6382E-15     10.2391E-15
             842             323     15.0803E-15     11.6947E-15
             841             323     15.0803E-15     11.6947E-15
             840             324     28.1255E-15     11.3381E-15
             841             324     28.1255E-15     11.3381E-15
             839             325     25.6340E-15     30.5967E-15
             840             325     25.6340E-15     30.5967E-15
             821             326     18.3307E-15     37.2778E-15
             839             326     18.3307E-15     37.2778E-15
             803             327     25.9030E-15     23.0335E-15
             821             327     25.9030E-15     23.0335E-15
             803             328     20.2713E-15     18.8570E-15
             785             328     20.2713E-15     18.8570E-15
            3374             363     3.56043E-03     5.08823E-03
            3392             363     3.56043E-03     5.08823E-03
            3356             364     2.07837E-03     3.52979E-03
            3374             364     2.07837E-03     3.52979E-03
            3356             365     1.49297E-03     2.54581E-03
            3338             365     1.49297E-03     2.54581E-03
            3320             366     2.19564E-03     3.17813E-03
            3338             366     2.19564E-03     3.17813E-03
            3320             367     3.83810E-03     4.17333E-03
            3302             367     3.83810E-03     4.17333E-03
            3284             368     5.45294E-03     5.84945E-03
            3302             368     5.45294E-03     5.84945E-03
            3266             369     7.10712E-03     7.33584E-03
            3284             369     7.10712E-03     7.33584E-03
            3266             370     9.02184E-03     9.53897E-03
            3248             370     9.02184E-03     9.53897E-03
            3230             371     10.2006E-03     12.1503E-03
            3248             371     10.2006E-03     12.1503E-03
            3212             372     6.66820E-03     8.24453E-03
            3230             372     6.66820E-03     8.24453E-03
            3194             373     2.19516E-03     3.34008E-03
            3212             373     2.19516E-03     3.34008E-03
            3194             374     1.23262E-03     2.42288E-03
            3176             374     1.23262E-03     2.42288E-03
            3176             375     1.22185E-03     1.97465E-03
            3158             375     1.22185E-03     1.97465E-03
            3140             376     2.14005E-03     2.57198E-03
            3158             376     2.14005E-03     2.57198E-03
            3140             377     3.28977E-03     3.52931E-03
            3122             377     3.28977E-03     3.52931E-03
            3122             378     4.48565E-03     4.51436E-03
            3104             378     4.48565E-03     4.51436E-03
            3086             379     5.63940E-03     5.84112E-03
            3104             379     5.63940E-03     5.84112E-03
            3068             380     6.83428E-03     6.91556E-03
            3086             380     6.83428E-03     6.91556E-03
            3068             381     8.23933E-03     8.60539E-03
            3050             381     8.23933E-03     8.60539E-03
            3032             382     9.02256E-03     10.6585E-03
            3050             382     9.02256E-03     10.6585E-03
            3014             383     5.06422E-03     6.35535E-03
            3032             383     5.06422E-03     6.35535E-03
            3014             384     720.025E-06     1.47726E-03
            2996             384     720.025E-06     1.47726E-03
            2978             385     889.860E-06     1.51574E-03
            2996             385     889.860E-06     1.51574E-03
            2978             386     1.75773E-03     1.89157E-03
            2960             386     1.75773E-03     1.89157E-03
            2960             387     2.61425E-03     2.58043E-03
            2942             387     2.61425E-03     2.58043E-03
            2924             388     3.42341E-03     3.38803E-03
            2942             388     3.42341E-03     3.38803E-03
            2906             389     4.25082E-03     4.11189E-03
            2924             389     4.25082E-03     4.11189E-03
            2906             390     5.03815E-03     5.05287E-03
            2888             390     5.03815E-03     5.05287E-03
            2870             391     5.83908E-03     5.79559E-03
            2888             391     5.83908E-03     5.79559E-03
            2870             392     6.80123E-03     6.98600E-03
            2852             392     6.80123E-03     6.98600E-03
            2834             393     7.24474E-03     8.48280E-03
            2852             393     7.24474E-03     8.48280E-03
            2816             394     4.14497E-03     5.20002E-03
            2834             394     4.14497E-03     5.20002E-03
            2816             395     1.47394E-03     1.65881E-03
            2798             395     1.47394E-03     1.65881E-03
            2780             396     2.14439E-03     2.00737E-03
            2798             396     2.14439E-03     2.00737E-03
            2762             397     2.64466E-03     2.47128E-03
            2780             397     2.64466E-03     2.47128E-03
            2744             398     3.14516E-03     2.91119E-03
            2762             398     3.14516E-03     2.91119E-03
            2726             399     3.58488E-03     3.37423E-03
            2744             399     3.58488E-03     3.37423E-03
            2726             400     4.02902E-03     3.77909E-03
            2708             400     4.02902E-03     3.77909E-03
            2690             401     4.44469E-03     4.30533E-03
            2708             401     4.44469E-03     4.30533E-03
            2672             402     4.84859E-03     4.69984E-03
            2690             402     4.84859E-03     4.69984E-03
            2654             403     5.36621E-03     5.38265E-03
            2672             403     5.36621E-03     5.38265E-03
            2636             404     5.46848E-03     6.31749E-03
            2654             404     5.46848E-03     6.31749E-03
            2636             405     3.85597E-03     4.74092E-03
            2618             405     3.85597E-03     4.74092E-03
            2618             406     2.70519E-03     2.93787E-03
            2600             406     2.70519E-03     2.93787E-03
            2582             407     3.12728E-03     2.80756E-03
            2600             407     3.12728E-03     2.80756E-03
            2582             408     3.27833E-03     2.93602E-03
            2564             408     3.27833E-03     2.93602E-03
            2546             409     3.43478E-03     3.08231E-03
            2564             409     3.43478E-03     3.08231E-03
            2528             410     3.60994E-03     3.34355E-03
            2546             410     3.60994E-03     3.34355E-03
            2510             411     3.46700E-03     3.84254E-03
            2528             411     3.46700E-03     3.84254E-03
            3357             440     67.9646E-03     68.2789E-03
            3375             440     67.9646E-03     68.2789E-03
            3339             441     66.6551E-03     66.6269E-03
            3357             441     66.6551E-03     66.6269E-03
            3321             442     64.7360E-03     65.9255E-03
            3339             442     64.7360E-03     65.9255E-03
            3303             443     63.4039E-03     63.7666E-03
            3321             443     63.4039E-03     63.7666E-03
            3285             444     61.4673E-03     62.3329E-03
            3303             444     61.4673E-03     62.3329E-03
            3267             445     59.8878E-03     60.2109E-03
            3285             445     59.8878E-03     60.2109E-03
            3249             446     57.7099E-03     58.4517E-03
            3267             446     57.7099E-03     58.4517E-03
            3231             447     55.4122E-03     55.4368E-03
            3249             447     55.4122E-03     55.4368E-03
            3231             448     52.6112E-03     51.8541E-03
            3213             448     52.6112E-03     51.8541E-03
            3195             449     52.6614E-03     54.1699E-03
            3213             449     52.6614E-03     54.1699E-03
            3195             450     54.8031E-03     55.1618E-03
            3177             450     54.8031E-03     55.1618E-03
            3159             451     53.3603E-03     53.3474E-03
            3177             451     53.3603E-03     53.3474E-03
            3141             452     51.4506E-03     52.3843E-03
            3159             452     51.4506E-03     52.3843E-03
            3123             453     50.0069E-03     50.3515E-03
            3141             453     50.0069E-03     50.3515E-03
            3105             454     48.2563E-03     48.8436E-03
            3123             454     48.2563E-03     48.8436E-03
            3087             455     46.6463E-03     47.0442E-03
            3105             455     46.6463E-03     47.0442E-03
            3087             456     44.8089E-03     45.1472E-03
            3069             456     44.8089E-03     45.1472E-03
            3069             457     42.8681E-03     43.2506E-03
            3051             457     42.8681E-03     43.2506E-03
            3051             458     40.5641E-03     40.6124E-03
            3033             458     40.5641E-03     40.6124E-03
            3015             459     37.9799E-03     37.2417E-03
            3033             459     37.9799E-03     37.2417E-03
            2997             460     38.2654E-03     39.3784E-03
            3015             460     38.2654E-03     39.3784E-03
            2979             461     40.1074E-03     40.5287E-03
            2997             461     40.1074E-03     40.5287E-03
            2961             462     38.5134E-03     38.4788E-03
            2979             462     38.5134E-03     38.4788E-03
            2943             463     36.5519E-03     37.2637E-03
            2961             463     36.5519E-03     37.2637E-03
            2943             464     35.0397E-03     35.2659E-03
            2925             464     35.0397E-03     35.2659E-03
            2925             465     33.2841E-03     33.7051E-03
            2907             465     33.2841E-03     33.7051E-03
            2889             466     31.6822E-03     31.9139E-03
            2907             466     31.6822E-03     31.9139E-03
            2889             467     29.8675E-03     30.0855E-03
            2871             467     29.8675E-03     30.0855E-03
            2853             468     28.0116E-03     28.1702E-03
            2871             468     28.0116E-03     28.1702E-03
            2853             469     25.7799E-03     25.7984E-03
            2835             469     25.7799E-03     25.7984E-03
            2817             470     23.3516E-03     22.6862E-03
            2835             470     23.3516E-03     22.6862E-03
            2817             471     23.8837E-03     24.6203E-03
            2799             471     23.8837E-03     24.6203E-03
            2781             472     25.4663E-03     25.9495E-03
            2799             472     25.4663E-03     25.9495E-03
            2763             473     23.7485E-03     23.6818E-03
            2781             473     23.7485E-03     23.6818E-03
            2745             474     21.7555E-03     22.2359E-03
            2763             474     21.7555E-03     22.2359E-03
            2745             475     20.1972E-03     20.2969E-03
            2727             475     20.1972E-03     20.2969E-03
            2709             476     18.4622E-03     18.7076E-03
            2727             476     18.4622E-03     18.7076E-03
            2709             477     16.8972E-03     16.9543E-03
            2691             477     16.8972E-03     16.9543E-03
            2691             478     15.1447E-03     15.2286E-03
            2673             478     15.1447E-03     15.2286E-03
            2655             479     13.4176E-03     13.3386E-03
            2673             479     13.4176E-03     13.3386E-03
            2637             480     11.3425E-03     11.2842E-03
            2655             480     11.3425E-03     11.2842E-03
            2619             481     9.09650E-03     8.59403E-03
            2637             481     9.09650E-03     8.59403E-03
            2601             482     9.44381E-03     9.88163E-03
            2619             482     9.44381E-03     9.88163E-03
            2601             483     10.2927E-03     10.8117E-03
            2583             483     10.2927E-03     10.8117E-03
            2583             484     8.42186E-03     8.24265E-03
            2565             484     8.42186E-03     8.24265E-03
            2565             485     6.35840E-03     6.53168E-03
            2547             485     6.35840E-03     6.53168E-03
            2547             486     4.80784E-03     4.58918E-03
            2529             486     4.80784E-03     4.58918E-03
            2511             487     3.39985E-03     3.15208E-03
            2529             487     3.39985E-03     3.15208E-03
            2493             488     2.64065E-03     3.26142E-03
            2511             488     2.64065E-03     3.26142E-03
            2403             520     63.2594E-03     64.2782E-03
            2385             520     63.2594E-03     64.2782E-03
            2421             521     66.4208E-03     65.7021E-03
            2403             521     66.4208E-03     65.7021E-03
            2421             522     68.9407E-03     69.8171E-03
            2439             522     68.9407E-03     69.8171E-03
            2457             523     71.5843E-03     71.9764E-03
            2439             523     71.5843E-03     71.9764E-03
            2457             524     73.3447E-03     73.8632E-03
            2475             524     73.3447E-03     73.8632E-03
            3375             531     61.3835E-03     63.0908E-03
            2386             531     61.3835E-03     63.0908E-03
            2385             531     61.3835E-03     63.0908E-03
            3376             531     61.3835E-03     63.0908E-03
            3376             532     55.7812E-03     56.7560E-03
            2387             532     55.7812E-03     56.7560E-03
            2386             532     55.7812E-03     56.7560E-03
            3377             532     55.7812E-03     56.7560E-03
            2388             533     51.6511E-03     52.5201E-03
            3377             533     51.6511E-03     52.5201E-03
            2387             533     51.6511E-03     52.5201E-03
            3378             533     51.6511E-03     52.5201E-03
            2388             534     47.7936E-03     48.7306E-03
            3378             534     47.7936E-03     48.7306E-03
            2389             534     47.7936E-03     48.7306E-03
            3379             534     47.7936E-03     48.7306E-03
            2389             535     44.2047E-03     45.1964E-03
            2390             535     44.2047E-03     45.1964E-03
            3379             535     44.2047E-03     45.1964E-03
            3380             535     44.2047E-03     45.1964E-03
            2391             536     40.6883E-03     41.7749E-03
            2390             536     40.6883E-03     41.7749E-03
            3381             536     40.6883E-03     41.7749E-03
            3380             536     40.6883E-03     41.7749E-03
            3382             537     37.2582E-03     38.3996E-03
            2391             537     37.2582E-03     38.3996E-03
            2392             537     37.2582E-03     38.3996E-03
            3381             537     37.2582E-03     38.3996E-03
            3383             538     33.8435E-03     35.0436E-03
            2393             538     33.8435E-03     35.0436E-03
            2392             538     33.8435E-03     35.0436E-03
            3382             538     33.8435E-03     35.0436E-03
            2394             539     30.4564E-03     31.6865E-03
            2393             539     30.4564E-03     31.6865E-03
            3383             539     30.4564E-03     31.6865E-03
            3384             539     30.4564E-03     31.6865E-03
            3384             540     27.0698E-03     28.3242E-03
            2394             540     27.0698E-03     28.3242E-03
            3385             540     27.0698E-03     28.3242E-03
            2395             540     27.0698E-03     28.3242E-03
            3385             541     23.6940E-03     24.9525E-03
            3386             541     23.6940E-03     24.9525E-03
            2396             541     23.6940E-03     24.9525E-03
            2395             541     23.6940E-03     24.9525E-03
            3387             542     20.3241E-03     21.5735E-03
            2396             542     20.3241E-03     21.5735E-03
            3386             542     20.3241E-03     21.5735E-03
            2397             542     20.3241E-03     21.5735E-03
            2398             543     16.9720E-03     18.1893E-03
            3387             543     16.9720E-03     18.1893E-03
            3388             543     16.9720E-03     18.1893E-03
            2397             543     16.9720E-03     18.1893E-03
            3388             544     13.6533E-03     14.8090E-03
            2398             544     13.6533E-03     14.8090E-03
            3389             544     13.6533E-03     14.8090E-03
            2399             544     13.6533E-03     14.8090E-03
            3389             545     10.3975E-03     11.4465E-03
            3390             545     10.3975E-03     11.4465E-03
            2400             545     10.3975E-03     11.4465E-03
            2399             545     10.3975E-03     11.4465E-03
            3391             546     7.26851E-03     8.17221E-03
            3390             546     7.26851E-03     8.17221E-03
            2401             546     7.26851E-03     8.17221E-03
            2400             546     7.26851E-03     8.17221E-03
            2401             547     4.31510E-03     5.23285E-03
            3392             547     4.31510E-03     5.23285E-03
            2402             547     4.31510E-03     5.23285E-03
            3391             547     4.31510E-03     5.23285E-03
            2420             548     4.23744E-03     5.36356E-03
            2402             548     4.23744E-03     5.36356E-03
            2438             549     6.39432E-03     7.72762E-03
            2420             549     6.39432E-03     7.72762E-03
            2456             550     4.64165E-03     5.25739E-03
            2438             550     4.64165E-03     5.25739E-03
            2456             551     2.41203E-03     3.42703E-03
            2474             551     2.41203E-03     3.42703E-03
            2474             552     1.63595E-03     3.35509E-03
            2492             552     1.63595E-03     3.35509E-03
            2491             553     3.75223E-03     5.26099E-03
            5192             553     3.75223E-03     5.26099E-03
            5191             553     3.75223E-03     5.26099E-03
            2492             553     3.75223E-03     5.26099E-03
            2491             554     7.19483E-03     9.20472E-03
            2490             554     7.19483E-03     9.20472E-03
            5190             554     7.19483E-03     9.20472E-03
            5191             554     7.19483E-03     9.20472E-03
            5189             555     10.9606E-03     13.2026E-03
            2490             555     10.9606E-03     13.2026E-03
            2489             555     10.9606E-03     13.2026E-03
            5190             555     10.9606E-03     13.2026E-03
            2488             556     14.8376E-03     17.1592E-03
            5189             556     14.8376E-03     17.1592E-03
            5188             556     14.8376E-03     17.1592E-03
            2489             556     14.8376E-03     17.1592E-03
            2487             557     18.7643E-03     21.0919E-03
            5188             557     18.7643E-03     21.0919E-03
            5187             557     18.7643E-03     21.0919E-03
            2488             557     18.7643E-03     21.0919E-03
            2487             558     22.7000E-03     25.0151E-03
            2486             558     22.7000E-03     25.0151E-03
            5187             558     22.7000E-03     25.0151E-03
            5186             558     22.7000E-03     25.0151E-03
            5186             559     26.6354E-03     28.9375E-03
            2486             559     26.6354E-03     28.9375E-03
            2485             559     26.6354E-03     28.9375E-03
            5185             559     26.6354E-03     28.9375E-03
            5185             560     30.5454E-03     32.8500E-03
            5184             560     30.5454E-03     32.8500E-03
            2485             560     30.5454E-03     32.8500E-03
            2484             560     30.5454E-03     32.8500E-03
            2483             561     34.4490E-03     36.7438E-03
            2484             561     34.4490E-03     36.7438E-03
            5183             561     34.4490E-03     36.7438E-03
            5184             561     34.4490E-03     36.7438E-03
            2482             562     38.3016E-03     40.6092E-03
            2483             562     38.3016E-03     40.6092E-03
            5183             562     38.3016E-03     40.6092E-03
            5182             562     38.3016E-03     40.6092E-03
            2482             563     42.1447E-03     44.4290E-03
            5182             563     42.1447E-03     44.4290E-03
            2481             563     42.1447E-03     44.4290E-03
            5181             563     42.1447E-03     44.4290E-03
            2480             564     45.8929E-03     48.1892E-03
            5180             564     45.8929E-03     48.1892E-03
            5181             564     45.8929E-03     48.1892E-03
            2481             564     45.8929E-03     48.1892E-03
            2480             565     49.6686E-03     51.8705E-03
            5179             565     49.6686E-03     51.8705E-03
            2479             565     49.6686E-03     51.8705E-03
            5180             565     49.6686E-03     51.8705E-03
            2479             566     53.3120E-03     55.4829E-03
            5179             566     53.3120E-03     55.4829E-03
            2478             566     53.3120E-03     55.4829E-03
            5178             566     53.3120E-03     55.4829E-03
            2477             567     57.2377E-03     59.1833E-03
            2478             567     57.2377E-03     59.1833E-03
            5177             567     57.2377E-03     59.1833E-03
            5178             567     57.2377E-03     59.1833E-03
            2477             568     61.2263E-03     63.2032E-03
            2476             568     61.2263E-03     63.2032E-03
            5177             568     61.2263E-03     63.2032E-03
            5176             568     61.2263E-03     63.2032E-03
            2476             569     68.0407E-03     71.5110E-03
            5175             569     68.0407E-03     71.5110E-03
            2475             569     68.0407E-03     71.5110E-03
            5176             569     68.0407E-03     71.5110E-03
            5264             604     8.08952E-03     9.70256E-03
            5282             604     8.08952E-03     9.70256E-03
            5264             605     6.47436E-03     6.93706E-03
            5246             605     6.47436E-03     6.93706E-03
            5246             606     4.26099E-03     4.45832E-03
            5228             606     4.26099E-03     4.45832E-03
            5210             607     2.08776E-03     3.68442E-03
            5228             607     2.08776E-03     3.68442E-03
            5210             608     1.67485E-03     3.29028E-03
            5192             608     1.67485E-03     3.29028E-03
            5265             625     63.2110E-03     62.7095E-03
            5247             625     63.2110E-03     62.7095E-03
            5247             626     66.7883E-03     66.7079E-03
            5229             626     66.7883E-03     66.7079E-03
            5229             627     69.2367E-03     71.0259E-03
            5211             627     69.2367E-03     71.0259E-03
            5193             628     72.2445E-03     72.0495E-03
            5211             628     72.2445E-03     72.0495E-03
            5175             629     74.0004E-03     74.7971E-03
            5193             629     74.0004E-03     74.7971E-03
            4365             636     62.0826E-03     64.4996E-03
            4347             636     62.0826E-03     64.4996E-03
            4365             637     65.0663E-03     65.5288E-03
            4383             637     65.0663E-03     65.5288E-03
            4401             638     63.2835E-03     63.2352E-03
            4383             638     63.2835E-03     63.2352E-03
            4401             639     60.9267E-03     62.0478E-03
            4419             639     60.9267E-03     62.0478E-03
            4419             640     59.1602E-03     59.5669E-03
            4437             640     59.1602E-03     59.5669E-03
            4437             641     57.0143E-03     57.7134E-03
            4455             641     57.0143E-03     57.7134E-03
            4455             642     55.0481E-03     55.5158E-03
            4473             642     55.0481E-03     55.5158E-03
            4491             643     52.8084E-03     53.2058E-03
            4473             643     52.8084E-03     53.2058E-03
            4509             644     50.4364E-03     50.8768E-03
            4491             644     50.4364E-03     50.8768E-03
            4509             645     47.6235E-03     47.6609E-03
            4527             645     47.6235E-03     47.6609E-03
            4545             646     44.4947E-03     43.5749E-03
            4527             646     44.4947E-03     43.5749E-03
            4545             647     45.0052E-03     46.3634E-03
            4563             647     45.0052E-03     46.3634E-03
            4563             648     47.3903E-03     47.9467E-03
            4581             648     47.3903E-03     47.9467E-03
            4599             649     45.4588E-03     45.3858E-03
            4581             649     45.4588E-03     45.3858E-03
            4617             650     43.0623E-03     43.9303E-03
            4599             650     43.0623E-03     43.9303E-03
            4635             651     41.2464E-03     41.5049E-03
            4617             651     41.2464E-03     41.5049E-03
            4635             652     39.1160E-03     39.6483E-03
            4653             652     39.1160E-03     39.6483E-03
            4671             653     37.2542E-03     37.5066E-03
            4653             653     37.2542E-03     37.5066E-03
            4671             654     35.1188E-03     35.4510E-03
            4689             654     35.1188E-03     35.4510E-03
            4689             655     33.0241E-03     33.1582E-03
            4707             655     33.0241E-03     33.1582E-03
            4707             656     30.7213E-03     30.8884E-03
            4725             656     30.7213E-03     30.8884E-03
            4743             657     28.0649E-03     28.0189E-03
            4725             657     28.0649E-03     28.0189E-03
            4743             658     25.1470E-03     24.3313E-03
            4761             658     25.1470E-03     24.3313E-03
            4761             659     25.8922E-03     26.7251E-03
            4779             659     25.8922E-03     26.7251E-03
            4779             660     27.8048E-03     28.4301E-03
            4797             660     27.8048E-03     28.4301E-03
            4797             661     25.6920E-03     25.5858E-03
            4815             661     25.6920E-03     25.5858E-03
            4815             662     23.2459E-03     23.7805E-03
            4833             662     23.2459E-03     23.7805E-03
            4851             663     21.3423E-03     21.4316E-03
            4833             663     21.3423E-03     21.4316E-03
            4869             664     19.2369E-03     19.4923E-03
            4851             664     19.2369E-03     19.4923E-03
            4869             665     17.3506E-03     17.3768E-03
            4887             665     17.3506E-03     17.3768E-03
            4887             666     15.2514E-03     15.3142E-03
            4905             666     15.2514E-03     15.3142E-03
            4905             667     13.2014E-03     13.0430E-03
            4923             667     13.2014E-03     13.0430E-03
            4923             668     10.7751E-03     10.6508E-03
            4941             668     10.7751E-03     10.6508E-03
            4941             669     8.14191E-03     7.68590E-03
            4959             669     8.14191E-03     7.68590E-03
            4977             670     8.23738E-03     8.86738E-03
            4959             670     8.23738E-03     8.86738E-03
            4977             671     8.68605E-03     9.38760E-03
            4995             671     8.68605E-03     9.38760E-03
            4995             672     6.25054E-03     5.84580E-03
            5013             672     6.25054E-03     5.84580E-03
            5031             673     3.60769E-03     3.53402E-03
            5013             673     3.60769E-03     3.53402E-03
            5049             674     2.31723E-03     3.16031E-03
            5031             674     2.31723E-03     3.16031E-03
            5266             675     59.0767E-03     59.3796E-03
            4347             675     59.0767E-03     59.3796E-03
            4348             675     59.0767E-03     59.3796E-03
            5265             675     59.0767E-03     59.3796E-03
            5266             676     56.6245E-03     56.6246E-03
            5267             676     56.6245E-03     56.6246E-03
            4348             676     56.6245E-03     56.6246E-03
            4349             676     56.6245E-03     56.6246E-03
            4349             677     53.8038E-03     53.8658E-03
            4350             677     53.8038E-03     53.8658E-03
            5268             677     53.8038E-03     53.8658E-03
            5267             677     53.8038E-03     53.8658E-03
            4351             678     50.6111E-03     50.7910E-03
            5269             678     50.6111E-03     50.7910E-03
            4350             678     50.6111E-03     50.7910E-03
            5268             678     50.6111E-03     50.7910E-03
            5270             679     47.3130E-03     47.5351E-03
            4351             679     47.3130E-03     47.5351E-03
            4352             679     47.3130E-03     47.5351E-03
            5269             679     47.3130E-03     47.5351E-03
            4353             680     43.8832E-03     44.1451E-03
            5271             680     43.8832E-03     44.1451E-03
            5270             680     43.8832E-03     44.1451E-03
            4352             680     43.8832E-03     44.1451E-03
            5272             681     40.4162E-03     40.6847E-03
            5271             681     40.4162E-03     40.6847E-03
            4353             681     40.4162E-03     40.6847E-03
            4354             681     40.4162E-03     40.6847E-03
            4354             682     36.9093E-03     37.1909E-03
            5273             682     36.9093E-03     37.1909E-03
            5272             682     36.9093E-03     37.1909E-03
            4355             682     36.9093E-03     37.1909E-03
            4355             683     33.3862E-03     33.6621E-03
            5273             683     33.3862E-03     33.6621E-03
            5274             683     33.3862E-03     33.6621E-03
            4356             683     33.3862E-03     33.6621E-03
            5275             684     29.8504E-03     30.1344E-03
            5274             684     29.8504E-03     30.1344E-03
            4356             684     29.8504E-03     30.1344E-03
            4357             684     29.8504E-03     30.1344E-03
            5276             685     26.3183E-03     26.6022E-03
            5275             685     26.3183E-03     26.6022E-03
            4358             685     26.3183E-03     26.6022E-03
            4357             685     26.3183E-03     26.6022E-03
            4358             686     22.7990E-03     23.0942E-03
            5277             686     22.7990E-03     23.0942E-03
            4359             686     22.7990E-03     23.0942E-03
            5276             686     22.7990E-03     23.0942E-03
            4360             687     19.3140E-03     19.6178E-03
            5278             687     19.3140E-03     19.6178E-03
            5277             687     19.3140E-03     19.6178E-03
            4359             687     19.3140E-03     19.6178E-03
            5278             688     15.8941E-03     16.2110E-03
            4360             688     15.8941E-03     16.2110E-03
            5279             688     15.8941E-03     16.2110E-03
            4361             688     15.8941E-03     16.2110E-03
            5279             689     12.5869E-03     12.9002E-03
            5280             689     12.5869E-03     12.9002E-03
            4362             689     12.5869E-03     12.9002E-03
            4361             689     12.5869E-03     12.9002E-03
            4362             690     9.48205E-03     9.84844E-03
            5280             690     9.48205E-03     9.84844E-03
            5281             690     9.48205E-03     9.84844E-03
            4363             690     9.48205E-03     9.84844E-03
            5281             691     6.49588E-03     7.34260E-03
            5282             691     6.49588E-03     7.34260E-03
            4364             691     6.49588E-03     7.34260E-03
            4363             691     6.49588E-03     7.34260E-03
            4382             692     2.22296E-03     3.10152E-03
            4364             692     2.22296E-03     3.10152E-03
            4400             693     2.38610E-03     3.75066E-03
            4382             693     2.38610E-03     3.75066E-03
            4418             694     1.35529E-03     2.78497E-03
            4400             694     1.35529E-03     2.78497E-03
            4436             695     1.53912E-03     2.37317E-03
            4418             695     1.53912E-03     2.37317E-03
            4436             696     2.70858E-03     3.14241E-03
            4454             696     2.70858E-03     3.14241E-03
            4472             697     4.06896E-03     4.30902E-03
            4454             697     4.06896E-03     4.30902E-03
            4490             698     5.48421E-03     5.48641E-03
            4472             698     5.48421E-03     5.48641E-03
            4508             699     6.84190E-03     7.05904E-03
            4490             699     6.84190E-03     7.05904E-03
            4526             700     8.24896E-03     8.32644E-03
            4508             700     8.24896E-03     8.32644E-03
            4544             701     9.89055E-03     10.3310E-03
            4526             701     9.89055E-03     10.3310E-03
            4562             702     10.7820E-03     12.7488E-03
            4544             702     10.7820E-03     12.7488E-03
            4580             703     5.90840E-03     7.45239E-03
            4562             703     5.90840E-03     7.45239E-03
            4598             704     816.115E-06     1.57200E-03
            4580             704     816.115E-06     1.57200E-03
            4598             705     1.21042E-03     1.77519E-03
            4616             705     1.21042E-03     1.77519E-03
            4616             706     2.23001E-03     2.30815E-03
            4634             706     2.23001E-03     2.30815E-03
            4652             707     3.14208E-03     3.10986E-03
            4634             707     3.14208E-03     3.10986E-03
            4670             708     4.05569E-03     3.91431E-03
            4652             708     4.05569E-03     3.91431E-03
            4670             709     4.88531E-03     4.78353E-03
            4688             709     4.88531E-03     4.78353E-03
            4688             710     5.74508E-03     5.56120E-03
            4706             710     5.74508E-03     5.56120E-03
            4724             711     6.56703E-03     6.56826E-03
            4706             711     6.56703E-03     6.56826E-03
            4742             712     7.40880E-03     7.35248E-03
            4724             712     7.40880E-03     7.35248E-03
            4742             713     8.45310E-03     8.67632E-03
            4760             713     8.45310E-03     8.67632E-03
            4778             714     8.86200E-03     10.3788E-03
            4760             714     8.86200E-03     10.3788E-03
            4778             715     5.26964E-03     6.59043E-03
            4796             715     5.26964E-03     6.59043E-03
            4796             716     2.23443E-03     2.47976E-03
            4814             716     2.23443E-03     2.47976E-03
            4814             717     2.98134E-03     2.77750E-03
            4832             717     2.98134E-03     2.77750E-03
            4832             718     3.48647E-03     3.23786E-03
            4850             718     3.48647E-03     3.23786E-03
            4850             719     4.00596E-03     3.69351E-03
            4868             719     4.00596E-03     3.69351E-03
            4868             720     4.45627E-03     4.16222E-03
            4886             720     4.45627E-03     4.16222E-03
            4904             721     4.91012E-03     4.57918E-03
            4886             721     4.91012E-03     4.57918E-03
            4904             722     5.33099E-03     5.12540E-03
            4922             722     5.33099E-03     5.12540E-03
            4940             723     5.73406E-03     5.52496E-03
            4922             723     5.73406E-03     5.52496E-03
            4958             724     6.25859E-03     6.24944E-03
            4940             724     6.25859E-03     6.24944E-03
            4958             725     6.29548E-03     7.26154E-03
            4976             725     6.29548E-03     7.26154E-03
            4976             726     4.59600E-03     5.56622E-03
            4994             726     4.59600E-03     5.56622E-03
            4994             727     3.49230E-03     3.69269E-03
            5012             727     3.49230E-03     3.69269E-03
            5012             728     3.96359E-03     3.39327E-03
            5030             728     3.96359E-03     3.39327E-03
            5030             729     4.10876E-03     3.57205E-03
            5048             729     4.10876E-03     3.57205E-03
            5066             730     3.89765E-03     4.16591E-03
            5048             730     3.89765E-03     4.16591E-03
            5066             731     1.92811E-03     2.08696E-03
            5065             731     1.92811E-03     2.08696E-03
            5755             731     1.92811E-03     2.08696E-03
            5756             731     1.92811E-03     2.08696E-03
            5754             732     2.06248E-03     2.02240E-03
            5065             732     2.06248E-03     2.02240E-03
            5064             732     2.06248E-03     2.02240E-03
            5755             732     2.06248E-03     2.02240E-03
            5063             733     2.11249E-03     1.99088E-03
            5064             733     2.11249E-03     1.99088E-03
            5753             733     2.11249E-03     1.99088E-03
            5754             733     2.11249E-03     1.99088E-03
            5753             734     2.16047E-03     2.00755E-03
            5063             734     2.16047E-03     2.00755E-03
            5062             734     2.16047E-03     2.00755E-03
            5752             734     2.16047E-03     2.00755E-03
            5061             735     2.20246E-03     2.01401E-03
            5751             735     2.20246E-03     2.01401E-03
            5752             735     2.20246E-03     2.01401E-03
            5062             735     2.20246E-03     2.01401E-03
            5060             736     2.25213E-03     2.02887E-03
            5751             736     2.25213E-03     2.02887E-03
            5750             736     2.25213E-03     2.02887E-03
            5061             736     2.25213E-03     2.02887E-03
            5749             737     2.30369E-03     2.04862E-03
            5059             737     2.30369E-03     2.04862E-03
            5060             737     2.30369E-03     2.04862E-03
            5750             737     2.30369E-03     2.04862E-03
            5748             738     2.35935E-03     2.07188E-03
            5749             738     2.35935E-03     2.07188E-03
            5058             738     2.35935E-03     2.07188E-03
            5059             738     2.35935E-03     2.07188E-03
            5747             739     2.41628E-03     2.10180E-03
            5748             739     2.41628E-03     2.10180E-03
            5058             739     2.41628E-03     2.10180E-03
            5057             739     2.41628E-03     2.10180E-03
            5747             740     2.47565E-03     2.13046E-03
            5056             740     2.47565E-03     2.13046E-03
            5057             740     2.47565E-03     2.13046E-03
            5746             740     2.47565E-03     2.13046E-03
            5746             741     2.53397E-03     2.16543E-03
            5745             741     2.53397E-03     2.16543E-03
            5055             741     2.53397E-03     2.16543E-03
            5056             741     2.53397E-03     2.16543E-03
            5744             742     2.58685E-03     2.18717E-03
            5055             742     2.58685E-03     2.18717E-03
            5054             742     2.58685E-03     2.18717E-03
            5745             742     2.58685E-03     2.18717E-03
            5053             743     2.62237E-03     2.19493E-03
            5743             743     2.62237E-03     2.19493E-03
            5054             743     2.62237E-03     2.19493E-03
            5744             743     2.62237E-03     2.19493E-03
            5053             744     2.60222E-03     2.14822E-03
            5052             744     2.60222E-03     2.14822E-03
            5742             744     2.60222E-03     2.14822E-03
            5743             744     2.60222E-03     2.14822E-03
            5741             745     2.38532E-03     1.89775E-03
            5742             745     2.38532E-03     1.89775E-03
            5051             745     2.38532E-03     1.89775E-03
            5052             745     2.38532E-03     1.89775E-03
            5050             746     1.96825E-03     1.41006E-03
            5051             746     1.96825E-03     1.41006E-03
            5741             746     1.96825E-03     1.41006E-03
            5740             746     1.96825E-03     1.41006E-03
            5739             747     1.39328E-03     1.54602E-03
            5049             747     1.39328E-03     1.54602E-03
            5740             747     1.39328E-03     1.54602E-03
            5050             747     1.39328E-03     1.54602E-03
            5846             787     22.5673E-15     22.0457E-15
            5828             787     22.5673E-15     22.0457E-15
            5810             788     37.0038E-15     32.7770E-15
            5828             788     37.0038E-15     32.7770E-15
            5792             789     31.2839E-15     27.5048E-15
            5810             789     31.2839E-15     27.5048E-15
            5774             790     18.3453E-15     15.2129E-15
            5792             790     18.3453E-15     15.2129E-15
            5774             791     18.5453E-15     12.6604E-15
            5756             791     18.5453E-15     12.6604E-15
            5846             808     20.2160E-15     19.0262E-15
            5845             808     20.2160E-15     19.0262E-15
            5844             809     33.9132E-15     27.8305E-15
            5845             809     33.9132E-15     27.8305E-15
            5843             810     40.1682E-15     38.8867E-15
            5844             810     40.1682E-15     38.8867E-15
            5842             811     30.5581E-15     33.7605E-15
            5843             811     30.5581E-15     33.7605E-15
            5841             812     24.4373E-15     28.1786E-15
            5842             812     24.4373E-15     28.1786E-15
            5840             813     23.5081E-15     26.6894E-15
            5841             813     23.5081E-15     26.6894E-15
            5840             814     14.4846E-15     16.2942E-15
            5839             814     14.4846E-15     16.2942E-15
            5838             815     18.2409E-15     19.4078E-15
            5839             815     18.2409E-15     19.4078E-15
            5838             816     15.2306E-15     14.7888E-15
            5837             816     15.2306E-15     14.7888E-15
            5836             817     4.64429E-15     3.13453E-15
            5837             817     4.64429E-15     3.13453E-15
            5835             818     7.25349E-15     6.37897E-15
            5836             818     7.25349E-15     6.37897E-15
            5834             819     21.8665E-15     20.1919E-15
            5835             819     21.8665E-15     20.1919E-15
            5834             820     28.9279E-15     24.3504E-15
            5833             820     28.9279E-15     24.3504E-15
            5832             821     28.4223E-15     26.3496E-15
            5833             821     28.4223E-15     26.3496E-15
            5831             822     25.0738E-15     26.1077E-15
            5832             822     25.0738E-15     26.1077E-15
            5830             823     18.3442E-15     19.3946E-15
            5831             823     18.3442E-15     19.3946E-15
            5829             824     26.1527E-15     27.2655E-15
            5830             824     26.1527E-15     27.2655E-15
             786            1467     14.0512E-15     18.1021E-15
             804            1467     14.0512E-15     18.1021E-15
             785            1467     14.0512E-15     18.1021E-15
             803            1467     14.0512E-15     18.1021E-15
             804            1468     12.5545E-15     15.4030E-15
             787            1468     12.5545E-15     15.4030E-15
             805            1468     12.5545E-15     15.4030E-15
             786            1468     12.5545E-15     15.4030E-15
             788            1469     21.3883E-15     22.3272E-15
             806            1469     21.3883E-15     22.3272E-15
             805            1469     21.3883E-15     22.3272E-15
             787            1469     21.3883E-15     22.3272E-15
             788            1470     16.2805E-15     22.5229E-15
             806            1470     16.2805E-15     22.5229E-15
             807            1470     16.2805E-15     22.5229E-15
             789            1470     16.2805E-15     22.5229E-15
             790            1471     11.1021E-15     15.1577E-15
             789            1471     11.1021E-15     15.1577E-15
             808            1471     11.1021E-15     15.1577E-15
             807            1471     11.1021E-15     15.1577E-15
             808            1472     17.3563E-15     15.5688E-15
             790            1472     17.3563E-15     15.5688E-15
             809            1472     17.3563E-15     15.5688E-15
             791            1472     17.3563E-15     15.5688E-15
             792            1473     21.4853E-15     14.6686E-15
             791            1473     21.4853E-15     14.6686E-15
             809            1473     21.4853E-15     14.6686E-15
             810            1473     21.4853E-15     14.6686E-15
             811            1474     20.4851E-15     17.0097E-15
             792            1474     20.4851E-15     17.0097E-15
             810            1474     20.4851E-15     17.0097E-15
             793            1474     20.4851E-15     17.0097E-15
             794            1475     13.0977E-15     13.1642E-15
             812            1475     13.0977E-15     13.1642E-15
             793            1475     13.0977E-15     13.1642E-15
             811            1475     13.0977E-15     13.1642E-15
             813            1476     12.9814E-15     14.6354E-15
             794            1476     12.9814E-15     14.6354E-15
             795            1476     12.9814E-15     14.6354E-15
             812            1476     12.9814E-15     14.6354E-15
             796            1477     21.3281E-15     26.2796E-15
             813            1477     21.3281E-15     26.2796E-15
             814            1477     21.3281E-15     26.2796E-15
             795            1477     21.3281E-15     26.2796E-15
             797            1478     31.5354E-15     35.6429E-15
             814            1478     31.5354E-15     35.6429E-15
             815            1478     31.5354E-15     35.6429E-15
             796            1478     31.5354E-15     35.6429E-15
             815            1479     29.6935E-15     31.1429E-15
             797            1479     29.6935E-15     31.1429E-15
             816            1479     29.6935E-15     31.1429E-15
             798            1479     29.6935E-15     31.1429E-15
             799            1480     18.1350E-15     17.8292E-15
             816            1480     18.1350E-15     17.8292E-15
             817            1480     18.1350E-15     17.8292E-15
             798            1480     18.1350E-15     17.8292E-15
             818            1481     24.9739E-15     25.3216E-15
             817            1481     24.9739E-15     25.3216E-15
             800            1481     24.9739E-15     25.3216E-15
             799            1481     24.9739E-15     25.3216E-15
             800            1482     25.6989E-15     26.6474E-15
             801            1482     25.6989E-15     26.6474E-15
             818            1482     25.6989E-15     26.6474E-15
             819            1482     25.6989E-15     26.6474E-15
             819            1483     23.8131E-15     24.1752E-15
             801            1483     23.8131E-15     24.1752E-15
             820            1483     23.8131E-15     24.1752E-15
             802            1483     23.8131E-15     24.1752E-15
             804            1484     25.2011E-15     23.7702E-15
             822            1484     25.2011E-15     23.7702E-15
             821            1484     25.2011E-15     23.7702E-15
             803            1484     25.2011E-15     23.7702E-15
             805            1485     18.1118E-15     22.5120E-15
             804            1485     18.1118E-15     22.5120E-15
             823            1485     18.1118E-15     22.5120E-15
             822            1485     18.1118E-15     22.5120E-15
             823            1486     13.8837E-15     18.3297E-15
             824            1486     13.8837E-15     18.3297E-15
             805            1486     13.8837E-15     18.3297E-15
             806            1486     13.8837E-15     18.3297E-15
             806            1487     14.4502E-15     15.3143E-15
             807            1487     14.4502E-15     15.3143E-15
             824            1487     14.4502E-15     15.3143E-15
             825            1487     14.4502E-15     15.3143E-15
             825            1488     15.6176E-15     17.2195E-15
             826            1488     15.6176E-15     17.2195E-15
             807            1488     15.6176E-15     17.2195E-15
             808            1488     15.6176E-15     17.2195E-15
             809            1489     20.1674E-15     21.3198E-15
             827            1489     20.1674E-15     21.3198E-15
             808            1489     20.1674E-15     21.3198E-15
             826            1489     20.1674E-15     21.3198E-15
             827            1490     22.4683E-15     19.0329E-15
             828            1490     22.4683E-15     19.0329E-15
             809            1490     22.4683E-15     19.0329E-15
             810            1490     22.4683E-15     19.0329E-15
             810            1491     18.0533E-15     13.0075E-15
             829            1491     18.0533E-15     13.0075E-15
             828            1491     18.0533E-15     13.0075E-15
             811            1491     18.0533E-15     13.0075E-15
             830            1492     11.3934E-15     9.57850E-15
             811            1492     11.3934E-15     9.57850E-15
             829            1492     11.3934E-15     9.57850E-15
             812            1492     11.3934E-15     9.57850E-15
             831            1493     14.3923E-15     15.1602E-15
             830            1493     14.3923E-15     15.1602E-15
             813            1493     14.3923E-15     15.1602E-15
             812            1493     14.3923E-15     15.1602E-15
             813            1494     20.5933E-15     22.8346E-15
             832            1494     20.5933E-15     22.8346E-15
             814            1494     20.5933E-15     22.8346E-15
             831            1494     20.5933E-15     22.8346E-15
             815            1495     22.7271E-15     24.5835E-15
             833            1495     22.7271E-15     24.5835E-15
             832            1495     22.7271E-15     24.5835E-15
             814            1495     22.7271E-15     24.5835E-15
             815            1496     20.8025E-15     21.9251E-15
             816            1496     20.8025E-15     21.9251E-15
             834            1496     20.8025E-15     21.9251E-15
             833            1496     20.8025E-15     21.9251E-15
             835            1497     16.6352E-15     17.4210E-15
             816            1497     16.6352E-15     17.4210E-15
             834            1497     16.6352E-15     17.4210E-15
             817            1497     16.6352E-15     17.4210E-15
             835            1498     22.5173E-15     22.8303E-15
             817            1498     22.5173E-15     22.8303E-15
             818            1498     22.5173E-15     22.8303E-15
             836            1498     22.5173E-15     22.8303E-15
             837            1499     23.5158E-15     23.5939E-15
             836            1499     23.5158E-15     23.5939E-15
             819            1499     23.5158E-15     23.5939E-15
             818            1499     23.5158E-15     23.5939E-15
             819            1500     25.9658E-15     25.8526E-15
             838            1500     25.9658E-15     25.8526E-15
             837            1500     25.9658E-15     25.8526E-15
             820            1500     25.9658E-15     25.8526E-15
             821            1501     29.0833E-15     33.0770E-15
             839            1501     29.0833E-15     33.0770E-15
             840            1501     29.0833E-15     33.0770E-15
             822            1501     29.0833E-15     33.0770E-15
             840            1502     27.1375E-15     24.2182E-15
             822            1502     27.1375E-15     24.2182E-15
             841            1502     27.1375E-15     24.2182E-15
             823            1502     27.1375E-15     24.2182E-15
             842            1503     14.4304E-15     15.8235E-15
             841            1503     14.4304E-15     15.8235E-15
             824            1503     14.4304E-15     15.8235E-15
             823            1503     14.4304E-15     15.8235E-15
             842            1504     14.9446E-15     11.8422E-15
             824            1504     14.9446E-15     11.8422E-15
             843            1504     14.9446E-15     11.8422E-15
             825            1504     14.9446E-15     11.8422E-15
             844            1505     23.7089E-15     19.0865E-15
             826            1505     23.7089E-15     19.0865E-15
             825            1505     23.7089E-15     19.0865E-15
             843            1505     23.7089E-15     19.0865E-15
             844            1506     28.3249E-15     22.1129E-15
             826            1506     28.3249E-15     22.1129E-15
             827            1506     28.3249E-15     22.1129E-15
             845            1506     28.3249E-15     22.1129E-15
             846            1507     19.1111E-15     14.6599E-15
             845            1507     19.1111E-15     14.6599E-15
             828            1507     19.1111E-15     14.6599E-15
             827            1507     19.1111E-15     14.6599E-15
             829            1508     13.3153E-15     10.6791E-15
             846            1508     13.3153E-15     10.6791E-15
             847            1508     13.3153E-15     10.6791E-15
             828            1508     13.3153E-15     10.6791E-15
             829            1509     14.0075E-15     13.6162E-15
             847            1509     14.0075E-15     13.6162E-15
             848            1509     14.0075E-15     13.6162E-15
             830            1509     14.0075E-15     13.6162E-15
             830            1510     15.0898E-15     19.0716E-15
             831            1510     15.0898E-15     19.0716E-15
             849            1510     15.0898E-15     19.0716E-15
             848            1510     15.0898E-15     19.0716E-15
             849            1511     13.7502E-15     18.3947E-15
             850            1511     13.7502E-15     18.3947E-15
             832            1511     13.7502E-15     18.3947E-15
             831            1511     13.7502E-15     18.3947E-15
             833            1512     15.1937E-15     17.6461E-15
             850            1512     15.1937E-15     17.6461E-15
             851            1512     15.1937E-15     17.6461E-15
             832            1512     15.1937E-15     17.6461E-15
             834            1513     15.5144E-15     16.5240E-15
             852            1513     15.5144E-15     16.5240E-15
             851            1513     15.5144E-15     16.5240E-15
             833            1513     15.5144E-15     16.5240E-15
             853            1514     15.2346E-15     15.6054E-15
             852            1514     15.2346E-15     15.6054E-15
             834            1514     15.2346E-15     15.6054E-15
             835            1514     15.2346E-15     15.6054E-15
             835            1515     13.3716E-15     12.6975E-15
             854            1515     13.3716E-15     12.6975E-15
             853            1515     13.3716E-15     12.6975E-15
             836            1515     13.3716E-15     12.6975E-15
             836            1516     10.4651E-15     10.3468E-15
             854            1516     10.4651E-15     10.3468E-15
             855            1516     10.4651E-15     10.3468E-15
             837            1516     10.4651E-15     10.3468E-15
             837            1517     16.9666E-15     17.7871E-15
             855            1517     16.9666E-15     17.7871E-15
             838            1517     16.9666E-15     17.7871E-15
             856            1517     16.9666E-15     17.7871E-15
            2386            2866     61.8634E-03     62.4960E-03
            2403            2866     61.8634E-03     62.4960E-03
            2385            2866     61.8634E-03     62.4960E-03
            2404            2866     61.8634E-03     62.4960E-03
            2404            2867     59.1198E-03     59.3160E-03
            2386            2867     59.1198E-03     59.3160E-03
            2387            2867     59.1198E-03     59.3160E-03
            2405            2867     59.1198E-03     59.3160E-03
            2406            2868     56.0074E-03     56.2655E-03
            2387            2868     56.0074E-03     56.2655E-03
            2388            2868     56.0074E-03     56.2655E-03
            2405            2868     56.0074E-03     56.2655E-03
            2406            2869     52.5758E-03     52.9047E-03
            2389            2869     52.5758E-03     52.9047E-03
            2407            2869     52.5758E-03     52.9047E-03
            2388            2869     52.5758E-03     52.9047E-03
            2408            2870     49.0388E-03     49.3651E-03
            2390            2870     49.0388E-03     49.3651E-03
            2389            2870     49.0388E-03     49.3651E-03
            2407            2870     49.0388E-03     49.3651E-03
            2409            2871     45.3887E-03     45.7522E-03
            2391            2871     45.3887E-03     45.7522E-03
            2408            2871     45.3887E-03     45.7522E-03
            2390            2871     45.3887E-03     45.7522E-03
            2409            2872     41.7399E-03     42.0992E-03
            2410            2872     41.7399E-03     42.0992E-03
            2392            2872     41.7399E-03     42.0992E-03
            2391            2872     41.7399E-03     42.0992E-03
            2393            2873     38.0402E-03     38.4009E-03
            2410            2873     38.0402E-03     38.4009E-03
            2411            2873     38.0402E-03     38.4009E-03
            2392            2873     38.0402E-03     38.4009E-03
            2411            2874     34.3392E-03     34.7003E-03
            2393            2874     34.3392E-03     34.7003E-03
            2412            2874     34.3392E-03     34.7003E-03
            2394            2874     34.3392E-03     34.7003E-03
            2394            2875     30.6217E-03     30.9814E-03
            2413            2875     30.6217E-03     30.9814E-03
            2395            2875     30.6217E-03     30.9814E-03
            2412            2875     30.6217E-03     30.9814E-03
            2413            2876     26.9120E-03     27.2747E-03
            2396            2876     26.9120E-03     27.2747E-03
            2395            2876     26.9120E-03     27.2747E-03
            2414            2876     26.9120E-03     27.2747E-03
            2396            2877     23.2095E-03     23.5747E-03
            2414            2877     23.2095E-03     23.5747E-03
            2415            2877     23.2095E-03     23.5747E-03
            2397            2877     23.2095E-03     23.5747E-03
            2397            2878     19.5335E-03     19.9085E-03
            2415            2878     19.5335E-03     19.9085E-03
            2416            2878     19.5335E-03     19.9085E-03
            2398            2878     19.5335E-03     19.9085E-03
            2417            2879     15.9004E-03     16.2887E-03
            2398            2879     15.9004E-03     16.2887E-03
            2416            2879     15.9004E-03     16.2887E-03
            2399            2879     15.9004E-03     16.2887E-03
            2417            2880     12.3618E-03     12.7540E-03
            2399            2880     12.3618E-03     12.7540E-03
            2400            2880     12.3618E-03     12.7540E-03
            2418            2880     12.3618E-03     12.7540E-03
            2418            2881     8.99853E-03     9.40988E-03
            2400            2881     8.99853E-03     9.40988E-03
            2419            2881     8.99853E-03     9.40988E-03
            2401            2881     8.99853E-03     9.40988E-03
            2420            2882     5.80691E-03     6.58606E-03
            2402            2882     5.80691E-03     6.58606E-03
            2401            2882     5.80691E-03     6.58606E-03
            2419            2882     5.80691E-03     6.58606E-03
            2403            2883     65.2426E-03     65.0584E-03
            2404            2883     65.2426E-03     65.0584E-03
            2421            2883     65.2426E-03     65.0584E-03
            2422            2883     65.2426E-03     65.0584E-03
            2405            2884     62.5251E-03     62.7738E-03
            2422            2884     62.5251E-03     62.7738E-03
            2404            2884     62.5251E-03     62.7738E-03
            2423            2884     62.5251E-03     62.7738E-03
            2406            2885     59.3793E-03     59.4082E-03
            2405            2885     59.3793E-03     59.4082E-03
            2424            2885     59.3793E-03     59.4082E-03
            2423            2885     59.3793E-03     59.4082E-03
            2406            2886     55.7615E-03     55.8055E-03
            2424            2886     55.7615E-03     55.8055E-03
            2407            2886     55.7615E-03     55.8055E-03
            2425            2886     55.7615E-03     55.8055E-03
            2425            2887     51.9315E-03     52.0446E-03
            2407            2887     51.9315E-03     52.0446E-03
            2408            2887     51.9315E-03     52.0446E-03
            2426            2887     51.9315E-03     52.0446E-03
            2408            2888     48.1406E-03     48.2290E-03
            2427            2888     48.1406E-03     48.2290E-03
            2426            2888     48.1406E-03     48.2290E-03
            2409            2888     48.1406E-03     48.2290E-03
            2409            2889     44.2652E-03     44.3768E-03
            2427            2889     44.2652E-03     44.3768E-03
            2428            2889     44.2652E-03     44.3768E-03
            2410            2889     44.2652E-03     44.3768E-03
            2411            2890     40.4022E-03     40.5046E-03
            2410            2890     40.4022E-03     40.5046E-03
            2428            2890     40.4022E-03     40.5046E-03
            2429            2890     40.4022E-03     40.5046E-03
            2429            2891     36.5076E-03     36.6134E-03
            2430            2891     36.5076E-03     36.6134E-03
            2412            2891     36.5076E-03     36.6134E-03
            2411            2891     36.5076E-03     36.6134E-03
            2431            2892     32.6208E-03     32.7246E-03
            2413            2892     32.6208E-03     32.7246E-03
            2412            2892     32.6208E-03     32.7246E-03
            2430            2892     32.6208E-03     32.7246E-03
            2414            2893     28.7360E-03     28.8395E-03
            2413            2893     28.7360E-03     28.8395E-03
            2432            2893     28.7360E-03     28.8395E-03
            2431            2893     28.7360E-03     28.8395E-03
            2433            2894     24.8755E-03     24.9808E-03
            2432            2894     24.8755E-03     24.9808E-03
            2414            2894     24.8755E-03     24.9808E-03
            2415            2894     24.8755E-03     24.9808E-03
            2415            2895     21.0547E-03     21.1591E-03
            2416            2895     21.0547E-03     21.1591E-03
            2434            2895     21.0547E-03     21.1591E-03
            2433            2895     21.0547E-03     21.1591E-03
            2417            2896     17.3117E-03     17.4157E-03
            2416            2896     17.3117E-03     17.4157E-03
            2434            2896     17.3117E-03     17.4157E-03
            2435            2896     17.3117E-03     17.4157E-03
            2417            2897     13.6912E-03     13.8219E-03
            2418            2897     13.6912E-03     13.8219E-03
            2435            2897     13.6912E-03     13.8219E-03
            2436            2897     13.6912E-03     13.8219E-03
            2418            2898     10.3467E-03     10.5841E-03
            2419            2898     10.3467E-03     10.5841E-03
            2437            2898     10.3467E-03     10.5841E-03
            2436            2898     10.3467E-03     10.5841E-03
            2438            2899     7.58357E-03     8.41103E-03
            2419            2899     7.58357E-03     8.41103E-03
            2420            2899     7.58357E-03     8.41103E-03
            2437            2899     7.58357E-03     8.41103E-03
            2439            2900     67.9563E-03     68.7749E-03
            2422            2900     67.9563E-03     68.7749E-03
            2421            2900     67.9563E-03     68.7749E-03
            2440            2900     67.9563E-03     68.7749E-03
            2423            2901     64.8626E-03     65.6250E-03
            2422            2901     64.8626E-03     65.6250E-03
            2440            2901     64.8626E-03     65.6250E-03
            2441            2901     64.8626E-03     65.6250E-03
            2424            2902     60.4480E-03     61.2787E-03
            2441            2902     60.4480E-03     61.2787E-03
            2423            2902     60.4480E-03     61.2787E-03
            2442            2902     60.4480E-03     61.2787E-03
            2424            2903     56.1505E-03     56.9523E-03
            2443            2903     56.1505E-03     56.9523E-03
            2442            2903     56.1505E-03     56.9523E-03
            2425            2903     56.1505E-03     56.9523E-03
            2426            2904     52.0837E-03     52.8099E-03
            2444            2904     52.0837E-03     52.8099E-03
            2443            2904     52.0837E-03     52.8099E-03
            2425            2904     52.0837E-03     52.8099E-03
            2444            2905     48.0095E-03     48.7328E-03
            2427            2905     48.0095E-03     48.7328E-03
            2445            2905     48.0095E-03     48.7328E-03
            2426            2905     48.0095E-03     48.7328E-03
            2428            2906     43.9928E-03     44.7029E-03
            2445            2906     43.9928E-03     44.7029E-03
            2446            2906     43.9928E-03     44.7029E-03
            2427            2906     43.9928E-03     44.7029E-03
            2446            2907     39.9828E-03     40.6978E-03
            2429            2907     39.9828E-03     40.6978E-03
            2447            2907     39.9828E-03     40.6978E-03
            2428            2907     39.9828E-03     40.6978E-03
            2430            2908     35.9932E-03     36.7064E-03
            2448            2908     35.9932E-03     36.7064E-03
            2447            2908     35.9932E-03     36.7064E-03
            2429            2908     35.9932E-03     36.7064E-03
            2431            2909     32.0115E-03     32.7250E-03
            2448            2909     32.0115E-03     32.7250E-03
            2430            2909     32.0115E-03     32.7250E-03
            2449            2909     32.0115E-03     32.7250E-03
            2450            2910     28.0437E-03     28.7541E-03
            2449            2910     28.0437E-03     28.7541E-03
            2432            2910     28.0437E-03     28.7541E-03
            2431            2910     28.0437E-03     28.7541E-03
            2451            2911     24.0946E-03     24.7939E-03
            2433            2911     24.0946E-03     24.7939E-03
            2432            2911     24.0946E-03     24.7939E-03
            2450            2911     24.0946E-03     24.7939E-03
            2433            2912     20.1681E-03     20.8529E-03
            2452            2912     20.1681E-03     20.8529E-03
            2451            2912     20.1681E-03     20.8529E-03
            2434            2912     20.1681E-03     20.8529E-03
            2434            2913     16.2888E-03     16.9446E-03
            2453            2913     16.2888E-03     16.9446E-03
            2452            2913     16.2888E-03     16.9446E-03
            2435            2913     16.2888E-03     16.9446E-03
            2454            2914     12.4622E-03     13.1184E-03
            2436            2914     12.4622E-03     13.1184E-03
            2435            2914     12.4622E-03     13.1184E-03
            2453            2914     12.4622E-03     13.1184E-03
            2436            2915     8.69957E-03     9.66151E-03
            2454            2915     8.69957E-03     9.66151E-03
            2455            2915     8.69957E-03     9.66151E-03
            2437            2915     8.69957E-03     9.66151E-03
            2438            2916     5.74302E-03     6.67180E-03
            2456            2916     5.74302E-03     6.67180E-03
            2437            2916     5.74302E-03     6.67180E-03
            2455            2916     5.74302E-03     6.67180E-03
            2457            2917     69.8143E-03     70.5377E-03
            2439            2917     69.8143E-03     70.5377E-03
            2458            2917     69.8143E-03     70.5377E-03
            2440            2917     69.8143E-03     70.5377E-03
            2441            2918     65.1962E-03     66.4500E-03
            2440            2918     65.1962E-03     66.4500E-03
            2458            2918     65.1962E-03     66.4500E-03
            2459            2918     65.1962E-03     66.4500E-03
            2441            2919     60.0816E-03     61.5703E-03
            2460            2919     60.0816E-03     61.5703E-03
            2442            2919     60.0816E-03     61.5703E-03
            2459            2919     60.0816E-03     61.5703E-03
            2443            2920     55.7975E-03     57.2200E-03
            2442            2920     55.7975E-03     57.2200E-03
            2460            2920     55.7975E-03     57.2200E-03
            2461            2920     55.7975E-03     57.2200E-03
            2444            2921     51.6978E-03     53.0332E-03
            2443            2921     51.6978E-03     53.0332E-03
            2462            2921     51.6978E-03     53.0332E-03
            2461            2921     51.6978E-03     53.0332E-03
            2444            2922     47.6074E-03     48.9447E-03
            2462            2922     47.6074E-03     48.9447E-03
            2463            2922     47.6074E-03     48.9447E-03
            2445            2922     47.6074E-03     48.9447E-03
            2464            2923     43.5679E-03     44.8927E-03
            2446            2923     43.5679E-03     44.8927E-03
            2463            2923     43.5679E-03     44.8927E-03
            2445            2923     43.5679E-03     44.8927E-03
            2464            2924     39.5304E-03     40.8588E-03
            2446            2924     39.5304E-03     40.8588E-03
            2447            2924     39.5304E-03     40.8588E-03
            2465            2924     39.5304E-03     40.8588E-03
            2466            2925     35.5122E-03     36.8417E-03
            2448            2925     35.5122E-03     36.8417E-03
            2465            2925     35.5122E-03     36.8417E-03
            2447            2925     35.5122E-03     36.8417E-03
            2466            2926     31.4986E-03     32.8275E-03
            2448            2926     31.4986E-03     32.8275E-03
            2449            2926     31.4986E-03     32.8275E-03
            2467            2926     31.4986E-03     32.8275E-03
            2467            2927     27.4941E-03     28.8227E-03
            2468            2927     27.4941E-03     28.8227E-03
            2450            2927     27.4941E-03     28.8227E-03
            2449            2927     27.4941E-03     28.8227E-03
            2450            2928     23.4971E-03     24.8172E-03
            2451            2928     23.4971E-03     24.8172E-03
            2468            2928     23.4971E-03     24.8172E-03
            2469            2928     23.4971E-03     24.8172E-03
            2469            2929     19.5134E-03     20.8191E-03
            2451            2929     19.5134E-03     20.8191E-03
            2470            2929     19.5134E-03     20.8191E-03
            2452            2929     19.5134E-03     20.8191E-03
            2471            2930     15.5407E-03     16.8241E-03
            2470            2930     15.5407E-03     16.8241E-03
            2453            2930     15.5407E-03     16.8241E-03
            2452            2930     15.5407E-03     16.8241E-03
            2472            2931     11.5816E-03     12.8737E-03
            2453            2931     11.5816E-03     12.8737E-03
            2454            2931     11.5816E-03     12.8737E-03
            2471            2931     11.5816E-03     12.8737E-03
            2454            2932     7.66535E-03     9.06178E-03
            2473            2932     7.66535E-03     9.06178E-03
            2472            2932     7.66535E-03     9.06178E-03
            2455            2932     7.66535E-03     9.06178E-03
            2456            2933     4.06848E-03     5.31470E-03
            2473            2933     4.06848E-03     5.31470E-03
            2474            2933     4.06848E-03     5.31470E-03
            2455            2933     4.06848E-03     5.31470E-03
            2476            2934     69.5269E-03     70.7926E-03
            2458            2934     69.5269E-03     70.7926E-03
            2475            2934     69.5269E-03     70.7926E-03
            2457            2934     69.5269E-03     70.7926E-03
            2458            2935     63.0784E-03     65.0754E-03
            2476            2935     63.0784E-03     65.0754E-03
            2477            2935     63.0784E-03     65.0754E-03
            2459            2935     63.0784E-03     65.0754E-03
            2460            2936     58.6438E-03     60.5279E-03
            2459            2936     58.6438E-03     60.5279E-03
            2477            2936     58.6438E-03     60.5279E-03
            2478            2936     58.6438E-03     60.5279E-03
            2479            2937     54.7488E-03     56.6377E-03
            2460            2937     54.7488E-03     56.6377E-03
            2461            2937     54.7488E-03     56.6377E-03
            2478            2937     54.7488E-03     56.6377E-03
            2462            2938     50.7974E-03     52.7456E-03
            2480            2938     50.7974E-03     52.7456E-03
            2461            2938     50.7974E-03     52.7456E-03
            2479            2938     50.7974E-03     52.7456E-03
            2480            2939     46.9297E-03     48.8597E-03
            2463            2939     46.9297E-03     48.8597E-03
            2481            2939     46.9297E-03     48.8597E-03
            2462            2939     46.9297E-03     48.8597E-03
            2463            2940     42.9792E-03     44.9275E-03
            2482            2940     42.9792E-03     44.9275E-03
            2481            2940     42.9792E-03     44.9275E-03
            2464            2940     42.9792E-03     44.9275E-03
            2483            2941     39.0373E-03     40.9803E-03
            2465            2941     39.0373E-03     40.9803E-03
            2482            2941     39.0373E-03     40.9803E-03
            2464            2941     39.0373E-03     40.9803E-03
            2465            2942     35.0611E-03     37.0052E-03
            2466            2942     35.0611E-03     37.0052E-03
            2484            2942     35.0611E-03     37.0052E-03
            2483            2942     35.0611E-03     37.0052E-03
            2466            2943     31.0831E-03     33.0277E-03
            2467            2943     31.0831E-03     33.0277E-03
            2485            2943     31.0831E-03     33.0277E-03
            2484            2943     31.0831E-03     33.0277E-03
            2467            2944     27.0932E-03     29.0365E-03
            2486            2944     27.0932E-03     29.0365E-03
            2468            2944     27.0932E-03     29.0365E-03
            2485            2944     27.0932E-03     29.0365E-03
            2487            2945     23.0998E-03     25.0485E-03
            2486            2945     23.0998E-03     25.0485E-03
            2468            2945     23.0998E-03     25.0485E-03
            2469            2945     23.0998E-03     25.0485E-03
            2488            2946     19.1078E-03     21.0550E-03
            2470            2946     19.1078E-03     21.0550E-03
            2469            2946     19.1078E-03     21.0550E-03
            2487            2946     19.1078E-03     21.0550E-03
            2470            2947     15.1186E-03     17.0644E-03
            2489            2947     15.1186E-03     17.0644E-03
            2488            2947     15.1186E-03     17.0644E-03
            2471            2947     15.1186E-03     17.0644E-03
            2489            2948     11.1430E-03     13.0894E-03
            2490            2948     11.1430E-03     13.0894E-03
            2471            2948     11.1430E-03     13.0894E-03
            2472            2948     11.1430E-03     13.0894E-03
            2472            2949     7.29193E-03     9.02589E-03
            2491            2949     7.29193E-03     9.02589E-03
            2490            2949     7.29193E-03     9.02589E-03
            2473            2949     7.29193E-03     9.02589E-03
            2473            2950     3.52572E-03     5.14891E-03
            2474            2950     3.52572E-03     5.14891E-03
            2492            2950     3.52572E-03     5.14891E-03
            2491            2950     3.52572E-03     5.14891E-03
            2493            2951     2.44932E-03     2.44372E-03
            2512            2951     2.44932E-03     2.44372E-03
            2494            2951     2.44932E-03     2.44372E-03
            2511            2951     2.44932E-03     2.44372E-03
            2512            2952     3.01152E-03     2.35928E-03
            2494            2952     3.01152E-03     2.35928E-03
            2495            2952     3.01152E-03     2.35928E-03
            2513            2952     3.01152E-03     2.35928E-03
            2496            2953     4.08987E-03     3.45446E-03
            2513            2953     4.08987E-03     3.45446E-03
            2495            2953     4.08987E-03     3.45446E-03
            2514            2953     4.08987E-03     3.45446E-03
            2497            2954     4.54909E-03     3.97864E-03
            2496            2954     4.54909E-03     3.97864E-03
            2515            2954     4.54909E-03     3.97864E-03
            2514            2954     4.54909E-03     3.97864E-03
            2498            2955     4.71569E-03     4.18938E-03
            2515            2955     4.71569E-03     4.18938E-03
            2516            2955     4.71569E-03     4.18938E-03
            2497            2955     4.71569E-03     4.18938E-03
            2498            2956     4.72226E-03     4.22984E-03
            2499            2956     4.72226E-03     4.22984E-03
            2517            2956     4.72226E-03     4.22984E-03
            2516            2956     4.72226E-03     4.22984E-03
            2499            2957     4.64613E-03     4.19090E-03
            2518            2957     4.64613E-03     4.19090E-03
            2517            2957     4.64613E-03     4.19090E-03
            2500            2957     4.64613E-03     4.19090E-03
            2519            2958     4.53699E-03     4.11373E-03
            2518            2958     4.53699E-03     4.11373E-03
            2501            2958     4.53699E-03     4.11373E-03
            2500            2958     4.53699E-03     4.11373E-03
            2502            2959     4.41203E-03     4.02268E-03
            2520            2959     4.41203E-03     4.02268E-03
            2501            2959     4.41203E-03     4.02268E-03
            2519            2959     4.41203E-03     4.02268E-03
            2520            2960     4.28512E-03     3.93033E-03
            2503            2960     4.28512E-03     3.93033E-03
            2521            2960     4.28512E-03     3.93033E-03
            2502            2960     4.28512E-03     3.93033E-03
            2521            2961     4.16088E-03     3.84218E-03
            2522            2961     4.16088E-03     3.84218E-03
            2503            2961     4.16088E-03     3.84218E-03
            2504            2961     4.16088E-03     3.84218E-03
            2504            2962     4.04422E-03     3.76468E-03
            2523            2962     4.04422E-03     3.76468E-03
            2522            2962     4.04422E-03     3.76468E-03
            2505            2962     4.04422E-03     3.76468E-03
            2524            2963     3.93489E-03     3.69759E-03
            2506            2963     3.93489E-03     3.69759E-03
            2523            2963     3.93489E-03     3.69759E-03
            2505            2963     3.93489E-03     3.69759E-03
            2507            2964     3.83434E-03     3.64957E-03
            2506            2964     3.83434E-03     3.64957E-03
            2524            2964     3.83434E-03     3.64957E-03
            2525            2964     3.83434E-03     3.64957E-03
            2526            2965     3.73393E-03     3.62418E-03
            2508            2965     3.73393E-03     3.62418E-03
            2507            2965     3.73393E-03     3.62418E-03
            2525            2965     3.73393E-03     3.62418E-03
            2508            2966     3.61295E-03     3.66435E-03
            2527            2966     3.61295E-03     3.66435E-03
            2526            2966     3.61295E-03     3.66435E-03
            2509            2966     3.61295E-03     3.66435E-03
            2527            2967     3.50757E-03     3.77731E-03
            2528            2967     3.50757E-03     3.77731E-03
            2510            2967     3.50757E-03     3.77731E-03
            2509            2967     3.50757E-03     3.77731E-03
            2530            2968     3.00844E-03     2.86696E-03
            2511            2968     3.00844E-03     2.86696E-03
            2512            2968     3.00844E-03     2.86696E-03
            2529            2968     3.00844E-03     2.86696E-03
            2530            2969     3.44998E-03     3.30399E-03
            2512            2969     3.44998E-03     3.30399E-03
            2513            2969     3.44998E-03     3.30399E-03
            2531            2969     3.44998E-03     3.30399E-03
            2531            2970     4.52450E-03     4.25811E-03
            2513            2970     4.52450E-03     4.25811E-03
            2514            2970     4.52450E-03     4.25811E-03
            2532            2970     4.52450E-03     4.25811E-03
            2515            2971     4.85061E-03     4.56260E-03
            2533            2971     4.85061E-03     4.56260E-03
            2532            2971     4.85061E-03     4.56260E-03
            2514            2971     4.85061E-03     4.56260E-03
            2516            2972     4.87984E-03     4.58728E-03
            2534            2972     4.87984E-03     4.58728E-03
            2533            2972     4.87984E-03     4.58728E-03
            2515            2972     4.87984E-03     4.58728E-03
            2516            2973     4.75099E-03     4.47577E-03
            2535            2973     4.75099E-03     4.47577E-03
            2517            2973     4.75099E-03     4.47577E-03
            2534            2973     4.75099E-03     4.47577E-03
            2517            2974     4.59179E-03     4.33250E-03
            2518            2974     4.59179E-03     4.33250E-03
            2536            2974     4.59179E-03     4.33250E-03
            2535            2974     4.59179E-03     4.33250E-03
            2518            2975     4.42135E-03     4.17922E-03
            2519            2975     4.42135E-03     4.17922E-03
            2536            2975     4.42135E-03     4.17922E-03
            2537            2975     4.42135E-03     4.17922E-03
            2519            2976     4.25995E-03     4.03562E-03
            2520            2976     4.25995E-03     4.03562E-03
            2537            2976     4.25995E-03     4.03562E-03
            2538            2976     4.25995E-03     4.03562E-03
            2539            2977     4.10946E-03     3.90377E-03
            2520            2977     4.10946E-03     3.90377E-03
            2521            2977     4.10946E-03     3.90377E-03
            2538            2977     4.10946E-03     3.90377E-03
            2522            2978     3.97211E-03     3.78698E-03
            2539            2978     3.97211E-03     3.78698E-03
            2521            2978     3.97211E-03     3.78698E-03
            2540            2978     3.97211E-03     3.78698E-03
            2522            2979     3.84800E-03     3.68470E-03
            2540            2979     3.84800E-03     3.68470E-03
            2541            2979     3.84800E-03     3.68470E-03
            2523            2979     3.84800E-03     3.68470E-03
            2524            2980     3.73687E-03     3.60204E-03
            2523            2980     3.73687E-03     3.60204E-03
            2542            2980     3.73687E-03     3.60204E-03
            2541            2980     3.73687E-03     3.60204E-03
            2525            2981     3.64240E-03     3.53395E-03
            2524            2981     3.64240E-03     3.53395E-03
            2543            2981     3.64240E-03     3.53395E-03
            2542            2981     3.64240E-03     3.53395E-03
            2543            2982     3.54661E-03     3.50249E-03
            2544            2982     3.54661E-03     3.50249E-03
            2526            2982     3.54661E-03     3.50249E-03
            2525            2982     3.54661E-03     3.50249E-03
            2526            2983     3.48653E-03     3.50498E-03
            2545            2983     3.48653E-03     3.50498E-03
            2544            2983     3.48653E-03     3.50498E-03
            2527            2983     3.48653E-03     3.50498E-03
            2528            2984     3.54411E-03     3.42481E-03
            2546            2984     3.54411E-03     3.42481E-03
            2545            2984     3.54411E-03     3.42481E-03
            2527            2984     3.54411E-03     3.42481E-03
            2530            2985     4.29283E-03     4.25439E-03
            2548            2985     4.29283E-03     4.25439E-03
            2547            2985     4.29283E-03     4.25439E-03
            2529            2985     4.29283E-03     4.25439E-03
            2548            2986     4.14170E-03     4.28404E-03
            2549            2986     4.14170E-03     4.28404E-03
            2531            2986     4.14170E-03     4.28404E-03
            2530            2986     4.14170E-03     4.28404E-03
            2549            2987     4.78262E-03     4.83172E-03
            2531            2987     4.78262E-03     4.83172E-03
            2550            2987     4.78262E-03     4.83172E-03
            2532            2987     4.78262E-03     4.83172E-03
            2533            2988     5.01321E-03     4.96823E-03
            2551            2988     5.01321E-03     4.96823E-03
            2532            2988     5.01321E-03     4.96823E-03
            2550            2988     5.01321E-03     4.96823E-03
            2551            2989     4.89189E-03     4.84149E-03
            2534            2989     4.89189E-03     4.84149E-03
            2552            2989     4.89189E-03     4.84149E-03
            2533            2989     4.89189E-03     4.84149E-03
            2534            2990     4.70604E-03     4.64993E-03
            2535            2990     4.70604E-03     4.64993E-03
            2552            2990     4.70604E-03     4.64993E-03
            2553            2990     4.70604E-03     4.64993E-03
            2553            2991     4.48849E-03     4.43401E-03
            2554            2991     4.48849E-03     4.43401E-03
            2535            2991     4.48849E-03     4.43401E-03
            2536            2991     4.48849E-03     4.43401E-03
            2537            2992     4.28459E-03     4.23325E-03
            2555            2992     4.28459E-03     4.23325E-03
            2536            2992     4.28459E-03     4.23325E-03
            2554            2992     4.28459E-03     4.23325E-03
            2556            2993     4.09810E-03     4.04989E-03
            2538            2993     4.09810E-03     4.04989E-03
            2537            2993     4.09810E-03     4.04989E-03
            2555            2993     4.09810E-03     4.04989E-03
            2556            2994     3.93127E-03     3.88699E-03
            2539            2994     3.93127E-03     3.88699E-03
            2538            2994     3.93127E-03     3.88699E-03
            2557            2994     3.93127E-03     3.88699E-03
            2558            2995     3.78372E-03     3.74380E-03
            2557            2995     3.78372E-03     3.74380E-03
            2539            2995     3.78372E-03     3.74380E-03
            2540            2995     3.78372E-03     3.74380E-03
            2558            2996     3.65375E-03     3.62008E-03
            2559            2996     3.65375E-03     3.62008E-03
            2541            2996     3.65375E-03     3.62008E-03
            2540            2996     3.65375E-03     3.62008E-03
            2559            2997     3.54320E-03     3.51592E-03
            2542            2997     3.54320E-03     3.51592E-03
            2560            2997     3.54320E-03     3.51592E-03
            2541            2997     3.54320E-03     3.51592E-03
            2543            2998     3.45167E-03     3.43314E-03
            2560            2998     3.45167E-03     3.43314E-03
            2561            2998     3.45167E-03     3.43314E-03
            2542            2998     3.45167E-03     3.43314E-03
            2543            2999     3.40022E-03     3.35913E-03
            2544            2999     3.40022E-03     3.35913E-03
            2562            2999     3.40022E-03     3.35913E-03
            2561            2999     3.40022E-03     3.35913E-03
            2544            3000     3.40819E-03     3.25248E-03
            2563            3000     3.40819E-03     3.25248E-03
            2545            3000     3.40819E-03     3.25248E-03
            2562            3000     3.40819E-03     3.25248E-03
            2546            3001     3.43066E-03     3.13353E-03
            2564            3001     3.43066E-03     3.13353E-03
            2545            3001     3.43066E-03     3.13353E-03
            2563            3001     3.43066E-03     3.13353E-03
            2547            3002     5.79386E-03     5.93442E-03
            2566            3002     5.79386E-03     5.93442E-03
            2548            3002     5.79386E-03     5.93442E-03
            2565            3002     5.79386E-03     5.93442E-03
            2567            3003     5.16815E-03     5.32710E-03
            2566            3003     5.16815E-03     5.32710E-03
            2548            3003     5.16815E-03     5.32710E-03
            2549            3003     5.16815E-03     5.32710E-03
            2567            3004     5.05773E-03     5.26498E-03
            2550            3004     5.05773E-03     5.26498E-03
            2568            3004     5.05773E-03     5.26498E-03
            2549            3004     5.05773E-03     5.26498E-03
            2568            3005     4.93789E-03     5.13330E-03
            2551            3005     4.93789E-03     5.13330E-03
            2550            3005     4.93789E-03     5.13330E-03
            2569            3005     4.93789E-03     5.13330E-03
            2570            3006     4.76163E-03     4.93657E-03
            2552            3006     4.76163E-03     4.93657E-03
            2551            3006     4.76163E-03     4.93657E-03
            2569            3006     4.76163E-03     4.93657E-03
            2570            3007     4.53889E-03     4.69874E-03
            2552            3007     4.53889E-03     4.69874E-03
            2571            3007     4.53889E-03     4.69874E-03
            2553            3007     4.53889E-03     4.69874E-03
            2572            3008     4.31373E-03     4.46591E-03
            2554            3008     4.31373E-03     4.46591E-03
            2571            3008     4.31373E-03     4.46591E-03
            2553            3008     4.31373E-03     4.46591E-03
            2554            3009     4.10383E-03     4.24718E-03
            2572            3009     4.10383E-03     4.24718E-03
            2555            3009     4.10383E-03     4.24718E-03
            2573            3009     4.10383E-03     4.24718E-03
            2556            3010     3.91179E-03     4.04698E-03
            2574            3010     3.91179E-03     4.04698E-03
            2555            3010     3.91179E-03     4.04698E-03
            2573            3010     3.91179E-03     4.04698E-03
            2556            3011     3.74092E-03     3.86667E-03
            2557            3011     3.74092E-03     3.86667E-03
            2574            3011     3.74092E-03     3.86667E-03
            2575            3011     3.74092E-03     3.86667E-03
            2575            3012     3.58903E-03     3.70429E-03
            2557            3012     3.58903E-03     3.70429E-03
            2576            3012     3.58903E-03     3.70429E-03
            2558            3012     3.58903E-03     3.70429E-03
            2577            3013     3.45830E-03     3.56221E-03
            2558            3013     3.45830E-03     3.56221E-03
            2559            3013     3.45830E-03     3.56221E-03
            2576            3013     3.45830E-03     3.56221E-03
            2560            3014     3.34847E-03     3.43763E-03
            2578            3014     3.34847E-03     3.43763E-03
            2559            3014     3.34847E-03     3.43763E-03
            2577            3014     3.34847E-03     3.43763E-03
            2561            3015     3.26331E-03     3.33519E-03
            2560            3015     3.26331E-03     3.33519E-03
            2579            3015     3.26331E-03     3.33519E-03
            2578            3015     3.26331E-03     3.33519E-03
            2579            3016     3.22723E-03     3.23033E-03
            2580            3016     3.22723E-03     3.23033E-03
            2562            3016     3.22723E-03     3.23033E-03
            2561            3016     3.22723E-03     3.23033E-03
            2581            3017     3.24520E-03     3.09074E-03
            2580            3017     3.24520E-03     3.09074E-03
            2563            3017     3.24520E-03     3.09074E-03
            2562            3017     3.24520E-03     3.09074E-03
            2582            3018     3.27138E-03     2.97389E-03
            2563            3018     3.27138E-03     2.97389E-03
            2581            3018     3.27138E-03     2.97389E-03
            2564            3018     3.27138E-03     2.97389E-03
            2583            3019     7.50872E-03     7.49450E-03
            2565            3019     7.50872E-03     7.49450E-03
            2566            3019     7.50872E-03     7.49450E-03
            2584            3019     7.50872E-03     7.49450E-03
            2584            3020     5.97300E-03     6.22859E-03
            2567            3020     5.97300E-03     6.22859E-03
            2566            3020     5.97300E-03     6.22859E-03
            2585            3020     5.97300E-03     6.22859E-03
            2585            3021     5.08694E-03     5.48960E-03
            2586            3021     5.08694E-03     5.48960E-03
            2568            3021     5.08694E-03     5.48960E-03
            2567            3021     5.08694E-03     5.48960E-03
            2569            3022     4.72243E-03     5.14871E-03
            2568            3022     4.72243E-03     5.14871E-03
            2587            3022     4.72243E-03     5.14871E-03
            2586            3022     4.72243E-03     5.14871E-03
            2569            3023     4.50028E-03     4.89579E-03
            2570            3023     4.50028E-03     4.89579E-03
            2588            3023     4.50028E-03     4.89579E-03
            2587            3023     4.50028E-03     4.89579E-03
            2571            3024     4.27915E-03     4.65733E-03
            2588            3024     4.27915E-03     4.65733E-03
            2570            3024     4.27915E-03     4.65733E-03
            2589            3024     4.27915E-03     4.65733E-03
            2571            3025     4.07764E-03     4.43798E-03
            2590            3025     4.07764E-03     4.43798E-03
            2572            3025     4.07764E-03     4.43798E-03
            2589            3025     4.07764E-03     4.43798E-03
            2591            3026     3.88181E-03     4.22497E-03
            2572            3026     3.88181E-03     4.22497E-03
            2590            3026     3.88181E-03     4.22497E-03
            2573            3026     3.88181E-03     4.22497E-03
            2573            3027     3.70089E-03     4.02621E-03
            2592            3027     3.70089E-03     4.02621E-03
            2574            3027     3.70089E-03     4.02621E-03
            2591            3027     3.70089E-03     4.02621E-03
            2574            3028     3.53419E-03     3.83774E-03
            2593            3028     3.53419E-03     3.83774E-03
            2592            3028     3.53419E-03     3.83774E-03
            2575            3028     3.53419E-03     3.83774E-03
            2576            3029     3.38592E-03     3.66507E-03
            2575            3029     3.38592E-03     3.66507E-03
            2594            3029     3.38592E-03     3.66507E-03
            2593            3029     3.38592E-03     3.66507E-03
            2576            3030     3.25662E-03     3.50577E-03
            2594            3030     3.25662E-03     3.50577E-03
            2595            3030     3.25662E-03     3.50577E-03
            2577            3030     3.25662E-03     3.50577E-03
            2596            3031     3.14978E-03     3.36604E-03
            2577            3031     3.14978E-03     3.36604E-03
            2578            3031     3.14978E-03     3.36604E-03
            2595            3031     3.14978E-03     3.36604E-03
            2597            3032     3.07073E-03     3.23737E-03
            2596            3032     3.07073E-03     3.23737E-03
            2579            3032     3.07073E-03     3.23737E-03
            2578            3032     3.07073E-03     3.23737E-03
            2580            3033     3.00802E-03     3.13316E-03
            2579            3033     3.00802E-03     3.13316E-03
            2597            3033     3.00802E-03     3.13316E-03
            2598            3033     3.00802E-03     3.13316E-03
            2599            3034     2.99239E-03     3.04637E-03
            2598            3034     2.99239E-03     3.04637E-03
            2580            3034     2.99239E-03     3.04637E-03
            2581            3034     2.99239E-03     3.04637E-03
            2581            3035     3.06668E-03     2.90361E-03
            2599            3035     3.06668E-03     2.90361E-03
            2582            3035     3.06668E-03     2.90361E-03
            2600            3035     3.06668E-03     2.90361E-03
            2584            3036     8.54009E-03     9.15932E-03
            2601            3036     8.54009E-03     9.15932E-03
            2602            3036     8.54009E-03     9.15932E-03
            2583            3036     8.54009E-03     9.15932E-03
            2602            3037     5.96220E-03     6.68323E-03
            2603            3037     5.96220E-03     6.68323E-03
            2584            3037     5.96220E-03     6.68323E-03
            2585            3037     5.96220E-03     6.68323E-03
            2585            3038     4.88737E-03     5.58807E-03
            2603            3038     4.88737E-03     5.58807E-03
            2586            3038     4.88737E-03     5.58807E-03
            2604            3038     4.88737E-03     5.58807E-03
            2587            3039     4.45682E-03     5.11499E-03
            2604            3039     4.45682E-03     5.11499E-03
            2605            3039     4.45682E-03     5.11499E-03
            2586            3039     4.45682E-03     5.11499E-03
            2605            3040     4.18246E-03     4.81412E-03
            2587            3040     4.18246E-03     4.81412E-03
            2588            3040     4.18246E-03     4.81412E-03
            2606            3040     4.18246E-03     4.81412E-03
            2607            3041     3.99608E-03     4.59883E-03
            2606            3041     3.99608E-03     4.59883E-03
            2589            3041     3.99608E-03     4.59883E-03
            2588            3041     3.99608E-03     4.59883E-03
            2589            3042     3.81385E-03     4.39059E-03
            2590            3042     3.81385E-03     4.39059E-03
            2608            3042     3.81385E-03     4.39059E-03
            2607            3042     3.81385E-03     4.39059E-03
            2608            3043     3.64102E-03     4.19355E-03
            2609            3043     3.64102E-03     4.19355E-03
            2590            3043     3.64102E-03     4.19355E-03
            2591            3043     3.64102E-03     4.19355E-03
            2609            3044     3.47284E-03     3.99573E-03
            2591            3044     3.47284E-03     3.99573E-03
            2592            3044     3.47284E-03     3.99573E-03
            2610            3044     3.47284E-03     3.99573E-03
            2593            3045     3.31485E-03     3.80634E-03
            2610            3045     3.31485E-03     3.80634E-03
            2592            3045     3.31485E-03     3.80634E-03
            2611            3045     3.31485E-03     3.80634E-03
            2594            3046     3.17198E-03     3.62348E-03
            2611            3046     3.17198E-03     3.62348E-03
            2593            3046     3.17198E-03     3.62348E-03
            2612            3046     3.17198E-03     3.62348E-03
            2595            3047     3.04772E-03     3.45371E-03
            2613            3047     3.04772E-03     3.45371E-03
            2612            3047     3.04772E-03     3.45371E-03
            2594            3047     3.04772E-03     3.45371E-03
            2595            3048     2.94490E-03     3.29506E-03
            2613            3048     2.94490E-03     3.29506E-03
            2614            3048     2.94490E-03     3.29506E-03
            2596            3048     2.94490E-03     3.29506E-03
            2597            3049     2.86530E-03     3.15326E-03
            2596            3049     2.86530E-03     3.15326E-03
            2614            3049     2.86530E-03     3.15326E-03
            2615            3049     2.86530E-03     3.15326E-03
            2598            3050     2.80146E-03     3.03346E-03
            2597            3050     2.80146E-03     3.03346E-03
            2615            3050     2.80146E-03     3.03346E-03
            2616            3050     2.80146E-03     3.03346E-03
            2598            3051     2.74055E-03     2.96397E-03
            2617            3051     2.74055E-03     2.96397E-03
            2616            3051     2.74055E-03     2.96397E-03
            2599            3051     2.74055E-03     2.96397E-03
            2617            3052     2.70855E-03     2.94282E-03
            2618            3052     2.70855E-03     2.94282E-03
            2600            3052     2.70855E-03     2.94282E-03
            2599            3052     2.70855E-03     2.94282E-03
            2620            3053     8.86977E-03     9.10541E-03
            2619            3053     8.86977E-03     9.10541E-03
            2601            3053     8.86977E-03     9.10541E-03
            2602            3053     8.86977E-03     9.10541E-03
            2621            3054     8.15720E-03     8.15302E-03
            2603            3054     8.15720E-03     8.15302E-03
            2620            3054     8.15720E-03     8.15302E-03
            2602            3054     8.15720E-03     8.15302E-03
            2621            3055     7.93922E-03     7.92127E-03
            2603            3055     7.93922E-03     7.92127E-03
            2604            3055     7.93922E-03     7.92127E-03
            2622            3055     7.93922E-03     7.92127E-03
            2605            3056     7.76993E-03     7.79024E-03
            2604            3056     7.76993E-03     7.79024E-03
            2622            3056     7.76993E-03     7.79024E-03
            2623            3056     7.76993E-03     7.79024E-03
            2605            3057     7.58878E-03     7.63847E-03
            2606            3057     7.58878E-03     7.63847E-03
            2624            3057     7.58878E-03     7.63847E-03
            2623            3057     7.58878E-03     7.63847E-03
            2607            3058     7.37178E-03     7.44651E-03
            2624            3058     7.37178E-03     7.44651E-03
            2606            3058     7.37178E-03     7.44651E-03
            2625            3058     7.37178E-03     7.44651E-03
            2608            3059     7.10073E-03     7.19094E-03
            2625            3059     7.10073E-03     7.19094E-03
            2626            3059     7.10073E-03     7.19094E-03
            2607            3059     7.10073E-03     7.19094E-03
            2627            3060     6.79565E-03     6.89638E-03
            2609            3060     6.79565E-03     6.89638E-03
            2626            3060     6.79565E-03     6.89638E-03
            2608            3060     6.79565E-03     6.89638E-03
            2610            3061     6.46453E-03     6.56848E-03
            2627            3061     6.46453E-03     6.56848E-03
            2628            3061     6.46453E-03     6.56848E-03
            2609            3061     6.46453E-03     6.56848E-03
            2610            3062     6.12533E-03     6.22805E-03
            2628            3062     6.12533E-03     6.22805E-03
            2629            3062     6.12533E-03     6.22805E-03
            2611            3062     6.12533E-03     6.22805E-03
            2611            3063     5.78792E-03     5.88341E-03
            2629            3063     5.78792E-03     5.88341E-03
            2630            3063     5.78792E-03     5.88341E-03
            2612            3063     5.78792E-03     5.88341E-03
            2613            3064     5.46677E-03     5.55088E-03
            2630            3064     5.46677E-03     5.55088E-03
            2631            3064     5.46677E-03     5.55088E-03
            2612            3064     5.46677E-03     5.55088E-03
            2613            3065     5.16798E-03     5.23375E-03
            2614            3065     5.16798E-03     5.23375E-03
            2631            3065     5.16798E-03     5.23375E-03
            2632            3065     5.16798E-03     5.23375E-03
            2633            3066     4.90350E-03     4.95996E-03
            2614            3066     4.90350E-03     4.95996E-03
            2632            3066     4.90350E-03     4.95996E-03
            2615            3066     4.90350E-03     4.95996E-03
            2615            3067     4.67045E-03     4.71625E-03
            2633            3067     4.67045E-03     4.71625E-03
            2634            3067     4.67045E-03     4.71625E-03
            2616            3067     4.67045E-03     4.71625E-03
            2617            3068     4.46163E-03     4.59370E-03
            2634            3068     4.46163E-03     4.59370E-03
            2635            3068     4.46163E-03     4.59370E-03
            2616            3068     4.46163E-03     4.59370E-03
            2635            3069     4.11232E-03     4.67204E-03
            2636            3069     4.11232E-03     4.67204E-03
            2618            3069     4.11232E-03     4.67204E-03
            2617            3069     4.11232E-03     4.67204E-03
            2638            3070     9.74990E-03     9.19969E-03
            2637            3070     9.74990E-03     9.19969E-03
            2619            3070     9.74990E-03     9.19969E-03
            2620            3070     9.74990E-03     9.19969E-03
            2639            3071     10.9020E-03     10.2754E-03
            2620            3071     10.9020E-03     10.2754E-03
            2621            3071     10.9020E-03     10.2754E-03
            2638            3071     10.9020E-03     10.2754E-03
            2621            3072     11.5237E-03     10.8956E-03
            2640            3072     11.5237E-03     10.8956E-03
            2622            3072     11.5237E-03     10.8956E-03
            2639            3072     11.5237E-03     10.8956E-03
            2640            3073     11.6348E-03     11.0605E-03
            2641            3073     11.6348E-03     11.0605E-03
            2622            3073     11.6348E-03     11.0605E-03
            2623            3073     11.6348E-03     11.0605E-03
            2624            3074     11.4886E-03     10.9648E-03
            2641            3074     11.4886E-03     10.9648E-03
            2642            3074     11.4886E-03     10.9648E-03
            2623            3074     11.4886E-03     10.9648E-03
            2642            3075     11.1545E-03     10.6814E-03
            2625            3075     11.1545E-03     10.6814E-03
            2624            3075     11.1545E-03     10.6814E-03
            2643            3075     11.1545E-03     10.6814E-03
            2644            3076     10.7082E-03     10.2783E-03
            2626            3076     10.7082E-03     10.2783E-03
            2625            3076     10.7082E-03     10.2783E-03
            2643            3076     10.7082E-03     10.2783E-03
            2645            3077     10.1850E-03     9.79099E-03
            2626            3077     10.1850E-03     9.79099E-03
            2644            3077     10.1850E-03     9.79099E-03
            2627            3077     10.1850E-03     9.79099E-03
            2645            3078     9.61749E-03     9.25681E-03
            2628            3078     9.61749E-03     9.25681E-03
            2627            3078     9.61749E-03     9.25681E-03
            2646            3078     9.61749E-03     9.25681E-03
            2646            3079     9.03036E-03     8.69722E-03
            2647            3079     9.03036E-03     8.69722E-03
            2629            3079     9.03036E-03     8.69722E-03
            2628            3079     9.03036E-03     8.69722E-03
            2630            3080     8.44045E-03     8.13674E-03
            2648            3080     8.44045E-03     8.13674E-03
            2647            3080     8.44045E-03     8.13674E-03
            2629            3080     8.44045E-03     8.13674E-03
            2631            3081     7.86829E-03     7.59359E-03
            2630            3081     7.86829E-03     7.59359E-03
            2649            3081     7.86829E-03     7.59359E-03
            2648            3081     7.86829E-03     7.59359E-03
            2650            3082     7.32361E-03     7.08959E-03
            2649            3082     7.32361E-03     7.08959E-03
            2632            3082     7.32361E-03     7.08959E-03
            2631            3082     7.32361E-03     7.08959E-03
            2651            3083     6.82485E-03     6.65103E-03
            2650            3083     6.82485E-03     6.65103E-03
            2633            3083     6.82485E-03     6.65103E-03
            2632            3083     6.82485E-03     6.65103E-03
            2651            3084     6.36895E-03     6.30593E-03
            2652            3084     6.36895E-03     6.30593E-03
            2633            3084     6.36895E-03     6.30593E-03
            2634            3084     6.36895E-03     6.30593E-03
            2634            3085     5.93637E-03     6.15490E-03
            2653            3085     5.93637E-03     6.15490E-03
            2635            3085     5.93637E-03     6.15490E-03
            2652            3085     5.93637E-03     6.15490E-03
            2636            3086     5.59777E-03     6.23335E-03
            2635            3086     5.59777E-03     6.23335E-03
            2653            3086     5.59777E-03     6.23335E-03
            2654            3086     5.59777E-03     6.23335E-03
            2638            3087     11.3092E-03     11.3105E-03
            2656            3087     11.3092E-03     11.3105E-03
            2655            3087     11.3092E-03     11.3105E-03
            2637            3087     11.3092E-03     11.3105E-03
            2638            3088     11.7279E-03     11.7008E-03
            2656            3088     11.7279E-03     11.7008E-03
            2639            3088     11.7279E-03     11.7008E-03
            2657            3088     11.7279E-03     11.7008E-03
            2640            3089     12.3057E-03     12.1388E-03
            2658            3089     12.3057E-03     12.1388E-03
            2657            3089     12.3057E-03     12.1388E-03
            2639            3089     12.3057E-03     12.1388E-03
            2659            3090     12.3672E-03     12.1255E-03
            2640            3090     12.3672E-03     12.1255E-03
            2641            3090     12.3672E-03     12.1255E-03
            2658            3090     12.3672E-03     12.1255E-03
            2642            3091     12.1079E-03     11.8413E-03
            2641            3091     12.1079E-03     11.8413E-03
            2659            3091     12.1079E-03     11.8413E-03
            2660            3091     12.1079E-03     11.8413E-03
            2642            3092     11.6458E-03     11.3744E-03
            2661            3092     11.6458E-03     11.3744E-03
            2660            3092     11.6458E-03     11.3744E-03
            2643            3092     11.6458E-03     11.3744E-03
            2644            3093     11.0590E-03     10.7940E-03
            2662            3093     11.0590E-03     10.7940E-03
            2661            3093     11.0590E-03     10.7940E-03
            2643            3093     11.0590E-03     10.7940E-03
            2662            3094     10.4007E-03     10.1487E-03
            2663            3094     10.4007E-03     10.1487E-03
            2644            3094     10.4007E-03     10.1487E-03
            2645            3094     10.4007E-03     10.1487E-03
            2663            3095     9.70860E-03     9.46996E-03
            2664            3095     9.70860E-03     9.46996E-03
            2646            3095     9.70860E-03     9.46996E-03
            2645            3095     9.70860E-03     9.46996E-03
            2665            3096     9.00537E-03     8.78394E-03
            2646            3096     9.00537E-03     8.78394E-03
            2664            3096     9.00537E-03     8.78394E-03
            2647            3096     9.00537E-03     8.78394E-03
            2647            3097     8.31178E-03     8.11071E-03
            2666            3097     8.31178E-03     8.11071E-03
            2665            3097     8.31178E-03     8.11071E-03
            2648            3097     8.31178E-03     8.11071E-03
            2667            3098     7.64120E-03     7.46872E-03
            2666            3098     7.64120E-03     7.46872E-03
            2649            3098     7.64120E-03     7.46872E-03
            2648            3098     7.64120E-03     7.46872E-03
            2668            3099     7.00537E-03     6.88261E-03
            2649            3099     7.00537E-03     6.88261E-03
            2667            3099     7.00537E-03     6.88261E-03
            2650            3099     7.00537E-03     6.88261E-03
            2650            3100     6.41939E-03     6.37508E-03
            2668            3100     6.41939E-03     6.37508E-03
            2669            3100     6.41939E-03     6.37508E-03
            2651            3100     6.41939E-03     6.37508E-03
            2669            3101     5.87964E-03     5.99745E-03
            2670            3101     5.87964E-03     5.99745E-03
            2651            3101     5.87964E-03     5.99745E-03
            2652            3101     5.87964E-03     5.99745E-03
            2652            3102     5.44938E-03     5.78249E-03
            2670            3102     5.44938E-03     5.78249E-03
            2653            3102     5.44938E-03     5.78249E-03
            2671            3102     5.44938E-03     5.78249E-03
            2653            3103     5.32415E-03     5.54763E-03
            2654            3103     5.32415E-03     5.54763E-03
            2671            3103     5.32415E-03     5.54763E-03
            2672            3103     5.32415E-03     5.54763E-03
            2674            3104     13.1093E-03     13.1718E-03
            2655            3104     13.1093E-03     13.1718E-03
            2656            3104     13.1093E-03     13.1718E-03
            2673            3104     13.1093E-03     13.1718E-03
            2675            3105     12.8814E-03     13.0821E-03
            2657            3105     12.8814E-03     13.0821E-03
            2656            3105     12.8814E-03     13.0821E-03
            2674            3105     12.8814E-03     13.0821E-03
            2676            3106     13.0334E-03     13.1676E-03
            2657            3106     13.0334E-03     13.1676E-03
            2658            3106     13.0334E-03     13.1676E-03
            2675            3106     13.0334E-03     13.1676E-03
            2659            3107     12.9699E-03     13.0078E-03
            2677            3107     12.9699E-03     13.0078E-03
            2676            3107     12.9699E-03     13.0078E-03
            2658            3107     12.9699E-03     13.0078E-03
            2659            3108     12.5984E-03     12.5694E-03
            2678            3108     12.5984E-03     12.5694E-03
            2677            3108     12.5984E-03     12.5694E-03
            2660            3108     12.5984E-03     12.5694E-03
            2678            3109     12.0282E-03     11.9589E-03
            2679            3109     12.0282E-03     11.9589E-03
            2660            3109     12.0282E-03     11.9589E-03
            2661            3109     12.0282E-03     11.9589E-03
            2680            3110     11.3295E-03     11.2417E-03
            2662            3110     11.3295E-03     11.2417E-03
            2679            3110     11.3295E-03     11.2417E-03
            2661            3110     11.3295E-03     11.2417E-03
            2663            3111     10.5672E-03     10.4691E-03
            2662            3111     10.5672E-03     10.4691E-03
            2680            3111     10.5672E-03     10.4691E-03
            2681            3111     10.5672E-03     10.4691E-03
            2663            3112     9.77299E-03     9.67517E-03
            2664            3112     9.77299E-03     9.67517E-03
            2681            3112     9.77299E-03     9.67517E-03
            2682            3112     9.77299E-03     9.67517E-03
            2664            3113     8.97761E-03     8.88464E-03
            2665            3113     8.97761E-03     8.88464E-03
            2683            3113     8.97761E-03     8.88464E-03
            2682            3113     8.97761E-03     8.88464E-03
            2684            3114     8.19565E-03     8.11522E-03
            2683            3114     8.19565E-03     8.11522E-03
            2666            3114     8.19565E-03     8.11522E-03
            2665            3114     8.19565E-03     8.11522E-03
            2684            3115     7.44159E-03     7.38631E-03
            2667            3115     7.44159E-03     7.38631E-03
            2666            3115     7.44159E-03     7.38631E-03
            2685            3115     7.44159E-03     7.38631E-03
            2685            3116     6.73064E-03     6.71659E-03
            2667            3116     6.73064E-03     6.71659E-03
            2686            3116     6.73064E-03     6.71659E-03
            2668            3116     6.73064E-03     6.71659E-03
            2668            3117     6.07336E-03     6.13138E-03
            2669            3117     6.07336E-03     6.13138E-03
            2686            3117     6.07336E-03     6.13138E-03
            2687            3117     6.07336E-03     6.13138E-03
            2669            3118     5.50783E-03     5.66258E-03
            2670            3118     5.50783E-03     5.66258E-03
            2688            3118     5.50783E-03     5.66258E-03
            2687            3118     5.50783E-03     5.66258E-03
            2688            3119     5.13132E-03     5.24706E-03
            2670            3119     5.13132E-03     5.24706E-03
            2689            3119     5.13132E-03     5.24706E-03
            2671            3119     5.13132E-03     5.24706E-03
            2690            3120     4.92584E-03     4.86642E-03
            2672            3120     4.92584E-03     4.86642E-03
            2671            3120     4.92584E-03     4.86642E-03
            2689            3120     4.92584E-03     4.86642E-03
            2691            3121     14.7474E-03     14.8787E-03
            2674            3121     14.7474E-03     14.8787E-03
            2673            3121     14.7474E-03     14.8787E-03
            2692            3121     14.7474E-03     14.8787E-03
            2693            3122     14.1602E-03     14.3938E-03
            2674            3122     14.1602E-03     14.3938E-03
            2675            3122     14.1602E-03     14.3938E-03
            2692            3122     14.1602E-03     14.3938E-03
            2694            3123     13.8303E-03     14.1096E-03
            2676            3123     13.8303E-03     14.1096E-03
            2693            3123     13.8303E-03     14.1096E-03
            2675            3123     13.8303E-03     14.1096E-03
            2695            3124     13.4934E-03     13.7166E-03
            2694            3124     13.4934E-03     13.7166E-03
            2676            3124     13.4934E-03     13.7166E-03
            2677            3124     13.4934E-03     13.7166E-03
            2696            3125     12.9696E-03     13.1290E-03
            2678            3125     12.9696E-03     13.1290E-03
            2695            3125     12.9696E-03     13.1290E-03
            2677            3125     12.9696E-03     13.1290E-03
            2678            3126     12.2762E-03     12.3898E-03
            2697            3126     12.2762E-03     12.3898E-03
            2696            3126     12.2762E-03     12.3898E-03
            2679            3126     12.2762E-03     12.3898E-03
            2680            3127     11.4859E-03     11.5631E-03
            2698            3127     11.4859E-03     11.5631E-03
            2697            3127     11.4859E-03     11.5631E-03
            2679            3127     11.4859E-03     11.5631E-03
            2680            3128     10.6352E-03     10.6937E-03
            2699            3128     10.6352E-03     10.6937E-03
            2681            3128     10.6352E-03     10.6937E-03
            2698            3128     10.6352E-03     10.6937E-03
            2700            3129     9.76948E-03     9.81519E-03
            2681            3129     9.76948E-03     9.81519E-03
            2682            3129     9.76948E-03     9.81519E-03
            2699            3129     9.76948E-03     9.81519E-03
            2701            3130     8.90358E-03     8.94581E-03
            2683            3130     8.90358E-03     8.94581E-03
            2700            3130     8.90358E-03     8.94581E-03
            2682            3130     8.90358E-03     8.94581E-03
            2701            3131     8.05723E-03     8.10350E-03
            2702            3131     8.05723E-03     8.10350E-03
            2683            3131     8.05723E-03     8.10350E-03
            2684            3131     8.05723E-03     8.10350E-03
            2702            3132     7.24216E-03     7.30180E-03
            2685            3132     7.24216E-03     7.30180E-03
            2703            3132     7.24216E-03     7.30180E-03
            2684            3132     7.24216E-03     7.30180E-03
            2704            3133     6.47285E-03     6.55629E-03
            2703            3133     6.47285E-03     6.55629E-03
            2686            3133     6.47285E-03     6.55629E-03
            2685            3133     6.47285E-03     6.55629E-03
            2705            3134     5.77254E-03     5.88881E-03
            2687            3134     5.77254E-03     5.88881E-03
            2704            3134     5.77254E-03     5.88881E-03
            2686            3134     5.77254E-03     5.88881E-03
            2706            3135     5.19272E-03     5.29310E-03
            2688            3135     5.19272E-03     5.29310E-03
            2705            3135     5.19272E-03     5.29310E-03
            2687            3135     5.19272E-03     5.29310E-03
            2688            3136     4.76153E-03     4.77520E-03
            2707            3136     4.76153E-03     4.77520E-03
            2689            3136     4.76153E-03     4.77520E-03
            2706            3136     4.76153E-03     4.77520E-03
            2707            3137     4.51391E-03     4.42407E-03
            2689            3137     4.51391E-03     4.42407E-03
            2708            3137     4.51391E-03     4.42407E-03
            2690            3137     4.51391E-03     4.42407E-03
            2709            3138     16.3126E-03     16.4701E-03
            2691            3138     16.3126E-03     16.4701E-03
            2692            3138     16.3126E-03     16.4701E-03
            2710            3138     16.3126E-03     16.4701E-03
            2692            3139     15.3531E-03     15.6421E-03
            2711            3139     15.3531E-03     15.6421E-03
            2693            3139     15.3531E-03     15.6421E-03
            2710            3139     15.3531E-03     15.6421E-03
            2711            3140     14.6587E-03     14.9849E-03
            2694            3140     14.6587E-03     14.9849E-03
            2693            3140     14.6587E-03     14.9849E-03
            2712            3140     14.6587E-03     14.9849E-03
            2695            3141     13.9742E-03     14.3086E-03
            2712            3141     13.9742E-03     14.3086E-03
            2694            3141     13.9742E-03     14.3086E-03
            2713            3141     13.9742E-03     14.3086E-03
            2714            3142     13.2296E-03     13.5323E-03
            2695            3142     13.2296E-03     13.5323E-03
            2696            3142     13.2296E-03     13.5323E-03
            2713            3142     13.2296E-03     13.5323E-03
            2715            3143     12.4027E-03     12.6610E-03
            2697            3143     12.4027E-03     12.6610E-03
            2696            3143     12.4027E-03     12.6610E-03
            2714            3143     12.4027E-03     12.6610E-03
            2698            3144     11.5082E-03     11.7384E-03
            2716            3144     11.5082E-03     11.7384E-03
            2715            3144     11.5082E-03     11.7384E-03
            2697            3144     11.5082E-03     11.7384E-03
            2698            3145     10.5959E-03     10.7993E-03
            2717            3145     10.5959E-03     10.7993E-03
            2716            3145     10.5959E-03     10.7993E-03
            2699            3145     10.5959E-03     10.7993E-03
            2700            3146     9.67353E-03     9.86027E-03
            2699            3146     9.67353E-03     9.86027E-03
            2718            3146     9.67353E-03     9.86027E-03
            2717            3146     9.67353E-03     9.86027E-03
            2700            3147     8.76387E-03     8.93945E-03
            2718            3147     8.76387E-03     8.93945E-03
            2701            3147     8.76387E-03     8.93945E-03
            2719            3147     8.76387E-03     8.93945E-03
            2719            3148     7.87442E-03     8.04518E-03
            2701            3148     7.87442E-03     8.04518E-03
            2702            3148     7.87442E-03     8.04518E-03
            2720            3148     7.87442E-03     8.04518E-03
            2702            3149     7.01893E-03     7.18844E-03
            2703            3149     7.01893E-03     7.18844E-03
            2721            3149     7.01893E-03     7.18844E-03
            2720            3149     7.01893E-03     7.18844E-03
            2704            3150     6.21137E-03     6.38122E-03
            2721            3150     6.21137E-03     6.38122E-03
            2722            3150     6.21137E-03     6.38122E-03
            2703            3150     6.21137E-03     6.38122E-03
            2705            3151     5.48107E-03     5.63175E-03
            2722            3151     5.48107E-03     5.63175E-03
            2704            3151     5.48107E-03     5.63175E-03
            2723            3151     5.48107E-03     5.63175E-03
            2706            3152     4.85877E-03     4.95100E-03
            2705            3152     4.85877E-03     4.95100E-03
            2724            3152     4.85877E-03     4.95100E-03
            2723            3152     4.85877E-03     4.95100E-03
            2724            3153     4.38944E-03     4.38599E-03
            2706            3153     4.38944E-03     4.38599E-03
            2707            3153     4.38944E-03     4.38599E-03
            2725            3153     4.38944E-03     4.38599E-03
            2708            3154     4.11509E-03     3.95997E-03
            2707            3154     4.11509E-03     3.95997E-03
            2726            3154     4.11509E-03     3.95997E-03
            2725            3154     4.11509E-03     3.95997E-03
            2710            3155     17.7820E-03     18.0195E-03
            2727            3155     17.7820E-03     18.0195E-03
            2728            3155     17.7820E-03     18.0195E-03
            2709            3155     17.7820E-03     18.0195E-03
            2729            3156     16.5201E-03     16.8069E-03
            2711            3156     16.5201E-03     16.8069E-03
            2710            3156     16.5201E-03     16.8069E-03
            2728            3156     16.5201E-03     16.8069E-03
            2712            3157     15.4016E-03     15.7833E-03
            2730            3157     15.4016E-03     15.7833E-03
            2711            3157     15.4016E-03     15.7833E-03
            2729            3157     15.4016E-03     15.7833E-03
            2731            3158     14.3827E-03     14.7895E-03
            2713            3158     14.3827E-03     14.7895E-03
            2712            3158     14.3827E-03     14.7895E-03
            2730            3158     14.3827E-03     14.7895E-03
            2731            3159     13.3857E-03     13.7829E-03
            2732            3159     13.3857E-03     13.7829E-03
            2713            3159     13.3857E-03     13.7829E-03
            2714            3159     13.3857E-03     13.7829E-03
            2732            3160     12.3876E-03     12.7743E-03
            2733            3160     12.3876E-03     12.7743E-03
            2714            3160     12.3876E-03     12.7743E-03
            2715            3160     12.3876E-03     12.7743E-03
            2715            3161     11.4132E-03     11.7736E-03
            2734            3161     11.4132E-03     11.7736E-03
            2716            3161     11.4132E-03     11.7736E-03
            2733            3161     11.4132E-03     11.7736E-03
            2716            3162     10.4418E-03     10.7806E-03
            2735            3162     10.4418E-03     10.7806E-03
            2734            3162     10.4418E-03     10.7806E-03
            2717            3162     10.4418E-03     10.7806E-03
            2717            3163     9.48797E-03     9.80794E-03
            2718            3163     9.48797E-03     9.80794E-03
            2735            3163     9.48797E-03     9.80794E-03
            2736            3163     9.48797E-03     9.80794E-03
            2737            3164     8.55098E-03     8.85563E-03
            2736            3164     8.55098E-03     8.85563E-03
            2718            3164     8.55098E-03     8.85563E-03
            2719            3164     8.55098E-03     8.85563E-03
            2738            3165     7.63886E-03     7.93069E-03
            2737            3165     7.63886E-03     7.93069E-03
            2719            3165     7.63886E-03     7.93069E-03
            2720            3165     7.63886E-03     7.93069E-03
            2720            3166     6.75894E-03     7.03743E-03
            2721            3166     6.75894E-03     7.03743E-03
            2739            3166     6.75894E-03     7.03743E-03
            2738            3166     6.75894E-03     7.03743E-03
            2721            3167     5.92807E-03     6.18235E-03
            2740            3167     5.92807E-03     6.18235E-03
            2722            3167     5.92807E-03     6.18235E-03
            2739            3167     5.92807E-03     6.18235E-03
            2740            3168     5.16687E-03     5.37287E-03
            2723            3168     5.16687E-03     5.37287E-03
            2722            3168     5.16687E-03     5.37287E-03
            2741            3168     5.16687E-03     5.37287E-03
            2723            3169     4.50944E-03     4.63701E-03
            2741            3169     4.50944E-03     4.63701E-03
            2742            3169     4.50944E-03     4.63701E-03
            2724            3169     4.50944E-03     4.63701E-03
            2724            3170     4.00396E-03     3.99906E-03
            2742            3170     4.00396E-03     3.99906E-03
            2743            3170     4.00396E-03     3.99906E-03
            2725            3170     4.00396E-03     3.99906E-03
            2744            3171     3.68964E-03     3.53973E-03
            2726            3171     3.68964E-03     3.53973E-03
            2725            3171     3.68964E-03     3.53973E-03
            2743            3171     3.68964E-03     3.53973E-03
            2728            3172     19.2859E-03     19.5007E-03
            2745            3172     19.2859E-03     19.5007E-03
            2746            3172     19.2859E-03     19.5007E-03
            2727            3172     19.2859E-03     19.5007E-03
            2746            3173     17.5646E-03     17.9315E-03
            2747            3173     17.5646E-03     17.9315E-03
            2728            3173     17.5646E-03     17.9315E-03
            2729            3173     17.5646E-03     17.9315E-03
            2748            3174     16.0479E-03     16.4573E-03
            2747            3174     16.0479E-03     16.4573E-03
            2730            3174     16.0479E-03     16.4573E-03
            2729            3174     16.0479E-03     16.4573E-03
            2730            3175     14.6456E-03     15.0979E-03
            2748            3175     14.6456E-03     15.0979E-03
            2749            3175     14.6456E-03     15.0979E-03
            2731            3175     14.6456E-03     15.0979E-03
            2731            3176     13.3715E-03     13.8670E-03
            2750            3176     13.3715E-03     13.8670E-03
            2749            3176     13.3715E-03     13.8670E-03
            2732            3176     13.3715E-03     13.8670E-03
            2751            3177     12.2519E-03     12.7440E-03
            2750            3177     12.2519E-03     12.7440E-03
            2732            3177     12.2519E-03     12.7440E-03
            2733            3177     12.2519E-03     12.7440E-03
            2751            3178     11.1975E-03     11.6769E-03
            2733            3178     11.1975E-03     11.6769E-03
            2752            3178     11.1975E-03     11.6769E-03
            2734            3178     11.1975E-03     11.6769E-03
            2752            3179     10.1935E-03     10.6573E-03
            2753            3179     10.1935E-03     10.6573E-03
            2735            3179     10.1935E-03     10.6573E-03
            2734            3179     10.1935E-03     10.6573E-03
            2753            3180     9.22106E-03     9.66711E-03
            2754            3180     9.22106E-03     9.66711E-03
            2736            3180     9.22106E-03     9.66711E-03
            2735            3180     9.22106E-03     9.66711E-03
            2754            3181     8.27377E-03     8.70447E-03
            2736            3181     8.27377E-03     8.70447E-03
            2755            3181     8.27377E-03     8.70447E-03
            2737            3181     8.27377E-03     8.70447E-03
            2755            3182     7.35205E-03     7.76552E-03
            2738            3182     7.35205E-03     7.76552E-03
            2737            3182     7.35205E-03     7.76552E-03
            2756            3182     7.35205E-03     7.76552E-03
            2756            3183     6.46075E-03     6.85169E-03
            2757            3183     6.46075E-03     6.85169E-03
            2739            3183     6.46075E-03     6.85169E-03
            2738            3183     6.46075E-03     6.85169E-03
            2739            3184     5.61094E-03     5.96614E-03
            2758            3184     5.61094E-03     5.96614E-03
            2757            3184     5.61094E-03     5.96614E-03
            2740            3184     5.61094E-03     5.96614E-03
            2741            3185     4.82512E-03     5.11976E-03
            2758            3185     4.82512E-03     5.11976E-03
            2740            3185     4.82512E-03     5.11976E-03
            2759            3185     4.82512E-03     5.11976E-03
            2742            3186     4.13744E-03     4.32485E-03
            2759            3186     4.13744E-03     4.32485E-03
            2760            3186     4.13744E-03     4.32485E-03
            2741            3186     4.13744E-03     4.32485E-03
            2742            3187     3.58843E-03     3.63658E-03
            2760            3187     3.58843E-03     3.63658E-03
            2743            3187     3.58843E-03     3.63658E-03
            2761            3187     3.58843E-03     3.63658E-03
            2761            3188     3.25047E-03     3.12174E-03
            2744            3188     3.25047E-03     3.12174E-03
            2762            3188     3.25047E-03     3.12174E-03
            2743            3188     3.25047E-03     3.12174E-03
            2746            3189     20.6906E-03     21.0842E-03
            2745            3189     20.6906E-03     21.0842E-03
            2764            3189     20.6906E-03     21.0842E-03
            2763            3189     20.6906E-03     21.0842E-03
            2764            3190     18.5598E-03     18.8845E-03
            2747            3190     18.5598E-03     18.8845E-03
            2746            3190     18.5598E-03     18.8845E-03
            2765            3190     18.5598E-03     18.8845E-03
            2748            3191     16.4404E-03     16.8690E-03
            2747            3191     16.4404E-03     16.8690E-03
            2765            3191     16.4404E-03     16.8690E-03
            2766            3191     16.4404E-03     16.8690E-03
            2749            3192     14.6157E-03     15.1681E-03
            2748            3192     14.6157E-03     15.1681E-03
            2766            3192     14.6157E-03     15.1681E-03
            2767            3192     14.6157E-03     15.1681E-03
            2750            3193     13.2047E-03     13.7906E-03
            2767            3193     13.2047E-03     13.7906E-03
            2749            3193     13.2047E-03     13.7906E-03
            2768            3193     13.2047E-03     13.7906E-03
            2751            3194     11.9871E-03     12.5786E-03
            2750            3194     11.9871E-03     12.5786E-03
            2768            3194     11.9871E-03     12.5786E-03
            2769            3194     11.9871E-03     12.5786E-03
            2769            3195     10.8923E-03     11.4835E-03
            2770            3195     10.8923E-03     11.4835E-03
            2751            3195     10.8923E-03     11.4835E-03
            2752            3195     10.8923E-03     11.4835E-03
            2770            3196     9.87362E-03     10.4532E-03
            2753            3196     9.87362E-03     10.4532E-03
            2771            3196     9.87362E-03     10.4532E-03
            2752            3196     9.87362E-03     10.4532E-03
            2754            3197     8.89582E-03     9.46584E-03
            2771            3197     8.89582E-03     9.46584E-03
            2772            3197     8.89582E-03     9.46584E-03
            2753            3197     8.89582E-03     9.46584E-03
            2772            3198     7.94999E-03     8.50605E-03
            2755            3198     7.94999E-03     8.50605E-03
            2754            3198     7.94999E-03     8.50605E-03
            2773            3198     7.94999E-03     8.50605E-03
            2755            3199     7.02664E-03     7.56653E-03
            2773            3199     7.02664E-03     7.56653E-03
            2756            3199     7.02664E-03     7.56653E-03
            2774            3199     7.02664E-03     7.56653E-03
            2756            3200     6.12972E-03     6.64518E-03
            2774            3200     6.12972E-03     6.64518E-03
            2757            3200     6.12972E-03     6.64518E-03
            2775            3200     6.12972E-03     6.64518E-03
            2775            3201     5.26652E-03     5.74399E-03
            2776            3201     5.26652E-03     5.74399E-03
            2758            3201     5.26652E-03     5.74399E-03
            2757            3201     5.26652E-03     5.74399E-03
            2759            3202     4.45483E-03     4.86980E-03
            2777            3202     4.45483E-03     4.86980E-03
            2776            3202     4.45483E-03     4.86980E-03
            2758            3202     4.45483E-03     4.86980E-03
            2760            3203     3.72939E-03     4.03972E-03
            2777            3203     3.72939E-03     4.03972E-03
            2778            3203     3.72939E-03     4.03972E-03
            2759            3203     3.72939E-03     4.03972E-03
            2779            3204     3.15166E-03     3.28288E-03
            2760            3204     3.15166E-03     3.28288E-03
            2778            3204     3.15166E-03     3.28288E-03
            2761            3204     3.15166E-03     3.28288E-03
            2779            3205     2.77604E-03     2.69843E-03
            2762            3205     2.77604E-03     2.69843E-03
            2761            3205     2.77604E-03     2.69843E-03
            2780            3205     2.77604E-03     2.69843E-03
            2763            3206     22.2606E-03     22.3296E-03
            2764            3206     22.2606E-03     22.3296E-03
            2782            3206     22.2606E-03     22.3296E-03
            2781            3206     22.2606E-03     22.3296E-03
            2765            3207     19.0713E-03     19.4424E-03
            2764            3207     19.0713E-03     19.4424E-03
            2783            3207     19.0713E-03     19.4424E-03
            2782            3207     19.0713E-03     19.4424E-03
            2783            3208     16.2650E-03     16.8675E-03
            2784            3208     16.2650E-03     16.8675E-03
            2765            3208     16.2650E-03     16.8675E-03
            2766            3208     16.2650E-03     16.8675E-03
            2766            3209     14.3686E-03     15.0294E-03
            2785            3209     14.3686E-03     15.0294E-03
            2767            3209     14.3686E-03     15.0294E-03
            2784            3209     14.3686E-03     15.0294E-03
            2786            3210     12.8895E-03     13.5639E-03
            2785            3210     12.8895E-03     13.5639E-03
            2768            3210     12.8895E-03     13.5639E-03
            2767            3210     12.8895E-03     13.5639E-03
            2768            3211     11.6383E-03     12.3292E-03
            2786            3211     11.6383E-03     12.3292E-03
            2769            3211     11.6383E-03     12.3292E-03
            2787            3211     11.6383E-03     12.3292E-03
            2770            3212     10.5397E-03     11.2319E-03
            2769            3212     10.5397E-03     11.2319E-03
            2788            3212     10.5397E-03     11.2319E-03
            2787            3212     10.5397E-03     11.2319E-03
            2771            3213     9.51582E-03     10.2112E-03
            2789            3213     9.51582E-03     10.2112E-03
            2788            3213     9.51582E-03     10.2112E-03
            2770            3213     9.51582E-03     10.2112E-03
            2789            3214     8.54578E-03     9.23816E-03
            2771            3214     8.54578E-03     9.23816E-03
            2790            3214     8.54578E-03     9.23816E-03
            2772            3214     8.54578E-03     9.23816E-03
            2791            3215     7.60262E-03     8.28958E-03
            2773            3215     7.60262E-03     8.28958E-03
            2772            3215     7.60262E-03     8.28958E-03
            2790            3215     7.60262E-03     8.28958E-03
            2774            3216     6.68297E-03     7.35798E-03
            2773            3216     6.68297E-03     7.35798E-03
            2792            3216     6.68297E-03     7.35798E-03
            2791            3216     6.68297E-03     7.35798E-03
            2774            3217     5.78175E-03     6.43716E-03
            2792            3217     5.78175E-03     6.43716E-03
            2775            3217     5.78175E-03     6.43716E-03
            2793            3217     5.78175E-03     6.43716E-03
            2776            3218     4.90644E-03     5.52845E-03
            2793            3218     4.90644E-03     5.52845E-03
            2794            3218     4.90644E-03     5.52845E-03
            2775            3218     4.90644E-03     5.52845E-03
            2776            3219     4.06835E-03     4.63703E-03
            2777            3219     4.06835E-03     4.63703E-03
            2794            3219     4.06835E-03     4.63703E-03
            2795            3219     4.06835E-03     4.63703E-03
            2778            3220     3.29566E-03     3.77970E-03
            2795            3220     3.29566E-03     3.77970E-03
            2777            3220     3.29566E-03     3.77970E-03
            2796            3220     3.29566E-03     3.77970E-03
            2778            3221     2.65414E-03     2.97945E-03
            2796            3221     2.65414E-03     2.97945E-03
            2797            3221     2.65414E-03     2.97945E-03
            2779            3221     2.65414E-03     2.97945E-03
            2798            3222     2.26164E-03     2.30282E-03
            2779            3222     2.26164E-03     2.30282E-03
            2797            3222     2.26164E-03     2.30282E-03
            2780            3222     2.26164E-03     2.30282E-03
            2799            3223     22.8202E-03     23.4851E-03
            2781            3223     22.8202E-03     23.4851E-03
            2782            3223     22.8202E-03     23.4851E-03
            2800            3223     22.8202E-03     23.4851E-03
            2783            3224     18.4800E-03     19.3021E-03
            2782            3224     18.4800E-03     19.3021E-03
            2800            3224     18.4800E-03     19.3021E-03
            2801            3224     18.4800E-03     19.3021E-03
            2784            3225     15.8124E-03     16.5824E-03
            2802            3225     15.8124E-03     16.5824E-03
            2801            3225     15.8124E-03     16.5824E-03
            2783            3225     15.8124E-03     16.5824E-03
            2785            3226     13.9952E-03     14.7411E-03
            2802            3226     13.9952E-03     14.7411E-03
            2803            3226     13.9952E-03     14.7411E-03
            2784            3226     13.9952E-03     14.7411E-03
            2786            3227     12.5137E-03     13.2710E-03
            2804            3227     12.5137E-03     13.2710E-03
            2803            3227     12.5137E-03     13.2710E-03
            2785            3227     12.5137E-03     13.2710E-03
            2787            3228     11.2874E-03     12.0612E-03
            2786            3228     11.2874E-03     12.0612E-03
            2805            3228     11.2874E-03     12.0612E-03
            2804            3228     11.2874E-03     12.0612E-03
            2806            3229     10.1831E-03     10.9769E-03
            2788            3229     10.1831E-03     10.9769E-03
            2787            3229     10.1831E-03     10.9769E-03
            2805            3229     10.1831E-03     10.9769E-03
            2806            3230     9.16898E-03     9.97932E-03
            2788            3230     9.16898E-03     9.97932E-03
            2789            3230     9.16898E-03     9.97932E-03
            2807            3230     9.16898E-03     9.97932E-03
            2789            3231     8.19919E-03     9.02045E-03
            2807            3231     8.19919E-03     9.02045E-03
            2808            3231     8.19919E-03     9.02045E-03
            2790            3231     8.19919E-03     9.02045E-03
            2808            3232     7.26170E-03     8.08802E-03
            2791            3232     7.26170E-03     8.08802E-03
            2790            3232     7.26170E-03     8.08802E-03
            2809            3232     7.26170E-03     8.08802E-03
            2810            3233     6.34167E-03     7.16501E-03
            2792            3233     6.34167E-03     7.16501E-03
            2809            3233     6.34167E-03     7.16501E-03
            2791            3233     6.34167E-03     7.16501E-03
            2811            3234     5.43821E-03     6.24924E-03
            2793            3234     5.43821E-03     6.24924E-03
            2792            3234     5.43821E-03     6.24924E-03
            2810            3234     5.43821E-03     6.24924E-03
            2812            3235     4.54977E-03     5.33776E-03
            2811            3235     4.54977E-03     5.33776E-03
            2793            3235     4.54977E-03     5.33776E-03
            2794            3235     4.54977E-03     5.33776E-03
            2794            3236     3.68671E-03     4.43518E-03
            2812            3236     3.68671E-03     4.43518E-03
            2813            3236     3.68671E-03     4.43518E-03
            2795            3236     3.68671E-03     4.43518E-03
            2814            3237     2.86406E-03     3.55185E-03
            2813            3237     2.86406E-03     3.55185E-03
            2796            3237     2.86406E-03     3.55185E-03
            2795            3237     2.86406E-03     3.55185E-03
            2796            3238     2.13093E-03     2.72169E-03
            2814            3238     2.13093E-03     2.72169E-03
            2797            3238     2.13093E-03     2.72169E-03
            2815            3238     2.13093E-03     2.72169E-03
            2798            3239     1.63508E-03     1.99152E-03
            2797            3239     1.63508E-03     1.99152E-03
            2815            3239     1.63508E-03     1.99152E-03
            2816            3239     1.63508E-03     1.99152E-03
            2817            3240     22.5250E-03     22.9473E-03
            2818            3240     22.5250E-03     22.9473E-03
            2800            3240     22.5250E-03     22.9473E-03
            2799            3240     22.5250E-03     22.9473E-03
            2800            3241     20.5192E-03     20.5178E-03
            2818            3241     20.5192E-03     20.5178E-03
            2801            3241     20.5192E-03     20.5178E-03
            2819            3241     20.5192E-03     20.5178E-03
            2801            3242     19.1734E-03     19.1380E-03
            2820            3242     19.1734E-03     19.1380E-03
            2802            3242     19.1734E-03     19.1380E-03
            2819            3242     19.1734E-03     19.1380E-03
            2803            3243     17.9148E-03     17.9487E-03
            2802            3243     17.9148E-03     17.9487E-03
            2820            3243     17.9148E-03     17.9487E-03
            2821            3243     17.9148E-03     17.9487E-03
            2804            3244     16.7616E-03     16.8546E-03
            2822            3244     16.7616E-03     16.8546E-03
            2821            3244     16.7616E-03     16.8546E-03
            2803            3244     16.7616E-03     16.8546E-03
            2822            3245     15.6267E-03     15.7982E-03
            2804            3245     15.6267E-03     15.7982E-03
            2805            3245     15.6267E-03     15.7982E-03
            2823            3245     15.6267E-03     15.7982E-03
            2824            3246     14.5151E-03     14.7387E-03
            2823            3246     14.5151E-03     14.7387E-03
            2805            3246     14.5151E-03     14.7387E-03
            2806            3246     14.5151E-03     14.7387E-03
            2825            3247     13.4032E-03     13.6780E-03
            2806            3247     13.4032E-03     13.6780E-03
            2807            3247     13.4032E-03     13.6780E-03
            2824            3247     13.4032E-03     13.6780E-03
            2807            3248     12.2979E-03     12.6041E-03
            2826            3248     12.2979E-03     12.6041E-03
            2808            3248     12.2979E-03     12.6041E-03
            2825            3248     12.2979E-03     12.6041E-03
            2826            3249     11.1958E-03     11.5274E-03
            2808            3249     11.1958E-03     11.5274E-03
            2827            3249     11.1958E-03     11.5274E-03
            2809            3249     11.1958E-03     11.5274E-03
            2810            3250     10.1083E-03     10.4510E-03
            2809            3250     10.1083E-03     10.4510E-03
            2828            3250     10.1083E-03     10.4510E-03
            2827            3250     10.1083E-03     10.4510E-03
            2811            3251     9.04195E-03     9.38841E-03
            2828            3251     9.04195E-03     9.38841E-03
            2810            3251     9.04195E-03     9.38841E-03
            2829            3251     9.04195E-03     9.38841E-03
            2812            3252     8.01473E-03     8.35103E-03
            2811            3252     8.01473E-03     8.35103E-03
            2830            3252     8.01473E-03     8.35103E-03
            2829            3252     8.01473E-03     8.35103E-03
            2813            3253     7.04082E-03     7.36732E-03
            2830            3253     7.04082E-03     7.36732E-03
            2831            3253     7.04082E-03     7.36732E-03
            2812            3253     7.04082E-03     7.36732E-03
            2813            3254     6.14527E-03     6.45309E-03
            2814            3254     6.14527E-03     6.45309E-03
            2831            3254     6.14527E-03     6.45309E-03
            2832            3254     6.14527E-03     6.45309E-03
            2815            3255     5.35250E-03     5.71502E-03
            2833            3255     5.35250E-03     5.71502E-03
            2832            3255     5.35250E-03     5.71502E-03
            2814            3255     5.35250E-03     5.71502E-03
            2834            3256     4.56784E-03     5.31322E-03
            2816            3256     4.56784E-03     5.31322E-03
            2833            3256     4.56784E-03     5.31322E-03
            2815            3256     4.56784E-03     5.31322E-03
            2817            3257     23.6036E-03     23.0072E-03
            2818            3257     23.6036E-03     23.0072E-03
            2836            3257     23.6036E-03     23.0072E-03
            2835            3257     23.6036E-03     23.0072E-03
            2837            3258     23.7910E-03     23.2425E-03
            2818            3258     23.7910E-03     23.2425E-03
            2819            3258     23.7910E-03     23.2425E-03
            2836            3258     23.7910E-03     23.2425E-03
            2838            3259     23.4241E-03     22.8755E-03
            2819            3259     23.4241E-03     22.8755E-03
            2820            3259     23.4241E-03     22.8755E-03
            2837            3259     23.4241E-03     22.8755E-03
            2820            3260     22.6733E-03     22.1862E-03
            2838            3260     22.6733E-03     22.1862E-03
            2839            3260     22.6733E-03     22.1862E-03
            2821            3260     22.6733E-03     22.1862E-03
            2839            3261     21.6922E-03     21.2732E-03
            2840            3261     21.6922E-03     21.2732E-03
            2821            3261     21.6922E-03     21.2732E-03
            2822            3261     21.6922E-03     21.2732E-03
            2822            3262     20.5544E-03     20.2033E-03
            2841            3262     20.5544E-03     20.2033E-03
            2823            3262     20.5544E-03     20.2033E-03
            2840            3262     20.5544E-03     20.2033E-03
            2823            3263     19.3134E-03     19.0214E-03
            2842            3263     19.3134E-03     19.0214E-03
            2841            3263     19.3134E-03     19.0214E-03
            2824            3263     19.3134E-03     19.0214E-03
            2843            3264     18.0070E-03     17.7608E-03
            2824            3264     18.0070E-03     17.7608E-03
            2842            3264     18.0070E-03     17.7608E-03
            2825            3264     18.0070E-03     17.7608E-03
            2843            3265     16.6619E-03     16.4546E-03
            2844            3265     16.6619E-03     16.4546E-03
            2826            3265     16.6619E-03     16.4546E-03
            2825            3265     16.6619E-03     16.4546E-03
            2827            3266     15.3073E-03     15.1252E-03
            2844            3266     15.3073E-03     15.1252E-03
            2845            3266     15.3073E-03     15.1252E-03
            2826            3266     15.3073E-03     15.1252E-03
            2827            3267     13.9607E-03     13.7999E-03
            2846            3267     13.9607E-03     13.7999E-03
            2845            3267     13.9607E-03     13.7999E-03
            2828            3267     13.9607E-03     13.7999E-03
            2846            3268     12.6518E-03     12.5030E-03
            2828            3268     12.6518E-03     12.5030E-03
            2847            3268     12.6518E-03     12.5030E-03
            2829            3268     12.6518E-03     12.5030E-03
            2847            3269     11.3985E-03     11.2668E-03
            2829            3269     11.3985E-03     11.2668E-03
            2848            3269     11.3985E-03     11.2668E-03
            2830            3269     11.3985E-03     11.2668E-03
            2849            3270     10.2383E-03     10.1387E-03
            2831            3270     10.2383E-03     10.1387E-03
            2848            3270     10.2383E-03     10.1387E-03
            2830            3270     10.2383E-03     10.1387E-03
            2849            3271     9.18525E-03     9.17994E-03
            2831            3271     9.18525E-03     9.17994E-03
            2832            3271     9.18525E-03     9.17994E-03
            2850            3271     9.18525E-03     9.17994E-03
            2850            3272     8.24210E-03     8.56672E-03
            2832            3272     8.24210E-03     8.56672E-03
            2851            3272     8.24210E-03     8.56672E-03
            2833            3272     8.24210E-03     8.56672E-03
            2852            3273     7.52374E-03     8.43233E-03
            2833            3273     7.52374E-03     8.43233E-03
            2851            3273     7.52374E-03     8.43233E-03
            2834            3273     7.52374E-03     8.43233E-03
            2836            3274     25.5615E-03     25.6646E-03
            2854            3274     25.5615E-03     25.6646E-03
            2835            3274     25.5615E-03     25.6646E-03
            2853            3274     25.5615E-03     25.6646E-03
            2837            3275     25.2048E-03     25.3416E-03
            2855            3275     25.2048E-03     25.3416E-03
            2854            3275     25.2048E-03     25.3416E-03
            2836            3275     25.2048E-03     25.3416E-03
            2856            3276     24.6950E-03     24.7350E-03
            2838            3276     24.6950E-03     24.7350E-03
            2855            3276     24.6950E-03     24.7350E-03
            2837            3276     24.6950E-03     24.7350E-03
            2856            3277     23.8051E-03     23.7609E-03
            2839            3277     23.8051E-03     23.7609E-03
            2857            3277     23.8051E-03     23.7609E-03
            2838            3277     23.8051E-03     23.7609E-03
            2840            3278     22.6472E-03     22.5682E-03
            2839            3278     22.6472E-03     22.5682E-03
            2858            3278     22.6472E-03     22.5682E-03
            2857            3278     22.6472E-03     22.5682E-03
            2859            3279     21.3184E-03     21.2310E-03
            2840            3279     21.3184E-03     21.2310E-03
            2841            3279     21.3184E-03     21.2310E-03
            2858            3279     21.3184E-03     21.2310E-03
            2860            3280     19.8843E-03     19.7990E-03
            2842            3280     19.8843E-03     19.7990E-03
            2841            3280     19.8843E-03     19.7990E-03
            2859            3280     19.8843E-03     19.7990E-03
            2861            3281     18.3879E-03     18.3146E-03
            2843            3281     18.3879E-03     18.3146E-03
            2860            3281     18.3879E-03     18.3146E-03
            2842            3281     18.3879E-03     18.3146E-03
            2861            3282     16.8667E-03     16.8027E-03
            2843            3282     16.8667E-03     16.8027E-03
            2862            3282     16.8667E-03     16.8027E-03
            2844            3282     16.8667E-03     16.8027E-03
            2863            3283     15.3401E-03     15.2889E-03
            2845            3283     15.3401E-03     15.2889E-03
            2862            3283     15.3401E-03     15.2889E-03
            2844            3283     15.3401E-03     15.2889E-03
            2845            3284     13.8323E-03     13.7929E-03
            2864            3284     13.8323E-03     13.7929E-03
            2846            3284     13.8323E-03     13.7929E-03
            2863            3284     13.8323E-03     13.7929E-03
            2847            3285     12.3592E-03     12.3380E-03
            2865            3285     12.3592E-03     12.3380E-03
            2864            3285     12.3592E-03     12.3380E-03
            2846            3285     12.3592E-03     12.3380E-03
            2866            3286     10.9408E-03     10.9580E-03
            2865            3286     10.9408E-03     10.9580E-03
            2847            3286     10.9408E-03     10.9580E-03
            2848            3286     10.9408E-03     10.9580E-03
            2849            3287     9.60443E-03     9.69694E-03
            2848            3287     9.60443E-03     9.69694E-03
            2867            3287     9.60443E-03     9.69694E-03
            2866            3287     9.60443E-03     9.69694E-03
            2850            3288     8.36641E-03     8.64659E-03
            2849            3288     8.36641E-03     8.64659E-03
            2868            3288     8.36641E-03     8.64659E-03
            2867            3288     8.36641E-03     8.64659E-03
            2869            3289     7.33359E-03     7.92012E-03
            2850            3289     7.33359E-03     7.92012E-03
            2851            3289     7.33359E-03     7.92012E-03
            2868            3289     7.33359E-03     7.92012E-03
            2870            3290     6.84985E-03     7.31734E-03
            2852            3290     6.84985E-03     7.31734E-03
            2851            3290     6.84985E-03     7.31734E-03
            2869            3290     6.84985E-03     7.31734E-03
            2871            3291     27.5041E-03     27.8083E-03
            2853            3291     27.5041E-03     27.8083E-03
            2854            3291     27.5041E-03     27.8083E-03
            2872            3291     27.5041E-03     27.8083E-03
            2873            3292     26.6477E-03     27.0849E-03
            2854            3292     26.6477E-03     27.0849E-03
            2872            3292     26.6477E-03     27.0849E-03
            2855            3292     26.6477E-03     27.0849E-03
            2873            3293     25.8319E-03     26.2145E-03
            2856            3293     25.8319E-03     26.2145E-03
            2855            3293     25.8319E-03     26.2145E-03
            2874            3293     25.8319E-03     26.2145E-03
            2856            3294     24.7487E-03     25.0513E-03
            2857            3294     24.7487E-03     25.0513E-03
            2874            3294     24.7487E-03     25.0513E-03
            2875            3294     24.7487E-03     25.0513E-03
            2875            3295     23.4292E-03     23.6483E-03
            2876            3295     23.4292E-03     23.6483E-03
            2858            3295     23.4292E-03     23.6483E-03
            2857            3295     23.4292E-03     23.6483E-03
            2859            3296     21.9374E-03     22.1026E-03
            2876            3296     21.9374E-03     22.1026E-03
            2858            3296     21.9374E-03     22.1026E-03
            2877            3296     21.9374E-03     22.1026E-03
            2878            3297     20.3431E-03     20.4773E-03
            2860            3297     20.3431E-03     20.4773E-03
            2859            3297     20.3431E-03     20.4773E-03
            2877            3297     20.3431E-03     20.4773E-03
            2861            3298     18.6993E-03     18.8114E-03
            2860            3298     18.6993E-03     18.8114E-03
            2879            3298     18.6993E-03     18.8114E-03
            2878            3298     18.6993E-03     18.8114E-03
            2879            3299     17.0325E-03     17.1368E-03
            2862            3299     17.0325E-03     17.1368E-03
            2880            3299     17.0325E-03     17.1368E-03
            2861            3299     17.0325E-03     17.1368E-03
            2880            3300     15.3712E-03     15.4724E-03
            2862            3300     15.3712E-03     15.4724E-03
            2881            3300     15.3712E-03     15.4724E-03
            2863            3300     15.3712E-03     15.4724E-03
            2863            3301     13.7278E-03     13.8364E-03
            2864            3301     13.7278E-03     13.8364E-03
            2881            3301     13.7278E-03     13.8364E-03
            2882            3301     13.7278E-03     13.8364E-03
            2882            3302     12.1184E-03     12.2483E-03
            2865            3302     12.1184E-03     12.2483E-03
            2864            3302     12.1184E-03     12.2483E-03
            2883            3302     12.1184E-03     12.2483E-03
            2883            3303     10.5609E-03     10.7365E-03
            2865            3303     10.5609E-03     10.7365E-03
            2866            3303     10.5609E-03     10.7365E-03
            2884            3303     10.5609E-03     10.7365E-03
            2866            3304     9.07713E-03     9.33995E-03
            2884            3304     9.07713E-03     9.33995E-03
            2867            3304     9.07713E-03     9.33995E-03
            2885            3304     9.07713E-03     9.33995E-03
            2867            3305     7.72549E-03     8.13478E-03
            2885            3305     7.72549E-03     8.13478E-03
            2868            3305     7.72549E-03     8.13478E-03
            2886            3305     7.72549E-03     8.13478E-03
            2886            3306     6.68935E-03     7.08401E-03
            2887            3306     6.68935E-03     7.08401E-03
            2869            3306     6.68935E-03     7.08401E-03
            2868            3306     6.68935E-03     7.08401E-03
            2870            3307     6.05951E-03     6.18488E-03
            2887            3307     6.05951E-03     6.18488E-03
            2888            3307     6.05951E-03     6.18488E-03
            2869            3307     6.05951E-03     6.18488E-03
            2872            3308     29.2593E-03     29.5816E-03
            2889            3308     29.2593E-03     29.5816E-03
            2890            3308     29.2593E-03     29.5816E-03
            2871            3308     29.2593E-03     29.5816E-03
            2890            3309     28.0578E-03     28.5618E-03
            2873            3309     28.0578E-03     28.5618E-03
            2872            3309     28.0578E-03     28.5618E-03
            2891            3309     28.0578E-03     28.5618E-03
            2892            3310     26.8492E-03     27.4154E-03
            2891            3310     26.8492E-03     27.4154E-03
            2874            3310     26.8492E-03     27.4154E-03
            2873            3310     26.8492E-03     27.4154E-03
            2875            3311     25.5267E-03     26.0369E-03
            2874            3311     25.5267E-03     26.0369E-03
            2893            3311     25.5267E-03     26.0369E-03
            2892            3311     25.5267E-03     26.0369E-03
            2876            3312     24.0096E-03     24.4558E-03
            2894            3312     24.0096E-03     24.4558E-03
            2893            3312     24.0096E-03     24.4558E-03
            2875            3312     24.0096E-03     24.4558E-03
            2877            3313     22.3612E-03     22.7441E-03
            2876            3313     22.3612E-03     22.7441E-03
            2895            3313     22.3612E-03     22.7441E-03
            2894            3313     22.3612E-03     22.7441E-03
            2878            3314     20.6366E-03     20.9668E-03
            2896            3314     20.6366E-03     20.9668E-03
            2877            3314     20.6366E-03     20.9668E-03
            2895            3314     20.6366E-03     20.9668E-03
            2879            3315     18.8712E-03     19.1684E-03
            2897            3315     18.8712E-03     19.1684E-03
            2878            3315     18.8712E-03     19.1684E-03
            2896            3315     18.8712E-03     19.1684E-03
            2879            3316     17.1020E-03     17.3741E-03
            2897            3316     17.1020E-03     17.3741E-03
            2898            3316     17.1020E-03     17.3741E-03
            2880            3316     17.1020E-03     17.3741E-03
            2898            3317     15.3384E-03     15.6001E-03
            2881            3317     15.3384E-03     15.6001E-03
            2880            3317     15.3384E-03     15.6001E-03
            2899            3317     15.3384E-03     15.6001E-03
            2900            3318     13.5970E-03     13.8596E-03
            2881            3318     13.5970E-03     13.8596E-03
            2899            3318     13.5970E-03     13.8596E-03
            2882            3318     13.5970E-03     13.8596E-03
            2901            3319     11.8865E-03     12.1678E-03
            2882            3319     11.8865E-03     12.1678E-03
            2883            3319     11.8865E-03     12.1678E-03
            2900            3319     11.8865E-03     12.1678E-03
            2883            3320     10.2231E-03     10.5412E-03
            2901            3320     10.2231E-03     10.5412E-03
            2902            3320     10.2231E-03     10.5412E-03
            2884            3320     10.2231E-03     10.5412E-03
            2884            3321     8.63295E-03     9.01754E-03
            2885            3321     8.63295E-03     9.01754E-03
            2902            3321     8.63295E-03     9.01754E-03
            2903            3321     8.63295E-03     9.01754E-03
            2903            3322     7.20250E-03     7.60710E-03
            2886            3322     7.20250E-03     7.60710E-03
            2885            3322     7.20250E-03     7.60710E-03
            2904            3322     7.20250E-03     7.60710E-03
            2905            3323     6.03154E-03     6.33394E-03
            2887            3323     6.03154E-03     6.33394E-03
            2886            3323     6.03154E-03     6.33394E-03
            2904            3323     6.03154E-03     6.33394E-03
            2887            3324     5.27978E-03     5.39821E-03
            2888            3324     5.27978E-03     5.39821E-03
            2906            3324     5.27978E-03     5.39821E-03
            2905            3324     5.27978E-03     5.39821E-03
            2908            3325     30.8734E-03     31.2380E-03
            2889            3325     30.8734E-03     31.2380E-03
            2907            3325     30.8734E-03     31.2380E-03
            2890            3325     30.8734E-03     31.2380E-03
            2909            3326     29.3153E-03     29.8649E-03
            2908            3326     29.3153E-03     29.8649E-03
            2891            3326     29.3153E-03     29.8649E-03
            2890            3326     29.3153E-03     29.8649E-03
            2910            3327     27.7764E-03     28.3978E-03
            2891            3327     27.7764E-03     28.3978E-03
            2892            3327     27.7764E-03     28.3978E-03
            2909            3327     27.7764E-03     28.3978E-03
            2910            3328     26.1259E-03     26.7667E-03
            2892            3328     26.1259E-03     26.7667E-03
            2911            3328     26.1259E-03     26.7667E-03
            2893            3328     26.1259E-03     26.7667E-03
            2894            3329     24.3870E-03     24.9898E-03
            2912            3329     24.3870E-03     24.9898E-03
            2911            3329     24.3870E-03     24.9898E-03
            2893            3329     24.3870E-03     24.9898E-03
            2913            3330     22.5783E-03     23.1255E-03
            2895            3330     22.5783E-03     23.1255E-03
            2912            3330     22.5783E-03     23.1255E-03
            2894            3330     22.5783E-03     23.1255E-03
            2913            3331     20.7297E-03     21.2323E-03
            2896            3331     20.7297E-03     21.2323E-03
            2895            3331     20.7297E-03     21.2323E-03
            2914            3331     20.7297E-03     21.2323E-03
            2896            3332     18.8828E-03     19.3430E-03
            2914            3332     18.8828E-03     19.3430E-03
            2897            3332     18.8828E-03     19.3430E-03
            2915            3332     18.8828E-03     19.3430E-03
            2916            3333     17.0386E-03     17.4705E-03
            2898            3333     17.0386E-03     17.4705E-03
            2915            3333     17.0386E-03     17.4705E-03
            2897            3333     17.0386E-03     17.4705E-03
            2917            3334     15.2131E-03     15.6270E-03
            2898            3334     15.2131E-03     15.6270E-03
            2899            3334     15.2131E-03     15.6270E-03
            2916            3334     15.2131E-03     15.6270E-03
            2918            3335     13.4078E-03     13.8177E-03
            2899            3335     13.4078E-03     13.8177E-03
            2900            3335     13.4078E-03     13.8177E-03
            2917            3335     13.4078E-03     13.8177E-03
            2901            3336     11.6323E-03     12.0503E-03
            2900            3336     11.6323E-03     12.0503E-03
            2919            3336     11.6323E-03     12.0503E-03
            2918            3336     11.6323E-03     12.0503E-03
            2902            3337     9.89637E-03     10.3389E-03
            2920            3337     9.89637E-03     10.3389E-03
            2919            3337     9.89637E-03     10.3389E-03
            2901            3337     9.89637E-03     10.3389E-03
            2921            3338     8.23542E-03     8.69309E-03
            2903            3338     8.23542E-03     8.69309E-03
            2902            3338     8.23542E-03     8.69309E-03
            2920            3338     8.23542E-03     8.69309E-03
            2921            3339     6.69995E-03     7.12897E-03
            2904            3339     6.69995E-03     7.12897E-03
            2903            3339     6.69995E-03     7.12897E-03
            2922            3339     6.69995E-03     7.12897E-03
            2922            3340     5.40331E-03     5.73340E-03
            2904            3340     5.40331E-03     5.73340E-03
            2923            3340     5.40331E-03     5.73340E-03
            2905            3340     5.40331E-03     5.73340E-03
            2905            3341     4.54372E-03     4.60313E-03
            2924            3341     4.54372E-03     4.60313E-03
            2923            3341     4.54372E-03     4.60313E-03
            2906            3341     4.54372E-03     4.60313E-03
            2925            3342     32.3638E-03     32.8080E-03
            2907            3342     32.3638E-03     32.8080E-03
            2926            3342     32.3638E-03     32.8080E-03
            2908            3342     32.3638E-03     32.8080E-03
            2908            3343     30.4852E-03     31.0318E-03
            2927            3343     30.4852E-03     31.0318E-03
            2909            3343     30.4852E-03     31.0318E-03
            2926            3343     30.4852E-03     31.0318E-03
            2928            3344     28.5215E-03     29.1991E-03
            2909            3344     28.5215E-03     29.1991E-03
            2910            3344     28.5215E-03     29.1991E-03
            2927            3344     28.5215E-03     29.1991E-03
            2910            3345     26.5388E-03     27.2532E-03
            2929            3345     26.5388E-03     27.2532E-03
            2911            3345     26.5388E-03     27.2532E-03
            2928            3345     26.5388E-03     27.2532E-03
            2911            3346     24.5460E-03     25.2456E-03
            2930            3346     24.5460E-03     25.2456E-03
            2929            3346     24.5460E-03     25.2456E-03
            2912            3346     24.5460E-03     25.2456E-03
            2931            3347     22.5625E-03     23.2422E-03
            2930            3347     22.5625E-03     23.2422E-03
            2912            3347     22.5625E-03     23.2422E-03
            2913            3347     22.5625E-03     23.2422E-03
            2932            3348     20.6305E-03     21.2687E-03
            2913            3348     20.6305E-03     21.2687E-03
            2914            3348     20.6305E-03     21.2687E-03
            2931            3348     20.6305E-03     21.2687E-03
            2914            3349     18.7207E-03     19.3233E-03
            2933            3349     18.7207E-03     19.3233E-03
            2932            3349     18.7207E-03     19.3233E-03
            2915            3349     18.7207E-03     19.3233E-03
            2915            3350     16.8412E-03     17.4149E-03
            2934            3350     16.8412E-03     17.4149E-03
            2933            3350     16.8412E-03     17.4149E-03
            2916            3350     16.8412E-03     17.4149E-03
            2934            3351     14.9835E-03     15.5369E-03
            2917            3351     14.9835E-03     15.5369E-03
            2935            3351     14.9835E-03     15.5369E-03
            2916            3351     14.9835E-03     15.5369E-03
            2935            3352     13.1489E-03     13.6924E-03
            2917            3352     13.1489E-03     13.6924E-03
            2918            3352     13.1489E-03     13.6924E-03
            2936            3352     13.1489E-03     13.6924E-03
            2936            3353     11.3387E-03     11.8811E-03
            2918            3353     11.3387E-03     11.8811E-03
            2937            3353     11.3387E-03     11.8811E-03
            2919            3353     11.3387E-03     11.8811E-03
            2920            3354     9.56350E-03     10.1081E-03
            2937            3354     9.56350E-03     10.1081E-03
            2938            3354     9.56350E-03     10.1081E-03
            2919            3354     9.56350E-03     10.1081E-03
            2939            3355     7.84202E-03     8.37761E-03
            2920            3355     7.84202E-03     8.37761E-03
            2921            3355     7.84202E-03     8.37761E-03
            2938            3355     7.84202E-03     8.37761E-03
            2940            3356     6.22102E-03     6.71717E-03
            2922            3356     6.22102E-03     6.71717E-03
            2939            3356     6.22102E-03     6.71717E-03
            2921            3356     6.22102E-03     6.71717E-03
            2923            3357     4.80054E-03     5.16566E-03
            2940            3357     4.80054E-03     5.16566E-03
            2922            3357     4.80054E-03     5.16566E-03
            2941            3357     4.80054E-03     5.16566E-03
            2924            3358     3.78942E-03     3.90435E-03
            2941            3358     3.78942E-03     3.90435E-03
            2942            3358     3.78942E-03     3.90435E-03
            2923            3358     3.78942E-03     3.90435E-03
            2926            3359     33.8633E-03     34.2641E-03
            2944            3359     33.8633E-03     34.2641E-03
            2943            3359     33.8633E-03     34.2641E-03
            2925            3359     33.8633E-03     34.2641E-03
            2944            3360     31.4690E-03     32.1058E-03
            2926            3360     31.4690E-03     32.1058E-03
            2945            3360     31.4690E-03     32.1058E-03
            2927            3360     31.4690E-03     32.1058E-03
            2927            3361     29.0753E-03     29.7730E-03
            2945            3361     29.0753E-03     29.7730E-03
            2928            3361     29.0753E-03     29.7730E-03
            2946            3361     29.0753E-03     29.7730E-03
            2947            3362     26.6921E-03     27.4349E-03
            2946            3362     26.6921E-03     27.4349E-03
            2928            3362     26.6921E-03     27.4349E-03
            2929            3362     26.6921E-03     27.4349E-03
            2948            3363     24.4194E-03     25.2091E-03
            2947            3363     24.4194E-03     25.2091E-03
            2929            3363     24.4194E-03     25.2091E-03
            2930            3363     24.4194E-03     25.2091E-03
            2931            3364     22.3353E-03     23.1086E-03
            2949            3364     22.3353E-03     23.1086E-03
            2948            3364     22.3353E-03     23.1086E-03
            2930            3364     22.3353E-03     23.1086E-03
            2950            3365     20.3361E-03     21.0847E-03
            2932            3365     20.3361E-03     21.0847E-03
            2949            3365     20.3361E-03     21.0847E-03
            2931            3365     20.3361E-03     21.0847E-03
            2950            3366     18.4069E-03     19.1299E-03
            2951            3366     18.4069E-03     19.1299E-03
            2933            3366     18.4069E-03     19.1299E-03
            2932            3366     18.4069E-03     19.1299E-03
            2933            3367     16.5193E-03     17.2171E-03
            2934            3367     16.5193E-03     17.2171E-03
            2952            3367     16.5193E-03     17.2171E-03
            2951            3367     16.5193E-03     17.2171E-03
            2934            3368     14.6600E-03     15.3408E-03
            2952            3368     14.6600E-03     15.3408E-03
            2935            3368     14.6600E-03     15.3408E-03
            2953            3368     14.6600E-03     15.3408E-03
            2936            3369     12.8231E-03     13.4902E-03
            2953            3369     12.8231E-03     13.4902E-03
            2935            3369     12.8231E-03     13.4902E-03
            2954            3369     12.8231E-03     13.4902E-03
            2936            3370     11.0058E-03     11.6639E-03
            2937            3370     11.0058E-03     11.6639E-03
            2954            3370     11.0058E-03     11.6639E-03
            2955            3370     11.0058E-03     11.6639E-03
            2938            3371     9.21331E-03     9.85740E-03
            2937            3371     9.21331E-03     9.85740E-03
            2956            3371     9.21331E-03     9.85740E-03
            2955            3371     9.21331E-03     9.85740E-03
            2938            3372     7.45532E-03     8.08091E-03
            2957            3372     7.45532E-03     8.08091E-03
            2939            3372     7.45532E-03     8.08091E-03
            2956            3372     7.45532E-03     8.08091E-03
            2958            3373     5.76368E-03     6.34270E-03
            2940            3373     5.76368E-03     6.34270E-03
            2957            3373     5.76368E-03     6.34270E-03
            2939            3373     5.76368E-03     6.34270E-03
            2940            3374     4.21843E-03     4.68326E-03
            2958            3374     4.21843E-03     4.68326E-03
            2959            3374     4.21843E-03     4.68326E-03
            2941            3374     4.21843E-03     4.68326E-03
            2960            3375     3.05635E-03     3.23296E-03
            2941            3375     3.05635E-03     3.23296E-03
            2942            3375     3.05635E-03     3.23296E-03
            2959            3375     3.05635E-03     3.23296E-03
            2943            3376     35.1937E-03     35.8236E-03
            2944            3376     35.1937E-03     35.8236E-03
            2961            3376     35.1937E-03     35.8236E-03
            2962            3376     35.1937E-03     35.8236E-03
            2962            3377     32.3385E-03     32.8980E-03
            2944            3377     32.3385E-03     32.8980E-03
            2963            3377     32.3385E-03     32.8980E-03
            2945            3377     32.3385E-03     32.8980E-03
            2963            3378     29.2555E-03     29.9344E-03
            2945            3378     29.2555E-03     29.9344E-03
            2964            3378     29.2555E-03     29.9344E-03
            2946            3378     29.2555E-03     29.9344E-03
            2964            3379     26.4147E-03     27.2378E-03
            2965            3379     26.4147E-03     27.2378E-03
            2946            3379     26.4147E-03     27.2378E-03
            2947            3379     26.4147E-03     27.2378E-03
            2965            3380     24.0470E-03     24.8937E-03
            2947            3380     24.0470E-03     24.8937E-03
            2948            3380     24.0470E-03     24.8937E-03
            2966            3380     24.0470E-03     24.8937E-03
            2948            3381     21.8941E-03     22.7392E-03
            2966            3381     21.8941E-03     22.7392E-03
            2949            3381     21.8941E-03     22.7392E-03
            2967            3381     21.8941E-03     22.7392E-03
            2950            3382     19.8885E-03     20.7274E-03
            2967            3382     19.8885E-03     20.7274E-03
            2968            3382     19.8885E-03     20.7274E-03
            2949            3382     19.8885E-03     20.7274E-03
            2968            3383     17.9721E-03     18.7942E-03
            2951            3383     17.9721E-03     18.7942E-03
            2969            3383     17.9721E-03     18.7942E-03
            2950            3383     17.9721E-03     18.7942E-03
            2951            3384     16.1028E-03     16.9151E-03
            2969            3384     16.1028E-03     16.9151E-03
            2952            3384     16.1028E-03     16.9151E-03
            2970            3384     16.1028E-03     16.9151E-03
            2970            3385     14.2670E-03     15.0664E-03
            2971            3385     14.2670E-03     15.0664E-03
            2952            3385     14.2670E-03     15.0664E-03
            2953            3385     14.2670E-03     15.0664E-03
            2972            3386     12.4485E-03     13.2378E-03
            2971            3386     12.4485E-03     13.2378E-03
            2953            3386     12.4485E-03     13.2378E-03
            2954            3386     12.4485E-03     13.2378E-03
            2955            3387     10.6460E-03     11.4201E-03
            2972            3387     10.6460E-03     11.4201E-03
            2973            3387     10.6460E-03     11.4201E-03
            2954            3387     10.6460E-03     11.4201E-03
            2974            3388     8.85660E-03     9.61278E-03
            2955            3388     8.85660E-03     9.61278E-03
            2973            3388     8.85660E-03     9.61278E-03
            2956            3388     8.85660E-03     9.61278E-03
            2975            3389     7.08926E-03     7.80990E-03
            2974            3389     7.08926E-03     7.80990E-03
            2957            3389     7.08926E-03     7.80990E-03
            2956            3389     7.08926E-03     7.80990E-03
            2976            3390     5.35047E-03     6.02817E-03
            2958            3390     5.35047E-03     6.02817E-03
            2975            3390     5.35047E-03     6.02817E-03
            2957            3390     5.35047E-03     6.02817E-03
            2959            3391     3.68773E-03     4.29584E-03
            2976            3391     3.68773E-03     4.29584E-03
            2958            3391     3.68773E-03     4.29584E-03
            2977            3391     3.68773E-03     4.29584E-03
            2978            3392     2.32116E-03     2.66625E-03
            2959            3392     2.32116E-03     2.66625E-03
            2960            3392     2.32116E-03     2.66625E-03
            2977            3392     2.32116E-03     2.66625E-03
            2961            3393     36.6808E-03     36.8283E-03
            2962            3393     36.6808E-03     36.8283E-03
            2979            3393     36.6808E-03     36.8283E-03
            2980            3393     36.6808E-03     36.8283E-03
            2962            3394     32.5622E-03     33.0958E-03
            2980            3394     32.5622E-03     33.0958E-03
            2981            3394     32.5622E-03     33.0958E-03
            2963            3394     32.5622E-03     33.0958E-03
            2981            3395     28.6764E-03     29.4880E-03
            2982            3395     28.6764E-03     29.4880E-03
            2964            3395     28.6764E-03     29.4880E-03
            2963            3395     28.6764E-03     29.4880E-03
            2964            3396     25.8293E-03     26.6964E-03
            2982            3396     25.8293E-03     26.6964E-03
            2983            3396     25.8293E-03     26.6964E-03
            2965            3396     25.8293E-03     26.6964E-03
            2983            3397     23.4425E-03     24.3211E-03
            2984            3397     23.4425E-03     24.3211E-03
            2966            3397     23.4425E-03     24.3211E-03
            2965            3397     23.4425E-03     24.3211E-03
            2966            3398     21.3094E-03     22.2092E-03
            2984            3398     21.3094E-03     22.2092E-03
            2985            3398     21.3094E-03     22.2092E-03
            2967            3398     21.3094E-03     22.2092E-03
            2967            3399     19.3459E-03     20.2507E-03
            2985            3399     19.3459E-03     20.2507E-03
            2986            3399     19.3459E-03     20.2507E-03
            2968            3399     19.3459E-03     20.2507E-03
            2986            3400     17.4628E-03     18.3790E-03
            2987            3400     17.4628E-03     18.3790E-03
            2969            3400     17.4628E-03     18.3790E-03
            2968            3400     17.4628E-03     18.3790E-03
            2969            3401     15.6381E-03     16.5574E-03
            2970            3401     15.6381E-03     16.5574E-03
            2988            3401     15.6381E-03     16.5574E-03
            2987            3401     15.6381E-03     16.5574E-03
            2970            3402     13.8378E-03     14.7597E-03
            2988            3402     13.8378E-03     14.7597E-03
            2971            3402     13.8378E-03     14.7597E-03
            2989            3402     13.8378E-03     14.7597E-03
            2971            3403     12.0570E-03     12.9733E-03
            2990            3403     12.0570E-03     12.9733E-03
            2989            3403     12.0570E-03     12.9733E-03
            2972            3403     12.0570E-03     12.9733E-03
            2973            3404     10.2842E-03     11.1889E-03
            2972            3404     10.2842E-03     11.1889E-03
            2990            3404     10.2842E-03     11.1889E-03
            2991            3404     10.2842E-03     11.1889E-03
            2992            3405     8.52136E-03     9.40074E-03
            2974            3405     8.52136E-03     9.40074E-03
            2973            3405     8.52136E-03     9.40074E-03
            2991            3405     8.52136E-03     9.40074E-03
            2974            3406     6.76557E-03     7.60841E-03
            2992            3406     6.76557E-03     7.60841E-03
            2975            3406     6.76557E-03     7.60841E-03
            2993            3406     6.76557E-03     7.60841E-03
            2975            3407     5.02750E-03     5.80643E-03
            2994            3407     5.02750E-03     5.80643E-03
            2993            3407     5.02750E-03     5.80643E-03
            2976            3407     5.02750E-03     5.80643E-03
            2976            3408     3.30377E-03     4.02231E-03
            2995            3408     3.30377E-03     4.02231E-03
            2994            3408     3.30377E-03     4.02231E-03
            2977            3408     3.30377E-03     4.02231E-03
            2996            3409     1.66717E-03     2.33104E-03
            2978            3409     1.66717E-03     2.33104E-03
            2995            3409     1.66717E-03     2.33104E-03
            2977            3409     1.66717E-03     2.33104E-03
            2979            3410     36.8672E-03     37.5429E-03
            2998            3410     36.8672E-03     37.5429E-03
            2997            3410     36.8672E-03     37.5429E-03
            2980            3410     36.8672E-03     37.5429E-03
            2999            3411     31.3760E-03     32.2814E-03
            2998            3411     31.3760E-03     32.2814E-03
            2981            3411     31.3760E-03     32.2814E-03
            2980            3411     31.3760E-03     32.2814E-03
            2981            3412     27.7302E-03     28.5814E-03
            3000            3412     27.7302E-03     28.5814E-03
            2999            3412     27.7302E-03     28.5814E-03
            2982            3412     27.7302E-03     28.5814E-03
            2982            3413     25.0536E-03     25.8964E-03
            2983            3413     25.0536E-03     25.8964E-03
            3000            3413     25.0536E-03     25.8964E-03
            3001            3413     25.0536E-03     25.8964E-03
            2983            3414     22.7314E-03     23.6119E-03
            3001            3414     22.7314E-03     23.6119E-03
            3002            3414     22.7314E-03     23.6119E-03
            2984            3414     22.7314E-03     23.6119E-03
            3003            3415     20.6886E-03     21.6123E-03
            2984            3415     20.6886E-03     21.6123E-03
            3002            3415     20.6886E-03     21.6123E-03
            2985            3415     20.6886E-03     21.6123E-03
            2986            3416     18.7706E-03     19.7402E-03
            3003            3416     18.7706E-03     19.7402E-03
            3004            3416     18.7706E-03     19.7402E-03
            2985            3416     18.7706E-03     19.7402E-03
            2986            3417     16.9481E-03     17.9555E-03
            3005            3417     16.9481E-03     17.9555E-03
            2987            3417     16.9481E-03     17.9555E-03
            3004            3417     16.9481E-03     17.9555E-03
            2987            3418     15.1681E-03     16.2047E-03
            3005            3418     15.1681E-03     16.2047E-03
            3006            3418     15.1681E-03     16.2047E-03
            2988            3418     15.1681E-03     16.2047E-03
            3006            3419     13.4199E-03     14.4741E-03
            2989            3419     13.4199E-03     14.4741E-03
            3007            3419     13.4199E-03     14.4741E-03
            2988            3419     13.4199E-03     14.4741E-03
            2990            3420     11.6843E-03     12.7446E-03
            2989            3420     11.6843E-03     12.7446E-03
            3008            3420     11.6843E-03     12.7446E-03
            3007            3420     11.6843E-03     12.7446E-03
            3008            3421     9.96036E-03     11.0119E-03
            2991            3421     9.96036E-03     11.0119E-03
            3009            3421     9.96036E-03     11.0119E-03
            2990            3421     9.96036E-03     11.0119E-03
            3010            3422     8.24193E-03     9.26858E-03
            2991            3422     8.24193E-03     9.26858E-03
            2992            3422     8.24193E-03     9.26858E-03
            3009            3422     8.24193E-03     9.26858E-03
            2993            3423     6.53521E-03     7.51363E-03
            3010            3423     6.53521E-03     7.51363E-03
            3011            3423     6.53521E-03     7.51363E-03
            2992            3423     6.53521E-03     7.51363E-03
            3011            3424     4.84003E-03     5.74401E-03
            3012            3424     4.84003E-03     5.74401E-03
            2993            3424     4.84003E-03     5.74401E-03
            2994            3424     4.84003E-03     5.74401E-03
            2995            3425     3.18211E-03     3.96099E-03
            3013            3425     3.18211E-03     3.96099E-03
            2994            3425     3.18211E-03     3.96099E-03
            3012            3425     3.18211E-03     3.96099E-03
            3014            3426     1.54384E-03     2.27091E-03
            2996            3426     1.54384E-03     2.27091E-03
            3013            3426     1.54384E-03     2.27091E-03
            2995            3426     1.54384E-03     2.27091E-03
            3015            3427     36.1829E-03     36.8153E-03
            3016            3427     36.1829E-03     36.8153E-03
            2997            3427     36.1829E-03     36.8153E-03
            2998            3427     36.1829E-03     36.8153E-03
            2998            3428     33.0529E-03     33.0430E-03
            3017            3428     33.0529E-03     33.0430E-03
            3016            3428     33.0529E-03     33.0430E-03
            2999            3428     33.0529E-03     33.0430E-03
            3000            3429     30.8501E-03     30.8031E-03
            3017            3429     30.8501E-03     30.8031E-03
            3018            3429     30.8501E-03     30.8031E-03
            2999            3429     30.8501E-03     30.8031E-03
            3000            3430     28.7678E-03     28.8328E-03
            3019            3430     28.7678E-03     28.8328E-03
            3001            3430     28.7678E-03     28.8328E-03
            3018            3430     28.7678E-03     28.8328E-03
            3001            3431     26.8387E-03     26.9988E-03
            3002            3431     26.8387E-03     26.9988E-03
            3019            3431     26.8387E-03     26.9988E-03
            3020            3431     26.8387E-03     26.9988E-03
            3002            3432     24.9287E-03     25.2141E-03
            3003            3432     24.9287E-03     25.2141E-03
            3020            3432     24.9287E-03     25.2141E-03
            3021            3432     24.9287E-03     25.2141E-03
            3003            3433     23.0565E-03     23.4242E-03
            3022            3433     23.0565E-03     23.4242E-03
            3004            3433     23.0565E-03     23.4242E-03
            3021            3433     23.0565E-03     23.4242E-03
            3004            3434     21.1806E-03     21.6296E-03
            3023            3434     21.1806E-03     21.6296E-03
            3022            3434     21.1806E-03     21.6296E-03
            3005            3434     21.1806E-03     21.6296E-03
            3005            3435     19.3171E-03     19.8145E-03
            3024            3435     19.3171E-03     19.8145E-03
            3006            3435     19.3171E-03     19.8145E-03
            3023            3435     19.3171E-03     19.8145E-03
            3007            3436     17.4550E-03     17.9906E-03
            3024            3436     17.4550E-03     17.9906E-03
            3006            3436     17.4550E-03     17.9906E-03
            3025            3436     17.4550E-03     17.9906E-03
            3007            3437     15.6131E-03     16.1627E-03
            3008            3437     15.6131E-03     16.1627E-03
            3026            3437     15.6131E-03     16.1627E-03
            3025            3437     15.6131E-03     16.1627E-03
            3008            3438     13.7961E-03     14.3442E-03
            3026            3438     13.7961E-03     14.3442E-03
            3009            3438     13.7961E-03     14.3442E-03
            3027            3438     13.7961E-03     14.3442E-03
            3010            3439     12.0311E-03     12.5532E-03
            3028            3439     12.0311E-03     12.5532E-03
            3009            3439     12.0311E-03     12.5532E-03
            3027            3439     12.0311E-03     12.5532E-03
            3029            3440     10.3371E-03     10.8189E-03
            3010            3440     10.3371E-03     10.8189E-03
            3011            3440     10.3371E-03     10.8189E-03
            3028            3440     10.3371E-03     10.8189E-03
            3012            3441     8.75066E-03     9.17086E-03
            3029            3441     8.75066E-03     9.17086E-03
            3030            3441     8.75066E-03     9.17086E-03
            3011            3441     8.75066E-03     9.17086E-03
            3013            3442     7.30288E-03     7.73210E-03
            3012            3442     7.30288E-03     7.73210E-03
            3030            3442     7.30288E-03     7.73210E-03
            3031            3442     7.30288E-03     7.73210E-03
            3013            3443     5.84567E-03     6.72947E-03
            3031            3443     5.84567E-03     6.72947E-03
            3032            3443     5.84567E-03     6.72947E-03
            3014            3443     5.84567E-03     6.72947E-03
            3033            3444     37.6442E-03     37.0535E-03
            3034            3444     37.6442E-03     37.0535E-03
            3016            3444     37.6442E-03     37.0535E-03
            3015            3444     37.6442E-03     37.0535E-03
            3035            3445     36.6910E-03     36.2246E-03
            3016            3445     36.6910E-03     36.2246E-03
            3034            3445     36.6910E-03     36.2246E-03
            3017            3445     36.6910E-03     36.2246E-03
            3017            3446     35.3582E-03     34.8860E-03
            3036            3446     35.3582E-03     34.8860E-03
            3018            3446     35.3582E-03     34.8860E-03
            3035            3446     35.3582E-03     34.8860E-03
            3018            3447     33.7702E-03     33.3712E-03
            3036            3447     33.7702E-03     33.3712E-03
            3019            3447     33.7702E-03     33.3712E-03
            3037            3447     33.7702E-03     33.3712E-03
            3038            3448     31.9779E-03     31.6692E-03
            3037            3448     31.9779E-03     31.6692E-03
            3019            3448     31.9779E-03     31.6692E-03
            3020            3448     31.9779E-03     31.6692E-03
            3038            3449     30.0576E-03     29.8391E-03
            3020            3449     30.0576E-03     29.8391E-03
            3021            3449     30.0576E-03     29.8391E-03
            3039            3449     30.0576E-03     29.8391E-03
            3039            3450     28.0401E-03     27.9016E-03
            3040            3450     28.0401E-03     27.9016E-03
            3021            3450     28.0401E-03     27.9016E-03
            3022            3450     28.0401E-03     27.9016E-03
            3041            3451     25.9657E-03     25.8882E-03
            3023            3451     25.9657E-03     25.8882E-03
            3022            3451     25.9657E-03     25.8882E-03
            3040            3451     25.9657E-03     25.8882E-03
            3042            3452     23.8550E-03     23.8272E-03
            3023            3452     23.8550E-03     23.8272E-03
            3041            3452     23.8550E-03     23.8272E-03
            3024            3452     23.8550E-03     23.8272E-03
            3025            3453     21.7410E-03     21.7419E-03
            3024            3453     21.7410E-03     21.7419E-03
            3042            3453     21.7410E-03     21.7419E-03
            3043            3453     21.7410E-03     21.7419E-03
            3025            3454     19.6411E-03     19.6612E-03
            3043            3454     19.6411E-03     19.6612E-03
            3044            3454     19.6411E-03     19.6612E-03
            3026            3454     19.6411E-03     19.6612E-03
            3027            3455     17.5925E-03     17.6137E-03
            3045            3455     17.5925E-03     17.6137E-03
            3044            3455     17.5925E-03     17.6137E-03
            3026            3455     17.5925E-03     17.6137E-03
            3045            3456     15.6193E-03     15.6393E-03
            3027            3456     15.6193E-03     15.6393E-03
            3046            3456     15.6193E-03     15.6393E-03
            3028            3456     15.6193E-03     15.6393E-03
            3029            3457     13.7759E-03     13.8018E-03
            3028            3457     13.7759E-03     13.8018E-03
            3046            3457     13.7759E-03     13.8018E-03
            3047            3457     13.7759E-03     13.8018E-03
            3030            3458     12.0928E-03     12.1915E-03
            3047            3458     12.0928E-03     12.1915E-03
            3029            3458     12.0928E-03     12.1915E-03
            3048            3458     12.0928E-03     12.1915E-03
            3048            3459     10.5995E-03     11.0624E-03
            3049            3459     10.5995E-03     11.0624E-03
            3031            3459     10.5995E-03     11.0624E-03
            3030            3459     10.5995E-03     11.0624E-03
            3050            3460     9.46609E-03     10.6633E-03
            3031            3460     9.46609E-03     10.6633E-03
            3032            3460     9.46609E-03     10.6633E-03
            3049            3460     9.46609E-03     10.6633E-03
            3034            3461     39.9924E-03     40.1724E-03
            3033            3461     39.9924E-03     40.1724E-03
            3051            3461     39.9924E-03     40.1724E-03
            3052            3461     39.9924E-03     40.1724E-03
            3052            3462     38.7029E-03     39.0005E-03
            3035            3462     38.7029E-03     39.0005E-03
            3034            3462     38.7029E-03     39.0005E-03
            3053            3462     38.7029E-03     39.0005E-03
            3053            3463     37.1313E-03     37.3757E-03
            3054            3463     37.1313E-03     37.3757E-03
            3036            3463     37.1313E-03     37.3757E-03
            3035            3463     37.1313E-03     37.3757E-03
            3036            3464     35.3213E-03     35.4745E-03
            3054            3464     35.3213E-03     35.4745E-03
            3055            3464     35.3213E-03     35.4745E-03
            3037            3464     35.3213E-03     35.4745E-03
            3055            3465     33.2905E-03     33.4025E-03
            3056            3465     33.2905E-03     33.4025E-03
            3038            3465     33.2905E-03     33.4025E-03
            3037            3465     33.2905E-03     33.4025E-03
            3038            3466     31.1143E-03     31.2185E-03
            3056            3466     31.1143E-03     31.2185E-03
            3039            3466     31.1143E-03     31.2185E-03
            3057            3466     31.1143E-03     31.2185E-03
            3058            3467     28.8500E-03     28.9555E-03
            3039            3467     28.8500E-03     28.9555E-03
            3057            3467     28.8500E-03     28.9555E-03
            3040            3467     28.8500E-03     28.9555E-03
            3059            3468     26.5295E-03     26.6500E-03
            3041            3468     26.5295E-03     26.6500E-03
            3058            3468     26.5295E-03     26.6500E-03
            3040            3468     26.5295E-03     26.6500E-03
            3042            3469     24.1917E-03     24.3214E-03
            3059            3469     24.1917E-03     24.3214E-03
            3041            3469     24.1917E-03     24.3214E-03
            3060            3469     24.1917E-03     24.3214E-03
            3043            3470     21.8519E-03     21.9943E-03
            3042            3470     21.8519E-03     21.9943E-03
            3060            3470     21.8519E-03     21.9943E-03
            3061            3470     21.8519E-03     21.9943E-03
            3044            3471     19.5371E-03     19.6878E-03
            3062            3471     19.5371E-03     19.6878E-03
            3061            3471     19.5371E-03     19.6878E-03
            3043            3471     19.5371E-03     19.6878E-03
            3063            3472     17.2638E-03     17.4275E-03
            3062            3472     17.2638E-03     17.4275E-03
            3044            3472     17.2638E-03     17.4275E-03
            3045            3472     17.2638E-03     17.4275E-03
            3064            3473     15.0577E-03     15.2529E-03
            3045            3473     15.0577E-03     15.2529E-03
            3046            3473     15.0577E-03     15.2529E-03
            3063            3473     15.0577E-03     15.2529E-03
            3046            3474     12.9540E-03     13.2229E-03
            3064            3474     12.9540E-03     13.2229E-03
            3047            3474     12.9540E-03     13.2229E-03
            3065            3474     12.9540E-03     13.2229E-03
            3065            3475     10.9845E-03     11.4617E-03
            3047            3475     10.9845E-03     11.4617E-03
            3048            3475     10.9845E-03     11.4617E-03
            3066            3475     10.9845E-03     11.4617E-03
            3066            3476     9.29698E-03     10.1636E-03
            3067            3476     9.29698E-03     10.1636E-03
            3048            3476     9.29698E-03     10.1636E-03
            3049            3476     9.29698E-03     10.1636E-03
            3050            3477     8.40118E-03     9.13076E-03
            3067            3477     8.40118E-03     9.13076E-03
            3068            3477     8.40118E-03     9.13076E-03
            3049            3477     8.40118E-03     9.13076E-03
            3070            3478     42.0407E-03     42.5765E-03
            3052            3478     42.0407E-03     42.5765E-03
            3069            3478     42.0407E-03     42.5765E-03
            3051            3478     42.0407E-03     42.5765E-03
            3053            3479     40.4332E-03     41.1051E-03
            3070            3479     40.4332E-03     41.1051E-03
            3052            3479     40.4332E-03     41.1051E-03
            3071            3479     40.4332E-03     41.1051E-03
            3053            3480     38.6729E-03     39.3044E-03
            3054            3480     38.6729E-03     39.3044E-03
            3071            3480     38.6729E-03     39.3044E-03
            3072            3480     38.6729E-03     39.3044E-03
            3073            3481     36.6120E-03     37.1802E-03
            3055            3481     36.6120E-03     37.1802E-03
            3054            3481     36.6120E-03     37.1802E-03
            3072            3481     36.6120E-03     37.1802E-03
            3055            3482     34.3768E-03     34.8472E-03
            3074            3482     34.3768E-03     34.8472E-03
            3073            3482     34.3768E-03     34.8472E-03
            3056            3482     34.3768E-03     34.8472E-03
            3056            3483     31.9878E-03     32.3921E-03
            3074            3483     31.9878E-03     32.3921E-03
            3075            3483     31.9878E-03     32.3921E-03
            3057            3483     31.9878E-03     32.3921E-03
            3058            3484     29.5155E-03     29.8788E-03
            3076            3484     29.5155E-03     29.8788E-03
            3075            3484     29.5155E-03     29.8788E-03
            3057            3484     29.5155E-03     29.8788E-03
            3076            3485     27.0053E-03     27.3369E-03
            3058            3485     27.0053E-03     27.3369E-03
            3077            3485     27.0053E-03     27.3369E-03
            3059            3485     27.0053E-03     27.3369E-03
            3060            3486     24.4786E-03     24.7972E-03
            3078            3486     24.4786E-03     24.7972E-03
            3059            3486     24.4786E-03     24.7972E-03
            3077            3486     24.4786E-03     24.7972E-03
            3079            3487     21.9634E-03     22.2739E-03
            3061            3487     21.9634E-03     22.2739E-03
            3060            3487     21.9634E-03     22.2739E-03
            3078            3487     21.9634E-03     22.2739E-03
            3079            3488     19.4692E-03     19.7851E-03
            3080            3488     19.4692E-03     19.7851E-03
            3062            3488     19.4692E-03     19.7851E-03
            3061            3488     19.4692E-03     19.7851E-03
            3063            3489     17.0124E-03     17.3493E-03
            3080            3489     17.0124E-03     17.3493E-03
            3062            3489     17.0124E-03     17.3493E-03
            3081            3489     17.0124E-03     17.3493E-03
            3064            3490     14.6109E-03     15.0001E-03
            3063            3490     14.6109E-03     15.0001E-03
            3082            3490     14.6109E-03     15.0001E-03
            3081            3490     14.6109E-03     15.0001E-03
            3083            3491     12.2914E-03     12.7833E-03
            3064            3491     12.2914E-03     12.7833E-03
            3065            3491     12.2914E-03     12.7833E-03
            3082            3491     12.2914E-03     12.7833E-03
            3083            3492     10.1221E-03     10.8086E-03
            3066            3492     10.1221E-03     10.8086E-03
            3065            3492     10.1221E-03     10.8086E-03
            3084            3492     10.1221E-03     10.8086E-03
            3066            3493     8.36200E-03     9.06196E-03
            3085            3493     8.36200E-03     9.06196E-03
            3084            3493     8.36200E-03     9.06196E-03
            3067            3493     8.36200E-03     9.06196E-03
            3086            3494     7.23221E-03     7.56769E-03
            3067            3494     7.23221E-03     7.56769E-03
            3068            3494     7.23221E-03     7.56769E-03
            3085            3494     7.23221E-03     7.56769E-03
            3088            3495     43.8932E-03     44.3964E-03
            3070            3495     43.8932E-03     44.3964E-03
            3087            3495     43.8932E-03     44.3964E-03
            3069            3495     43.8932E-03     44.3964E-03
            3071            3496     41.9711E-03     42.7439E-03
            3089            3496     41.9711E-03     42.7439E-03
            3088            3496     41.9711E-03     42.7439E-03
            3070            3496     41.9711E-03     42.7439E-03
            3071            3497     39.8987E-03     40.7557E-03
            3072            3497     39.8987E-03     40.7557E-03
            3089            3497     39.8987E-03     40.7557E-03
            3090            3497     39.8987E-03     40.7557E-03
            3072            3498     37.6399E-03     38.4405E-03
            3091            3498     37.6399E-03     38.4405E-03
            3090            3498     37.6399E-03     38.4405E-03
            3073            3498     37.6399E-03     38.4405E-03
            3091            3499     35.1712E-03     35.9068E-03
            3073            3499     35.1712E-03     35.9068E-03
            3074            3499     35.1712E-03     35.9068E-03
            3092            3499     35.1712E-03     35.9068E-03
            3093            3500     32.5980E-03     33.2532E-03
            3074            3500     32.5980E-03     33.2532E-03
            3092            3500     32.5980E-03     33.2532E-03
            3075            3500     32.5980E-03     33.2532E-03
            3076            3501     29.9612E-03     30.5474E-03
            3075            3501     29.9612E-03     30.5474E-03
            3094            3501     29.9612E-03     30.5474E-03
            3093            3501     29.9612E-03     30.5474E-03
            3076            3502     27.2976E-03     27.8376E-03
            3077            3502     27.2976E-03     27.8376E-03
            3094            3502     27.2976E-03     27.8376E-03
            3095            3502     27.2976E-03     27.8376E-03
            3077            3503     24.6396E-03     25.1435E-03
            3096            3503     24.6396E-03     25.1435E-03
            3078            3503     24.6396E-03     25.1435E-03
            3095            3503     24.6396E-03     25.1435E-03
            3078            3504     21.9924E-03     22.4801E-03
            3096            3504     21.9924E-03     22.4801E-03
            3097            3504     21.9924E-03     22.4801E-03
            3079            3504     21.9924E-03     22.4801E-03
            3079            3505     19.3703E-03     19.8571E-03
            3098            3505     19.3703E-03     19.8571E-03
            3080            3505     19.3703E-03     19.8571E-03
            3097            3505     19.3703E-03     19.8571E-03
            3080            3506     16.7783E-03     17.2902E-03
            3081            3506     16.7783E-03     17.2902E-03
            3098            3506     16.7783E-03     17.2902E-03
            3099            3506     16.7783E-03     17.2902E-03
            3081            3507     14.2319E-03     14.7938E-03
            3099            3507     14.2319E-03     14.7938E-03
            3082            3507     14.2319E-03     14.7938E-03
            3100            3507     14.2319E-03     14.7938E-03
            3083            3508     11.7534E-03     12.4143E-03
            3100            3508     11.7534E-03     12.4143E-03
            3101            3508     11.7534E-03     12.4143E-03
            3082            3508     11.7534E-03     12.4143E-03
            3084            3509     9.44723E-03     10.1675E-03
            3101            3509     9.44723E-03     10.1675E-03
            3102            3509     9.44723E-03     10.1675E-03
            3083            3509     9.44723E-03     10.1675E-03
            3102            3510     7.46287E-03     8.08275E-03
            3084            3510     7.46287E-03     8.08275E-03
            3103            3510     7.46287E-03     8.08275E-03
            3085            3510     7.46287E-03     8.08275E-03
            3086            3511     6.10460E-03     6.46848E-03
            3104            3511     6.10460E-03     6.46848E-03
            3085            3511     6.10460E-03     6.46848E-03
            3103            3511     6.10460E-03     6.46848E-03
            3106            3512     45.5364E-03     46.1009E-03
            3088            3512     45.5364E-03     46.1009E-03
            3087            3512     45.5364E-03     46.1009E-03
            3105            3512     45.5364E-03     46.1009E-03
            3089            3513     43.2920E-03     44.1005E-03
            3106            3513     43.2920E-03     44.1005E-03
            3088            3513     43.2920E-03     44.1005E-03
            3107            3513     43.2920E-03     44.1005E-03
            3108            3514     40.9186E-03     41.8391E-03
            3090            3514     40.9186E-03     41.8391E-03
            3089            3514     40.9186E-03     41.8391E-03
            3107            3514     40.9186E-03     41.8391E-03
            3091            3515     38.3499E-03     39.3019E-03
            3108            3515     38.3499E-03     39.3019E-03
            3090            3515     38.3499E-03     39.3019E-03
            3109            3515     38.3499E-03     39.3019E-03
            3092            3516     35.6652E-03     36.5705E-03
            3109            3516     35.6652E-03     36.5705E-03
            3110            3516     35.6652E-03     36.5705E-03
            3091            3516     35.6652E-03     36.5705E-03
            3092            3517     32.9113E-03     33.7476E-03
            3093            3517     32.9113E-03     33.7476E-03
            3111            3517     32.9113E-03     33.7476E-03
            3110            3517     32.9113E-03     33.7476E-03
            3112            3518     30.1344E-03     30.9084E-03
            3093            3518     30.1344E-03     30.9084E-03
            3111            3518     30.1344E-03     30.9084E-03
            3094            3518     30.1344E-03     30.9084E-03
            3112            3519     27.3726E-03     28.0880E-03
            3094            3519     27.3726E-03     28.0880E-03
            3095            3519     27.3726E-03     28.0880E-03
            3113            3519     27.3726E-03     28.0880E-03
            3095            3520     24.6235E-03     25.2988E-03
            3114            3520     24.6235E-03     25.2988E-03
            3113            3520     24.6235E-03     25.2988E-03
            3096            3520     24.6235E-03     25.2988E-03
            3096            3521     21.8991E-03     22.5496E-03
            3097            3521     21.8991E-03     22.5496E-03
            3114            3521     21.8991E-03     22.5496E-03
            3115            3521     21.8991E-03     22.5496E-03
            3115            3522     19.1965E-03     19.8431E-03
            3097            3522     19.1965E-03     19.8431E-03
            3098            3522     19.1965E-03     19.8431E-03
            3116            3522     19.1965E-03     19.8431E-03
            3117            3523     16.5214E-03     17.1846E-03
            3099            3523     16.5214E-03     17.1846E-03
            3098            3523     16.5214E-03     17.1846E-03
            3116            3523     16.5214E-03     17.1846E-03
            3118            3524     13.8783E-03     14.5876E-03
            3117            3524     13.8783E-03     14.5876E-03
            3100            3524     13.8783E-03     14.5876E-03
            3099            3524     13.8783E-03     14.5876E-03
            3119            3525     11.3012E-03     12.0584E-03
            3101            3525     11.3012E-03     12.0584E-03
            3100            3525     11.3012E-03     12.0584E-03
            3118            3525     11.3012E-03     12.0584E-03
            3101            3526     8.84118E-03     9.60812E-03
            3120            3526     8.84118E-03     9.60812E-03
            3102            3526     8.84118E-03     9.60812E-03
            3119            3526     8.84118E-03     9.60812E-03
            3121            3527     6.64376E-03     7.33728E-03
            3103            3527     6.64376E-03     7.33728E-03
            3102            3527     6.64376E-03     7.33728E-03
            3120            3527     6.64376E-03     7.33728E-03
            3121            3528     5.06306E-03     5.39053E-03
            3122            3528     5.06306E-03     5.39053E-03
            3103            3528     5.06306E-03     5.39053E-03
            3104            3528     5.06306E-03     5.39053E-03
            3124            3529     47.0314E-03     47.6754E-03
            3105            3529     47.0314E-03     47.6754E-03
            3106            3529     47.0314E-03     47.6754E-03
            3123            3529     47.0314E-03     47.6754E-03
            3124            3530     44.4626E-03     45.2678E-03
            3106            3530     44.4626E-03     45.2678E-03
            3125            3530     44.4626E-03     45.2678E-03
            3107            3530     44.4626E-03     45.2678E-03
            3107            3531     41.6642E-03     42.6411E-03
            3108            3531     41.6642E-03     42.6411E-03
            3125            3531     41.6642E-03     42.6411E-03
            3126            3531     41.6642E-03     42.6411E-03
            3109            3532     38.7639E-03     39.7896E-03
            3108            3532     38.7639E-03     39.7896E-03
            3126            3532     38.7639E-03     39.7896E-03
            3127            3532     38.7639E-03     39.7896E-03
            3127            3533     35.8249E-03     36.8275E-03
            3109            3533     35.8249E-03     36.8275E-03
            3110            3533     35.8249E-03     36.8275E-03
            3128            3533     35.8249E-03     36.8275E-03
            3111            3534     32.8953E-03     33.8650E-03
            3110            3534     32.8953E-03     33.8650E-03
            3129            3534     32.8953E-03     33.8650E-03
            3128            3534     32.8953E-03     33.8650E-03
            3112            3535     30.0342E-03     30.9452E-03
            3129            3535     30.0342E-03     30.9452E-03
            3111            3535     30.0342E-03     30.9452E-03
            3130            3535     30.0342E-03     30.9452E-03
            3131            3536     27.2086E-03     28.0681E-03
            3112            3536     27.2086E-03     28.0681E-03
            3130            3536     27.2086E-03     28.0681E-03
            3113            3536     27.2086E-03     28.0681E-03
            3131            3537     24.4233E-03     25.2425E-03
            3113            3537     24.4233E-03     25.2425E-03
            3114            3537     24.4233E-03     25.2425E-03
            3132            3537     24.4233E-03     25.2425E-03
            3115            3538     21.6654E-03     22.4580E-03
            3132            3538     21.6654E-03     22.4580E-03
            3133            3538     21.6654E-03     22.4580E-03
            3114            3538     21.6654E-03     22.4580E-03
            3134            3539     18.9316E-03     19.7152E-03
            3116            3539     18.9316E-03     19.7152E-03
            3115            3539     18.9316E-03     19.7152E-03
            3133            3539     18.9316E-03     19.7152E-03
            3116            3540     16.2188E-03     17.0106E-03
            3134            3540     16.2188E-03     17.0106E-03
            3135            3540     16.2188E-03     17.0106E-03
            3117            3540     16.2188E-03     17.0106E-03
            3135            3541     13.5310E-03     14.3478E-03
            3118            3541     13.5310E-03     14.3478E-03
            3136            3541     13.5310E-03     14.3478E-03
            3117            3541     13.5310E-03     14.3478E-03
            3136            3542     10.8815E-03     11.7252E-03
            3118            3542     10.8815E-03     11.7252E-03
            3119            3542     10.8815E-03     11.7252E-03
            3137            3542     10.8815E-03     11.7252E-03
            3120            3543     8.30927E-03     9.16031E-03
            3137            3543     8.30927E-03     9.16031E-03
            3138            3543     8.30927E-03     9.16031E-03
            3119            3543     8.30927E-03     9.16031E-03
            3138            3544     5.91447E-03     6.68245E-03
            3139            3544     5.91447E-03     6.68245E-03
            3121            3544     5.91447E-03     6.68245E-03
            3120            3544     5.91447E-03     6.68245E-03
            3122            3545     4.03360E-03     4.49834E-03
            3121            3545     4.03360E-03     4.49834E-03
            3140            3545     4.03360E-03     4.49834E-03
            3139            3545     4.03360E-03     4.49834E-03
            3141            3546     48.5112E-03     49.0919E-03
            3142            3546     48.5112E-03     49.0919E-03
            3123            3546     48.5112E-03     49.0919E-03
            3124            3546     48.5112E-03     49.0919E-03
            3125            3547     45.3837E-03     46.2893E-03
            3142            3547     45.3837E-03     46.2893E-03
            3124            3547     45.3837E-03     46.2893E-03
            3143            3547     45.3837E-03     46.2893E-03
            3143            3548     42.1265E-03     43.1155E-03
            3144            3548     42.1265E-03     43.1155E-03
            3125            3548     42.1265E-03     43.1155E-03
            3126            3548     42.1265E-03     43.1155E-03
            3126            3549     38.8082E-03     39.8420E-03
            3127            3549     38.8082E-03     39.8420E-03
            3145            3549     38.8082E-03     39.8420E-03
            3144            3549     38.8082E-03     39.8420E-03
            3128            3550     35.5828E-03     36.6634E-03
            3146            3550     35.5828E-03     36.6634E-03
            3127            3550     35.5828E-03     36.6634E-03
            3145            3550     35.5828E-03     36.6634E-03
            3129            3551     32.5718E-03     33.6199E-03
            3128            3551     32.5718E-03     33.6199E-03
            3146            3551     32.5718E-03     33.6199E-03
            3147            3551     32.5718E-03     33.6199E-03
            3129            3552     29.6579E-03     30.6662E-03
            3130            3552     29.6579E-03     30.6662E-03
            3147            3552     29.6579E-03     30.6662E-03
            3148            3552     29.6579E-03     30.6662E-03
            3131            3553     26.8281E-03     27.7986E-03
            3130            3553     26.8281E-03     27.7986E-03
            3148            3553     26.8281E-03     27.7986E-03
            3149            3553     26.8281E-03     27.7986E-03
            3149            3554     24.0489E-03     24.9843E-03
            3131            3554     24.0489E-03     24.9843E-03
            3150            3554     24.0489E-03     24.9843E-03
            3132            3554     24.0489E-03     24.9843E-03
            3150            3555     21.3022E-03     22.2165E-03
            3151            3555     21.3022E-03     22.2165E-03
            3133            3555     21.3022E-03     22.2165E-03
            3132            3555     21.3022E-03     22.2165E-03
            3134            3556     18.5791E-03     19.4799E-03
            3152            3556     18.5791E-03     19.4799E-03
            3151            3556     18.5791E-03     19.4799E-03
            3133            3556     18.5791E-03     19.4799E-03
            3152            3557     15.8715E-03     16.7722E-03
            3153            3557     15.8715E-03     16.7722E-03
            3135            3557     15.8715E-03     16.7722E-03
            3134            3557     15.8715E-03     16.7722E-03
            3153            3558     13.1799E-03     14.0837E-03
            3135            3558     13.1799E-03     14.0837E-03
            3136            3558     13.1799E-03     14.0837E-03
            3154            3558     13.1799E-03     14.0837E-03
            3155            3559     10.5014E-03     11.4258E-03
            3137            3559     10.5014E-03     11.4258E-03
            3136            3559     10.5014E-03     11.4258E-03
            3154            3559     10.5014E-03     11.4258E-03
            3155            3560     7.85650E-03     8.79734E-03
            3137            3560     7.85650E-03     8.79734E-03
            3156            3560     7.85650E-03     8.79734E-03
            3138            3560     7.85650E-03     8.79734E-03
            3156            3561     5.30420E-03     6.19883E-03
            3157            3561     5.30420E-03     6.19883E-03
            3138            3561     5.30420E-03     6.19883E-03
            3139            3561     5.30420E-03     6.19883E-03
            3157            3562     3.10165E-03     3.74275E-03
            3140            3562     3.10165E-03     3.74275E-03
            3158            3562     3.10165E-03     3.74275E-03
            3139            3562     3.10165E-03     3.74275E-03
            3142            3563     49.7528E-03     50.6128E-03
            3159            3563     49.7528E-03     50.6128E-03
            3141            3563     49.7528E-03     50.6128E-03
            3160            3563     49.7528E-03     50.6128E-03
            3142            3564     46.1265E-03     46.9204E-03
            3160            3564     46.1265E-03     46.9204E-03
            3143            3564     46.1265E-03     46.9204E-03
            3161            3564     46.1265E-03     46.9204E-03
            3162            3565     42.1000E-03     43.0283E-03
            3143            3565     42.1000E-03     43.0283E-03
            3161            3565     42.1000E-03     43.0283E-03
            3144            3565     42.1000E-03     43.0283E-03
            3144            3566     38.2824E-03     39.3723E-03
            3162            3566     38.2824E-03     39.3723E-03
            3163            3566     38.2824E-03     39.3723E-03
            3145            3566     38.2824E-03     39.3723E-03
            3146            3567     34.9972E-03     36.0979E-03
            3163            3567     34.9972E-03     36.0979E-03
            3164            3567     34.9972E-03     36.0979E-03
            3145            3567     34.9972E-03     36.0979E-03
            3147            3568     31.9440E-03     33.0324E-03
            3165            3568     31.9440E-03     33.0324E-03
            3146            3568     31.9440E-03     33.0324E-03
            3164            3568     31.9440E-03     33.0324E-03
            3166            3569     29.0569E-03     30.1308E-03
            3147            3569     29.0569E-03     30.1308E-03
            3165            3569     29.0569E-03     30.1308E-03
            3148            3569     29.0569E-03     30.1308E-03
            3148            3570     26.2703E-03     27.3194E-03
            3167            3570     26.2703E-03     27.3194E-03
            3166            3570     26.2703E-03     27.3194E-03
            3149            3570     26.2703E-03     27.3194E-03
            3167            3571     23.5366E-03     24.5725E-03
            3168            3571     23.5366E-03     24.5725E-03
            3149            3571     23.5366E-03     24.5725E-03
            3150            3571     23.5366E-03     24.5725E-03
            3168            3572     20.8409E-03     21.8612E-03
            3169            3572     20.8409E-03     21.8612E-03
            3150            3572     20.8409E-03     21.8612E-03
            3151            3572     20.8409E-03     21.8612E-03
            3151            3573     18.1624E-03     19.1740E-03
            3170            3573     18.1624E-03     19.1740E-03
            3169            3573     18.1624E-03     19.1740E-03
            3152            3573     18.1624E-03     19.1740E-03
            3153            3574     15.4983E-03     16.4983E-03
            3171            3574     15.4983E-03     16.4983E-03
            3170            3574     15.4983E-03     16.4983E-03
            3152            3574     15.4983E-03     16.4983E-03
            3153            3575     12.8397E-03     13.8345E-03
            3171            3575     12.8397E-03     13.8345E-03
            3172            3575     12.8397E-03     13.8345E-03
            3154            3575     12.8397E-03     13.8345E-03
            3154            3576     10.1901E-03     11.1718E-03
            3172            3576     10.1901E-03     11.1718E-03
            3173            3576     10.1901E-03     11.1718E-03
            3155            3576     10.1901E-03     11.1718E-03
            3173            3577     7.53086E-03     8.53708E-03
            3155            3577     7.53086E-03     8.53708E-03
            3156            3577     7.53086E-03     8.53708E-03
            3174            3577     7.53086E-03     8.53708E-03
            3174            3578     4.88014E-03     5.94727E-03
            3156            3578     4.88014E-03     5.94727E-03
            3175            3578     4.88014E-03     5.94727E-03
            3157            3578     4.88014E-03     5.94727E-03
            3157            3579     2.39234E-03     3.31482E-03
            3158            3579     2.39234E-03     3.31482E-03
            3175            3579     2.39234E-03     3.31482E-03
            3176            3579     2.39234E-03     3.31482E-03
            3178            3580     51.1439E-03     51.3640E-03
            3177            3580     51.1439E-03     51.3640E-03
            3159            3580     51.1439E-03     51.3640E-03
            3160            3580     51.1439E-03     51.3640E-03
            3160            3581     46.0632E-03     46.7573E-03
            3178            3581     46.0632E-03     46.7573E-03
            3161            3581     46.0632E-03     46.7573E-03
            3179            3581     46.0632E-03     46.7573E-03
            3161            3582     41.1174E-03     42.1338E-03
            3162            3582     41.1174E-03     42.1338E-03
            3180            3582     41.1174E-03     42.1338E-03
            3179            3582     41.1174E-03     42.1338E-03
            3162            3583     37.3503E-03     38.4168E-03
            3180            3583     37.3503E-03     38.4168E-03
            3181            3583     37.3503E-03     38.4168E-03
            3163            3583     37.3503E-03     38.4168E-03
            3164            3584     34.0888E-03     35.1619E-03
            3181            3584     34.0888E-03     35.1619E-03
            3182            3584     34.0888E-03     35.1619E-03
            3163            3584     34.0888E-03     35.1619E-03
            3182            3585     31.1050E-03     32.2018E-03
            3183            3585     31.1050E-03     32.2018E-03
            3164            3585     31.1050E-03     32.2018E-03
            3165            3585     31.1050E-03     32.2018E-03
            3165            3586     28.3072E-03     29.4103E-03
            3166            3586     28.3072E-03     29.4103E-03
            3184            3586     28.3072E-03     29.4103E-03
            3183            3586     28.3072E-03     29.4103E-03
            3167            3587     25.5953E-03     26.7148E-03
            3166            3587     25.5953E-03     26.7148E-03
            3184            3587     25.5953E-03     26.7148E-03
            3185            3587     25.5953E-03     26.7148E-03
            3168            3588     22.9478E-03     24.0729E-03
            3167            3588     22.9478E-03     24.0729E-03
            3185            3588     22.9478E-03     24.0729E-03
            3186            3588     22.9478E-03     24.0729E-03
            3187            3589     20.3259E-03     21.4567E-03
            3169            3589     20.3259E-03     21.4567E-03
            3186            3589     20.3259E-03     21.4567E-03
            3168            3589     20.3259E-03     21.4567E-03
            3188            3590     17.7258E-03     18.8516E-03
            3187            3590     17.7258E-03     18.8516E-03
            3169            3590     17.7258E-03     18.8516E-03
            3170            3590     17.7258E-03     18.8516E-03
            3188            3591     15.1340E-03     16.2482E-03
            3170            3591     15.1340E-03     16.2482E-03
            3189            3591     15.1340E-03     16.2482E-03
            3171            3591     15.1340E-03     16.2482E-03
            3189            3592     12.5526E-03     13.6403E-03
            3190            3592     12.5526E-03     13.6403E-03
            3172            3592     12.5526E-03     13.6403E-03
            3171            3592     12.5526E-03     13.6403E-03
            3190            3593     9.97616E-03     11.0319E-03
            3191            3593     9.97616E-03     11.0319E-03
            3172            3593     9.97616E-03     11.0319E-03
            3173            3593     9.97616E-03     11.0319E-03
            3174            3594     7.41073E-03     8.42349E-03
            3173            3594     7.41073E-03     8.42349E-03
            3191            3594     7.41073E-03     8.42349E-03
            3192            3594     7.41073E-03     8.42349E-03
            3174            3595     4.81769E-03     5.90103E-03
            3175            3595     4.81769E-03     5.90103E-03
            3193            3595     4.81769E-03     5.90103E-03
            3192            3595     4.81769E-03     5.90103E-03
            3194            3596     2.36964E-03     3.55513E-03
            3175            3596     2.36964E-03     3.55513E-03
            3176            3596     2.36964E-03     3.55513E-03
            3193            3596     2.36964E-03     3.55513E-03
            3178            3597     50.9415E-03     51.6293E-03
            3195            3597     50.9415E-03     51.6293E-03
            3177            3597     50.9415E-03     51.6293E-03
            3196            3597     50.9415E-03     51.6293E-03
            3179            3598     44.2773E-03     45.2659E-03
            3197            3598     44.2773E-03     45.2659E-03
            3178            3598     44.2773E-03     45.2659E-03
            3196            3598     44.2773E-03     45.2659E-03
            3198            3599     39.6679E-03     40.5959E-03
            3180            3599     39.6679E-03     40.5959E-03
            3179            3599     39.6679E-03     40.5959E-03
            3197            3599     39.6679E-03     40.5959E-03
            3181            3600     36.1548E-03     37.0877E-03
            3198            3600     36.1548E-03     37.0877E-03
            3199            3600     36.1548E-03     37.0877E-03
            3180            3600     36.1548E-03     37.0877E-03
            3199            3601     33.0202E-03     34.0149E-03
            3182            3601     33.0202E-03     34.0149E-03
            3200            3601     33.0202E-03     34.0149E-03
            3181            3601     33.0202E-03     34.0149E-03
            3201            3602     30.1921E-03     31.2545E-03
            3200            3602     30.1921E-03     31.2545E-03
            3183            3602     30.1921E-03     31.2545E-03
            3182            3602     30.1921E-03     31.2545E-03
            3202            3603     27.4934E-03     28.6249E-03
            3184            3603     27.4934E-03     28.6249E-03
            3183            3603     27.4934E-03     28.6249E-03
            3201            3603     27.4934E-03     28.6249E-03
            3202            3604     24.8971E-03     26.0843E-03
            3203            3604     24.8971E-03     26.0843E-03
            3185            3604     24.8971E-03     26.0843E-03
            3184            3604     24.8971E-03     26.0843E-03
            3185            3605     22.3437E-03     23.5740E-03
            3204            3605     22.3437E-03     23.5740E-03
            3203            3605     22.3437E-03     23.5740E-03
            3186            3605     22.3437E-03     23.5740E-03
            3186            3606     19.8255E-03     21.0808E-03
            3187            3606     19.8255E-03     21.0808E-03
            3205            3606     19.8255E-03     21.0808E-03
            3204            3606     19.8255E-03     21.0808E-03
            3188            3607     17.3218E-03     18.5854E-03
            3187            3607     17.3218E-03     18.5854E-03
            3206            3607     17.3218E-03     18.5854E-03
            3205            3607     17.3218E-03     18.5854E-03
            3189            3608     14.8366E-03     16.0853E-03
            3206            3608     14.8366E-03     16.0853E-03
            3188            3608     14.8366E-03     16.0853E-03
            3207            3608     14.8366E-03     16.0853E-03
            3208            3609     12.3661E-03     13.5757E-03
            3189            3609     12.3661E-03     13.5757E-03
            3190            3609     12.3661E-03     13.5757E-03
            3207            3609     12.3661E-03     13.5757E-03
            3209            3610     9.92758E-03     11.0630E-03
            3208            3610     9.92758E-03     11.0630E-03
            3191            3610     9.92758E-03     11.0630E-03
            3190            3610     9.92758E-03     11.0630E-03
            3191            3611     7.53305E-03     8.55836E-03
            3192            3611     7.53305E-03     8.55836E-03
            3209            3611     7.53305E-03     8.55836E-03
            3210            3611     7.53305E-03     8.55836E-03
            3210            3612     5.24225E-03     6.12860E-03
            3193            3612     5.24225E-03     6.12860E-03
            3211            3612     5.24225E-03     6.12860E-03
            3192            3612     5.24225E-03     6.12860E-03
            3193            3613     3.16478E-03     4.14241E-03
            3212            3613     3.16478E-03     4.14241E-03
            3211            3613     3.16478E-03     4.14241E-03
            3194            3613     3.16478E-03     4.14241E-03
            3196            3614     49.8455E-03     50.7099E-03
            3195            3614     49.8455E-03     50.7099E-03
            3214            3614     49.8455E-03     50.7099E-03
            3213            3614     49.8455E-03     50.7099E-03
            3197            3615     45.6095E-03     45.6025E-03
            3215            3615     45.6095E-03     45.6025E-03
            3214            3615     45.6095E-03     45.6025E-03
            3196            3615     45.6095E-03     45.6025E-03
            3197            3616     42.5783E-03     42.5286E-03
            3216            3616     42.5783E-03     42.5286E-03
            3215            3616     42.5783E-03     42.5286E-03
            3198            3616     42.5783E-03     42.5286E-03
            3198            3617     39.6816E-03     39.7936E-03
            3199            3617     39.6816E-03     39.7936E-03
            3217            3617     39.6816E-03     39.7936E-03
            3216            3617     39.6816E-03     39.7936E-03
            3200            3618     36.9929E-03     37.2338E-03
            3217            3618     36.9929E-03     37.2338E-03
            3199            3618     36.9929E-03     37.2338E-03
            3218            3618     36.9929E-03     37.2338E-03
            3218            3619     34.3081E-03     34.7187E-03
            3219            3619     34.3081E-03     34.7187E-03
            3200            3619     34.3081E-03     34.7187E-03
            3201            3619     34.3081E-03     34.7187E-03
            3202            3620     31.6817E-03     32.1995E-03
            3220            3620     31.6817E-03     32.1995E-03
            3219            3620     31.6817E-03     32.1995E-03
            3201            3620     31.6817E-03     32.1995E-03
            3221            3621     29.0402E-03     29.6620E-03
            3202            3621     29.0402E-03     29.6620E-03
            3220            3621     29.0402E-03     29.6620E-03
            3203            3621     29.0402E-03     29.6620E-03
            3204            3622     26.4185E-03     27.0998E-03
            3203            3622     26.4185E-03     27.0998E-03
            3222            3622     26.4185E-03     27.0998E-03
            3221            3622     26.4185E-03     27.0998E-03
            3222            3623     23.7953E-03     24.5221E-03
            3204            3623     23.7953E-03     24.5221E-03
            3205            3623     23.7953E-03     24.5221E-03
            3223            3623     23.7953E-03     24.5221E-03
            3224            3624     21.1966E-03     21.9365E-03
            3223            3624     21.1966E-03     21.9365E-03
            3205            3624     21.1966E-03     21.9365E-03
            3206            3624     21.1966E-03     21.9365E-03
            3224            3625     18.6313E-03     19.3626E-03
            3207            3625     18.6313E-03     19.3626E-03
            3225            3625     18.6313E-03     19.3626E-03
            3206            3625     18.6313E-03     19.3626E-03
            3225            3626     16.1316E-03     16.8181E-03
            3226            3626     16.1316E-03     16.8181E-03
            3208            3626     16.1316E-03     16.8181E-03
            3207            3626     16.1316E-03     16.8181E-03
            3208            3627     13.7373E-03     14.3493E-03
            3226            3627     13.7373E-03     14.3493E-03
            3227            3627     13.7373E-03     14.3493E-03
            3209            3627     13.7373E-03     14.3493E-03
            3227            3628     11.5061E-03     11.9967E-03
            3210            3628     11.5061E-03     11.9967E-03
            3209            3628     11.5061E-03     11.9967E-03
            3228            3628     11.5061E-03     11.9967E-03
            3210            3629     9.52473E-03     9.95979E-03
            3228            3629     9.52473E-03     9.95979E-03
            3229            3629     9.52473E-03     9.95979E-03
            3211            3629     9.52473E-03     9.95979E-03
            3212            3630     7.64156E-03     8.65476E-03
            3211            3630     7.64156E-03     8.65476E-03
            3230            3630     7.64156E-03     8.65476E-03
            3229            3630     7.64156E-03     8.65476E-03
            3214            3631     51.7025E-03     51.1395E-03
            3213            3631     51.7025E-03     51.1395E-03
            3232            3631     51.7025E-03     51.1395E-03
            3231            3631     51.7025E-03     51.1395E-03
            3214            3632     49.6269E-03     49.2598E-03
            3233            3632     49.6269E-03     49.2598E-03
            3232            3632     49.6269E-03     49.2598E-03
            3215            3632     49.6269E-03     49.2598E-03
            3215            3633     47.3501E-03     46.9920E-03
            3216            3633     47.3501E-03     46.9920E-03
            3233            3633     47.3501E-03     46.9920E-03
            3234            3633     47.3501E-03     46.9920E-03
            3235            3634     44.9333E-03     44.6484E-03
            3217            3634     44.9333E-03     44.6484E-03
            3234            3634     44.9333E-03     44.6484E-03
            3216            3634     44.9333E-03     44.6484E-03
            3217            3635     42.3022E-03     42.1416E-03
            3235            3635     42.3022E-03     42.1416E-03
            3236            3635     42.3022E-03     42.1416E-03
            3218            3635     42.3022E-03     42.1416E-03
            3218            3636     39.5761E-03     39.5202E-03
            3236            3636     39.5761E-03     39.5202E-03
            3219            3636     39.5761E-03     39.5202E-03
            3237            3636     39.5761E-03     39.5202E-03
            3238            3637     36.7460E-03     36.7839E-03
            3219            3637     36.7460E-03     36.7839E-03
            3237            3637     36.7460E-03     36.7839E-03
            3220            3637     36.7460E-03     36.7839E-03
            3220            3638     33.8678E-03     33.9785E-03
            3238            3638     33.8678E-03     33.9785E-03
            3221            3638     33.8678E-03     33.9785E-03
            3239            3638     33.8678E-03     33.9785E-03
            3240            3639     30.9565E-03     31.1165E-03
            3222            3639     30.9565E-03     31.1165E-03
            3239            3639     30.9565E-03     31.1165E-03
            3221            3639     30.9565E-03     31.1165E-03
            3223            3640     28.0425E-03     28.2356E-03
            3241            3640     28.0425E-03     28.2356E-03
            3222            3640     28.0425E-03     28.2356E-03
            3240            3640     28.0425E-03     28.2356E-03
            3241            3641     25.1496E-03     25.3552E-03
            3242            3641     25.1496E-03     25.3552E-03
            3224            3641     25.1496E-03     25.3552E-03
            3223            3641     25.1496E-03     25.3552E-03
            3242            3642     22.3109E-03     22.5128E-03
            3243            3642     22.3109E-03     22.5128E-03
            3224            3642     22.3109E-03     22.5128E-03
            3225            3642     22.3109E-03     22.5128E-03
            3244            3643     19.5626E-03     19.7474E-03
            3225            3643     19.5626E-03     19.7474E-03
            3243            3643     19.5626E-03     19.7474E-03
            3226            3643     19.5626E-03     19.7474E-03
            3226            3644     16.9660E-03     17.1337E-03
            3244            3644     16.9660E-03     17.1337E-03
            3227            3644     16.9660E-03     17.1337E-03
            3245            3644     16.9660E-03     17.1337E-03
            3245            3645     14.5758E-03     14.7896E-03
            3228            3645     14.5758E-03     14.7896E-03
            3227            3645     14.5758E-03     14.7896E-03
            3246            3645     14.5758E-03     14.7896E-03
            3247            3646     12.4578E-03     13.0282E-03
            3228            3646     12.4578E-03     13.0282E-03
            3229            3646     12.4578E-03     13.0282E-03
            3246            3646     12.4578E-03     13.0282E-03
            3247            3647     10.8421E-03     12.2536E-03
            3230            3647     10.8421E-03     12.2536E-03
            3229            3647     10.8421E-03     12.2536E-03
            3248            3647     10.8421E-03     12.2536E-03
            3232            3648     54.4447E-03     54.7144E-03
            3249            3648     54.4447E-03     54.7144E-03
            3250            3648     54.4447E-03     54.7144E-03
            3231            3648     54.4447E-03     54.7144E-03
            3251            3649     52.2010E-03     52.7086E-03
            3250            3649     52.2010E-03     52.7086E-03
            3232            3649     52.2010E-03     52.7086E-03
            3233            3649     52.2010E-03     52.7086E-03
            3251            3650     49.5748E-03     50.0481E-03
            3233            3650     49.5748E-03     50.0481E-03
            3234            3650     49.5748E-03     50.0481E-03
            3252            3650     49.5748E-03     50.0481E-03
            3252            3651     46.8028E-03     47.1977E-03
            3235            3651     46.8028E-03     47.1977E-03
            3253            3651     46.8028E-03     47.1977E-03
            3234            3651     46.8028E-03     47.1977E-03
            3253            3652     43.8674E-03     44.2001E-03
            3236            3652     43.8674E-03     44.2001E-03
            3235            3652     43.8674E-03     44.2001E-03
            3254            3652     43.8674E-03     44.2001E-03
            3236            3653     40.7971E-03     41.1210E-03
            3254            3653     40.7971E-03     41.1210E-03
            3255            3653     40.7971E-03     41.1210E-03
            3237            3653     40.7971E-03     41.1210E-03
            3237            3654     37.6624E-03     37.9863E-03
            3238            3654     37.6624E-03     37.9863E-03
            3255            3654     37.6624E-03     37.9863E-03
            3256            3654     37.6624E-03     37.9863E-03
            3256            3655     34.4889E-03     34.8209E-03
            3238            3655     34.4889E-03     34.8209E-03
            3257            3655     34.4889E-03     34.8209E-03
            3239            3655     34.4889E-03     34.8209E-03
            3240            3656     31.3052E-03     31.6486E-03
            3257            3656     31.3052E-03     31.6486E-03
            3258            3656     31.3052E-03     31.6486E-03
            3239            3656     31.3052E-03     31.6486E-03
            3258            3657     28.1339E-03     28.4824E-03
            3240            3657     28.1339E-03     28.4824E-03
            3241            3657     28.1339E-03     28.4824E-03
            3259            3657     28.1339E-03     28.4824E-03
            3241            3658     24.9883E-03     25.3437E-03
            3242            3658     24.9883E-03     25.3437E-03
            3259            3658     24.9883E-03     25.3437E-03
            3260            3658     24.9883E-03     25.3437E-03
            3243            3659     21.8931E-03     22.2516E-03
            3261            3659     21.8931E-03     22.2516E-03
            3242            3659     21.8931E-03     22.2516E-03
            3260            3659     21.8931E-03     22.2516E-03
            3243            3660     18.8652E-03     19.2489E-03
            3244            3660     18.8652E-03     19.2489E-03
            3262            3660     18.8652E-03     19.2489E-03
            3261            3660     18.8652E-03     19.2489E-03
            3263            3661     15.9523E-03     16.3986E-03
            3245            3661     15.9523E-03     16.3986E-03
            3262            3661     15.9523E-03     16.3986E-03
            3244            3661     15.9523E-03     16.3986E-03
            3245            3662     13.1894E-03     13.8435E-03
            3263            3662     13.1894E-03     13.8435E-03
            3246            3662     13.1894E-03     13.8435E-03
            3264            3662     13.1894E-03     13.8435E-03
            3246            3663     10.7582E-03     11.8646E-03
            3264            3663     10.7582E-03     11.8646E-03
            3265            3663     10.7582E-03     11.8646E-03
            3247            3663     10.7582E-03     11.8646E-03
            3265            3664     9.34655E-03     10.2997E-03
            3247            3664     9.34655E-03     10.2997E-03
            3248            3664     9.34655E-03     10.2997E-03
            3266            3664     9.34655E-03     10.2997E-03
            3249            3665     56.5765E-03     57.4033E-03
            3268            3665     56.5765E-03     57.4033E-03
            3267            3665     56.5765E-03     57.4033E-03
            3250            3665     56.5765E-03     57.4033E-03
            3250            3666     54.1865E-03     55.1197E-03
            3268            3666     54.1865E-03     55.1197E-03
            3251            3666     54.1865E-03     55.1197E-03
            3269            3666     54.1865E-03     55.1197E-03
            3269            3667     51.4021E-03     52.3526E-03
            3270            3667     51.4021E-03     52.3526E-03
            3252            3667     51.4021E-03     52.3526E-03
            3251            3667     51.4021E-03     52.3526E-03
            3270            3668     48.3229E-03     49.1927E-03
            3271            3668     48.3229E-03     49.1927E-03
            3253            3668     48.3229E-03     49.1927E-03
            3252            3668     48.3229E-03     49.1927E-03
            3271            3669     45.1016E-03     45.8611E-03
            3254            3669     45.1016E-03     45.8611E-03
            3272            3669     45.1016E-03     45.8611E-03
            3253            3669     45.1016E-03     45.8611E-03
            3255            3670     41.7618E-03     42.4392E-03
            3254            3670     41.7618E-03     42.4392E-03
            3272            3670     41.7618E-03     42.4392E-03
            3273            3670     41.7618E-03     42.4392E-03
            3256            3671     38.3803E-03     38.9941E-03
            3255            3671     38.3803E-03     38.9941E-03
            3273            3671     38.3803E-03     38.9941E-03
            3274            3671     38.3803E-03     38.9941E-03
            3274            3672     34.9764E-03     35.5537E-03
            3275            3672     34.9764E-03     35.5537E-03
            3257            3672     34.9764E-03     35.5537E-03
            3256            3672     34.9764E-03     35.5537E-03
            3258            3673     31.5873E-03     32.1372E-03
            3276            3673     31.5873E-03     32.1372E-03
            3275            3673     31.5873E-03     32.1372E-03
            3257            3673     31.5873E-03     32.1372E-03
            3258            3674     28.2132E-03     28.7517E-03
            3276            3674     28.2132E-03     28.7517E-03
            3277            3674     28.2132E-03     28.7517E-03
            3259            3674     28.2132E-03     28.7517E-03
            3278            3675     24.8728E-03     25.4085E-03
            3277            3675     24.8728E-03     25.4085E-03
            3260            3675     24.8728E-03     25.4085E-03
            3259            3675     24.8728E-03     25.4085E-03
            3261            3676     21.5667E-03     22.1218E-03
            3278            3676     21.5667E-03     22.1218E-03
            3279            3676     21.5667E-03     22.1218E-03
            3260            3676     21.5667E-03     22.1218E-03
            3280            3677     18.3167E-03     18.9205E-03
            3279            3677     18.3167E-03     18.9205E-03
            3261            3677     18.3167E-03     18.9205E-03
            3262            3677     18.3167E-03     18.9205E-03
            3262            3678     15.1382E-03     15.8532E-03
            3263            3678     15.1382E-03     15.8532E-03
            3280            3678     15.1382E-03     15.8532E-03
            3281            3678     15.1382E-03     15.8532E-03
            3264            3679     12.1044E-03     13.0452E-03
            3282            3679     12.1044E-03     13.0452E-03
            3263            3679     12.1044E-03     13.0452E-03
            3281            3679     12.1044E-03     13.0452E-03
            3282            3680     9.51354E-03     10.5054E-03
            3283            3680     9.51354E-03     10.5054E-03
            3265            3680     9.51354E-03     10.5054E-03
            3264            3680     9.51354E-03     10.5054E-03
            3283            3681     7.74608E-03     8.30851E-03
            3265            3681     7.74608E-03     8.30851E-03
            3266            3681     7.74608E-03     8.30851E-03
            3284            3681     7.74608E-03     8.30851E-03
            3285            3682     58.5335E-03     59.2269E-03
            3286            3682     58.5335E-03     59.2269E-03
            3267            3682     58.5335E-03     59.2269E-03
            3268            3682     58.5335E-03     59.2269E-03
            3269            3683     55.7260E-03     56.8782E-03
            3286            3683     55.7260E-03     56.8782E-03
            3287            3683     55.7260E-03     56.8782E-03
            3268            3683     55.7260E-03     56.8782E-03
            3270            3684     52.7286E-03     53.9183E-03
            3269            3684     52.7286E-03     53.9183E-03
            3287            3684     52.7286E-03     53.9183E-03
            3288            3684     52.7286E-03     53.9183E-03
            3271            3685     49.4081E-03     50.5591E-03
            3270            3685     49.4081E-03     50.5591E-03
            3289            3685     49.4081E-03     50.5591E-03
            3288            3685     49.4081E-03     50.5591E-03
            3289            3686     45.9051E-03     46.9753E-03
            3272            3686     45.9051E-03     46.9753E-03
            3290            3686     45.9051E-03     46.9753E-03
            3271            3686     45.9051E-03     46.9753E-03
            3291            3687     42.3613E-03     43.3125E-03
            3272            3687     42.3613E-03     43.3125E-03
            3290            3687     42.3613E-03     43.3125E-03
            3273            3687     42.3613E-03     43.3125E-03
            3291            3688     38.7785E-03     39.6529E-03
            3292            3688     38.7785E-03     39.6529E-03
            3273            3688     38.7785E-03     39.6529E-03
            3274            3688     38.7785E-03     39.6529E-03
            3274            3689     35.2305E-03     36.0322E-03
            3275            3689     35.2305E-03     36.0322E-03
            3292            3689     35.2305E-03     36.0322E-03
            3293            3689     35.2305E-03     36.0322E-03
            3293            3690     31.6944E-03     32.4526E-03
            3276            3690     31.6944E-03     32.4526E-03
            3275            3690     31.6944E-03     32.4526E-03
            3294            3690     31.6944E-03     32.4526E-03
            3276            3691     28.1934E-03     28.9238E-03
            3294            3691     28.1934E-03     28.9238E-03
            3277            3691     28.1934E-03     28.9238E-03
            3295            3691     28.1934E-03     28.9238E-03
            3277            3692     24.7162E-03     25.4418E-03
            3278            3692     24.7162E-03     25.4418E-03
            3296            3692     24.7162E-03     25.4418E-03
            3295            3692     24.7162E-03     25.4418E-03
            3278            3693     21.2705E-03     22.0193E-03
            3279            3693     21.2705E-03     22.0193E-03
            3296            3693     21.2705E-03     22.0193E-03
            3297            3693     21.2705E-03     22.0193E-03
            3280            3694     17.8586E-03     18.6665E-03
            3297            3694     17.8586E-03     18.6665E-03
            3279            3694     17.8586E-03     18.6665E-03
            3298            3694     17.8586E-03     18.6665E-03
            3280            3695     14.4982E-03     15.4209E-03
            3298            3695     14.4982E-03     15.4209E-03
            3281            3695     14.4982E-03     15.4209E-03
            3299            3695     14.4982E-03     15.4209E-03
            3299            3696     11.2753E-03     12.3096E-03
            3300            3696     11.2753E-03     12.3096E-03
            3281            3696     11.2753E-03     12.3096E-03
            3282            3696     11.2753E-03     12.3096E-03
            3283            3697     8.37446E-03     9.33570E-03
            3300            3697     8.37446E-03     9.33570E-03
            3282            3697     8.37446E-03     9.33570E-03
            3301            3697     8.37446E-03     9.33570E-03
            3301            3698     6.24255E-03     6.86822E-03
            3302            3698     6.24255E-03     6.86822E-03
            3284            3698     6.24255E-03     6.86822E-03
            3283            3698     6.24255E-03     6.86822E-03
            3286            3699     60.0708E-03     60.9719E-03
            3285            3699     60.0708E-03     60.9719E-03
            3304            3699     60.0708E-03     60.9719E-03
            3303            3699     60.0708E-03     60.9719E-03
            3305            3700     57.0644E-03     58.1474E-03
            3304            3700     57.0644E-03     58.1474E-03
            3286            3700     57.0644E-03     58.1474E-03
            3287            3700     57.0644E-03     58.1474E-03
            3287            3701     53.6157E-03     54.9359E-03
            3306            3701     53.6157E-03     54.9359E-03
            3288            3701     53.6157E-03     54.9359E-03
            3305            3701     53.6157E-03     54.9359E-03
            3306            3702     49.9842E-03     51.3032E-03
            3288            3702     49.9842E-03     51.3032E-03
            3307            3702     49.9842E-03     51.3032E-03
            3289            3702     49.9842E-03     51.3032E-03
            3307            3703     46.2565E-03     47.4883E-03
            3308            3703     46.2565E-03     47.4883E-03
            3289            3703     46.2565E-03     47.4883E-03
            3290            3703     46.2565E-03     47.4883E-03
            3291            3704     42.4994E-03     43.6654E-03
            3308            3704     42.4994E-03     43.6654E-03
            3309            3704     42.4994E-03     43.6654E-03
            3290            3704     42.4994E-03     43.6654E-03
            3309            3705     38.8295E-03     39.8941E-03
            3292            3705     38.8295E-03     39.8941E-03
            3310            3705     38.8295E-03     39.8941E-03
            3291            3705     38.8295E-03     39.8941E-03
            3293            3706     35.1823E-03     36.1787E-03
            3310            3706     35.1823E-03     36.1787E-03
            3311            3706     35.1823E-03     36.1787E-03
            3292            3706     35.1823E-03     36.1787E-03
            3312            3707     31.5879E-03     32.5288E-03
            3293            3707     31.5879E-03     32.5288E-03
            3294            3707     31.5879E-03     32.5288E-03
            3311            3707     31.5879E-03     32.5288E-03
            3294            3708     28.0185E-03     28.9278E-03
            3295            3708     28.0185E-03     28.9278E-03
            3313            3708     28.0185E-03     28.9278E-03
            3312            3708     28.0185E-03     28.9278E-03
            3313            3709     24.4778E-03     25.3795E-03
            3296            3709     24.4778E-03     25.3795E-03
            3314            3709     24.4778E-03     25.3795E-03
            3295            3709     24.4778E-03     25.3795E-03
            3315            3710     20.9580E-03     21.8761E-03
            3296            3710     20.9580E-03     21.8761E-03
            3297            3710     20.9580E-03     21.8761E-03
            3314            3710     20.9580E-03     21.8761E-03
            3298            3711     17.4552E-03     18.4300E-03
            3316            3711     17.4552E-03     18.4300E-03
            3315            3711     17.4552E-03     18.4300E-03
            3297            3711     17.4552E-03     18.4300E-03
            3317            3712     13.9900E-03     15.0502E-03
            3316            3712     13.9900E-03     15.0502E-03
            3298            3712     13.9900E-03     15.0502E-03
            3299            3712     13.9900E-03     15.0502E-03
            3317            3713     10.6078E-03     11.7082E-03
            3299            3713     10.6078E-03     11.7082E-03
            3318            3713     10.6078E-03     11.7082E-03
            3300            3713     10.6078E-03     11.7082E-03
            3301            3714     7.40127E-03     8.51835E-03
            3319            3714     7.40127E-03     8.51835E-03
            3300            3714     7.40127E-03     8.51835E-03
            3318            3714     7.40127E-03     8.51835E-03
            3302            3715     4.84949E-03     5.58366E-03
            3301            3715     4.84949E-03     5.58366E-03
            3319            3715     4.84949E-03     5.58366E-03
            3320            3715     4.84949E-03     5.58366E-03
            3303            3716     61.6575E-03     62.4057E-03
            3304            3716     61.6575E-03     62.4057E-03
            3322            3716     61.6575E-03     62.4057E-03
            3321            3716     61.6575E-03     62.4057E-03
            3323            3717     57.9848E-03     59.2226E-03
            3304            3717     57.9848E-03     59.2226E-03
            3305            3717     57.9848E-03     59.2226E-03
            3322            3717     57.9848E-03     59.2226E-03
            3323            3718     54.1080E-03     55.4189E-03
            3306            3718     54.1080E-03     55.4189E-03
            3305            3718     54.1080E-03     55.4189E-03
            3324            3718     54.1080E-03     55.4189E-03
            3324            3719     50.0446E-03     51.3904E-03
            3306            3719     50.0446E-03     51.3904E-03
            3325            3719     50.0446E-03     51.3904E-03
            3307            3719     50.0446E-03     51.3904E-03
            3326            3720     46.0294E-03     47.3856E-03
            3307            3720     46.0294E-03     47.3856E-03
            3308            3720     46.0294E-03     47.3856E-03
            3325            3720     46.0294E-03     47.3856E-03
            3309            3721     42.2231E-03     43.4970E-03
            3326            3721     42.2231E-03     43.4970E-03
            3327            3721     42.2231E-03     43.4970E-03
            3308            3721     42.2231E-03     43.4970E-03
            3327            3722     38.4912E-03     39.6982E-03
            3310            3722     38.4912E-03     39.6982E-03
            3309            3722     38.4912E-03     39.6982E-03
            3328            3722     38.4912E-03     39.6982E-03
            3310            3723     34.8502E-03     35.9917E-03
            3329            3723     34.8502E-03     35.9917E-03
            3311            3723     34.8502E-03     35.9917E-03
            3328            3723     34.8502E-03     35.9917E-03
            3311            3724     31.2499E-03     32.3450E-03
            3330            3724     31.2499E-03     32.3450E-03
            3312            3724     31.2499E-03     32.3450E-03
            3329            3724     31.2499E-03     32.3450E-03
            3312            3725     27.6860E-03     28.7526E-03
            3330            3725     27.6860E-03     28.7526E-03
            3331            3725     27.6860E-03     28.7526E-03
            3313            3725     27.6860E-03     28.7526E-03
            3331            3726     24.1425E-03     25.1970E-03
            3332            3726     24.1425E-03     25.1970E-03
            3313            3726     24.1425E-03     25.1970E-03
            3314            3726     24.1425E-03     25.1970E-03
            3332            3727     20.6121E-03     21.6779E-03
            3314            3727     20.6121E-03     21.6779E-03
            3315            3727     20.6121E-03     21.6779E-03
            3333            3727     20.6121E-03     21.6779E-03
            3333            3728     17.0948E-03     18.1904E-03
            3316            3728     17.0948E-03     18.1904E-03
            3334            3728     17.0948E-03     18.1904E-03
            3315            3728     17.0948E-03     18.1904E-03
            3317            3729     13.5844E-03     14.7317E-03
            3334            3729     13.5844E-03     14.7317E-03
            3316            3729     13.5844E-03     14.7317E-03
            3335            3729     13.5844E-03     14.7317E-03
            3317            3730     10.0918E-03     11.3325E-03
            3336            3730     10.0918E-03     11.3325E-03
            3318            3730     10.0918E-03     11.3325E-03
            3335            3730     10.0918E-03     11.3325E-03
            3336            3731     6.70516E-03     7.92030E-03
            3337            3731     6.70516E-03     7.92030E-03
            3319            3731     6.70516E-03     7.92030E-03
            3318            3731     6.70516E-03     7.92030E-03
            3320            3732     3.62499E-03     4.68323E-03
            3338            3732     3.62499E-03     4.68323E-03
            3319            3732     3.62499E-03     4.68323E-03
            3337            3732     3.62499E-03     4.68323E-03
            3339            3733     62.8361E-03     63.9377E-03
            3340            3733     62.8361E-03     63.9377E-03
            3322            3733     62.8361E-03     63.9377E-03
            3321            3733     62.8361E-03     63.9377E-03
            3322            3734     58.6901E-03     59.7400E-03
            3341            3734     58.6901E-03     59.7400E-03
            3340            3734     58.6901E-03     59.7400E-03
            3323            3734     58.6901E-03     59.7400E-03
            3323            3735     53.9476E-03     55.1784E-03
            3341            3735     53.9476E-03     55.1784E-03
            3342            3735     53.9476E-03     55.1784E-03
            3324            3735     53.9476E-03     55.1784E-03
            3343            3736     49.3748E-03     50.7590E-03
            3324            3736     49.3748E-03     50.7590E-03
            3325            3736     49.3748E-03     50.7590E-03
            3342            3736     49.3748E-03     50.7590E-03
            3325            3737     45.3354E-03     46.7043E-03
            3344            3737     45.3354E-03     46.7043E-03
            3326            3737     45.3354E-03     46.7043E-03
            3343            3737     45.3354E-03     46.7043E-03
            3345            3738     41.5093E-03     42.8370E-03
            3344            3738     41.5093E-03     42.8370E-03
            3327            3738     41.5093E-03     42.8370E-03
            3326            3738     41.5093E-03     42.8370E-03
            3328            3739     37.8402E-03     39.1273E-03
            3345            3739     37.8402E-03     39.1273E-03
            3346            3739     37.8402E-03     39.1273E-03
            3327            3739     37.8402E-03     39.1273E-03
            3328            3740     34.2560E-03     35.5048E-03
            3329            3740     34.2560E-03     35.5048E-03
            3347            3740     34.2560E-03     35.5048E-03
            3346            3740     34.2560E-03     35.5048E-03
            3348            3741     30.7214E-03     31.9454E-03
            3330            3741     30.7214E-03     31.9454E-03
            3329            3741     30.7214E-03     31.9454E-03
            3347            3741     30.7214E-03     31.9454E-03
            3349            3742     27.2168E-03     28.4225E-03
            3330            3742     27.2168E-03     28.4225E-03
            3348            3742     27.2168E-03     28.4225E-03
            3331            3742     27.2168E-03     28.4225E-03
            3349            3743     23.7278E-03     24.9245E-03
            3331            3743     23.7278E-03     24.9245E-03
            3332            3743     23.7278E-03     24.9245E-03
            3350            3743     23.7278E-03     24.9245E-03
            3351            3744     20.2491E-03     21.4433E-03
            3350            3744     20.2491E-03     21.4433E-03
            3333            3744     20.2491E-03     21.4433E-03
            3332            3744     20.2491E-03     21.4433E-03
            3334            3745     16.7746E-03     17.9735E-03
            3351            3745     16.7746E-03     17.9735E-03
            3352            3745     16.7746E-03     17.9735E-03
            3333            3745     16.7746E-03     17.9735E-03
            3334            3746     13.3011E-03     14.5189E-03
            3352            3746     13.3011E-03     14.5189E-03
            3335            3746     13.3011E-03     14.5189E-03
            3353            3746     13.3011E-03     14.5189E-03
            3336            3747     9.81400E-03     11.0973E-03
            3354            3747     9.81400E-03     11.0973E-03
            3353            3747     9.81400E-03     11.0973E-03
            3335            3747     9.81400E-03     11.0973E-03
            3337            3748     6.31130E-03     7.74840E-03
            3336            3748     6.31130E-03     7.74840E-03
            3354            3748     6.31130E-03     7.74840E-03
            3355            3748     6.31130E-03     7.74840E-03
            3356            3749     3.02586E-03     4.32127E-03
            3355            3749     3.02586E-03     4.32127E-03
            3337            3749     3.02586E-03     4.32127E-03
            3338            3749     3.02586E-03     4.32127E-03
            3357            3750     64.1675E-03     64.4654E-03
            3358            3750     64.1675E-03     64.4654E-03
            3340            3750     64.1675E-03     64.4654E-03
            3339            3750     64.1675E-03     64.4654E-03
            3341            3751     58.3900E-03     59.2816E-03
            3340            3751     58.3900E-03     59.2816E-03
            3358            3751     58.3900E-03     59.2816E-03
            3359            3751     58.3900E-03     59.2816E-03
            3360            3752     52.6530E-03     53.9076E-03
            3359            3752     52.6530E-03     53.9076E-03
            3342            3752     52.6530E-03     53.9076E-03
            3341            3752     52.6530E-03     53.9076E-03
            3361            3753     48.1690E-03     49.4807E-03
            3342            3753     48.1690E-03     49.4807E-03
            3360            3753     48.1690E-03     49.4807E-03
            3343            3753     48.1690E-03     49.4807E-03
            3343            3754     44.2007E-03     45.5034E-03
            3361            3754     44.2007E-03     45.5034E-03
            3362            3754     44.2007E-03     45.5034E-03
            3344            3754     44.2007E-03     45.5034E-03
            3345            3755     40.4895E-03     41.8124E-03
            3362            3755     40.4895E-03     41.8124E-03
            3363            3755     40.4895E-03     41.8124E-03
            3344            3755     40.4895E-03     41.8124E-03
            3364            3756     36.9511E-03     38.2744E-03
            3363            3756     36.9511E-03     38.2744E-03
            3346            3756     36.9511E-03     38.2744E-03
            3345            3756     36.9511E-03     38.2744E-03
            3346            3757     33.4818E-03     34.8175E-03
            3365            3757     33.4818E-03     34.8175E-03
            3347            3757     33.4818E-03     34.8175E-03
            3364            3757     33.4818E-03     34.8175E-03
            3365            3758     30.0643E-03     31.4053E-03
            3366            3758     30.0643E-03     31.4053E-03
            3348            3758     30.0643E-03     31.4053E-03
            3347            3758     30.0643E-03     31.4053E-03
            3366            3759     26.6649E-03     28.0094E-03
            3349            3759     26.6649E-03     28.0094E-03
            3367            3759     26.6649E-03     28.0094E-03
            3348            3759     26.6649E-03     28.0094E-03
            3367            3760     23.2805E-03     24.6223E-03
            3350            3760     23.2805E-03     24.6223E-03
            3368            3760     23.2805E-03     24.6223E-03
            3349            3760     23.2805E-03     24.6223E-03
            3350            3761     19.9037E-03     21.2321E-03
            3351            3761     19.9037E-03     21.2321E-03
            3368            3761     19.9037E-03     21.2321E-03
            3369            3761     19.9037E-03     21.2321E-03
            3352            3762     16.5345E-03     17.8429E-03
            3351            3762     16.5345E-03     17.8429E-03
            3369            3762     16.5345E-03     17.8429E-03
            3370            3762     16.5345E-03     17.8429E-03
            3352            3763     13.1785E-03     14.4550E-03
            3371            3763     13.1785E-03     14.4550E-03
            3353            3763     13.1785E-03     14.4550E-03
            3370            3763     13.1785E-03     14.4550E-03
            3353            3764     9.83315E-03     11.0878E-03
            3354            3764     9.83315E-03     11.0878E-03
            3372            3764     9.83315E-03     11.0878E-03
            3371            3764     9.83315E-03     11.0878E-03
            3373            3765     6.47328E-03     7.88215E-03
            3354            3765     6.47328E-03     7.88215E-03
            3355            3765     6.47328E-03     7.88215E-03
            3372            3765     6.47328E-03     7.88215E-03
            3373            3766     3.43250E-03     4.94007E-03
            3355            3766     3.43250E-03     4.94007E-03
            3356            3766     3.43250E-03     4.94007E-03
            3374            3766     3.43250E-03     4.94007E-03
            3376            3767     63.6426E-03     64.3434E-03
            3357            3767     63.6426E-03     64.3434E-03
            3375            3767     63.6426E-03     64.3434E-03
            3358            3767     63.6426E-03     64.3434E-03
            3358            3768     56.0987E-03     57.1817E-03
            3377            3768     56.0987E-03     57.1817E-03
            3359            3768     56.0987E-03     57.1817E-03
            3376            3768     56.0987E-03     57.1817E-03
            3378            3769     50.7683E-03     51.8153E-03
            3360            3769     50.7683E-03     51.8153E-03
            3377            3769     50.7683E-03     51.8153E-03
            3359            3769     50.7683E-03     51.8153E-03
            3379            3770     46.6145E-03     47.6895E-03
            3360            3770     46.6145E-03     47.6895E-03
            3361            3770     46.6145E-03     47.6895E-03
            3378            3770     46.6145E-03     47.6895E-03
            3361            3771     42.8170E-03     43.9936E-03
            3362            3771     42.8170E-03     43.9936E-03
            3379            3771     42.8170E-03     43.9936E-03
            3380            3771     42.8170E-03     43.9936E-03
            3362            3772     39.3264E-03     40.5938E-03
            3381            3772     39.3264E-03     40.5938E-03
            3380            3772     39.3264E-03     40.5938E-03
            3363            3772     39.3264E-03     40.5938E-03
            3382            3773     35.9376E-03     37.2942E-03
            3381            3773     35.9376E-03     37.2942E-03
            3363            3773     35.9376E-03     37.2942E-03
            3364            3773     35.9376E-03     37.2942E-03
            3364            3774     32.6376E-03     34.0620E-03
            3382            3774     32.6376E-03     34.0620E-03
            3383            3774     32.6376E-03     34.0620E-03
            3365            3774     32.6376E-03     34.0620E-03
            3365            3775     29.3629E-03     30.8357E-03
            3383            3775     29.3629E-03     30.8357E-03
            3384            3775     29.3629E-03     30.8357E-03
            3366            3775     29.3629E-03     30.8357E-03
            3367            3776     26.1122E-03     27.6141E-03
            3385            3776     26.1122E-03     27.6141E-03
            3366            3776     26.1122E-03     27.6141E-03
            3384            3776     26.1122E-03     27.6141E-03
            3386            3777     22.8691E-03     24.3770E-03
            3385            3777     22.8691E-03     24.3770E-03
            3367            3777     22.8691E-03     24.3770E-03
            3368            3777     22.8691E-03     24.3770E-03
            3368            3778     19.6413E-03     21.1325E-03
            3369            3778     19.6413E-03     21.1325E-03
            3386            3778     19.6413E-03     21.1325E-03
            3387            3778     19.6413E-03     21.1325E-03
            3370            3779     16.4362E-03     17.8758E-03
            3388            3779     16.4362E-03     17.8758E-03
            3369            3779     16.4362E-03     17.8758E-03
            3387            3779     16.4362E-03     17.8758E-03
            3389            3780     13.2751E-03     14.6241E-03
            3371            3780     13.2751E-03     14.6241E-03
            3370            3780     13.2751E-03     14.6241E-03
            3388            3780     13.2751E-03     14.6241E-03
            3390            3781     10.1938E-03     11.4070E-03
            3371            3781     10.1938E-03     11.4070E-03
            3389            3781     10.1938E-03     11.4070E-03
            3372            3781     10.1938E-03     11.4070E-03
            3372            3782     7.27637E-03     8.33770E-03
            3373            3782     7.27637E-03     8.33770E-03
            3391            3782     7.27637E-03     8.33770E-03
            3390            3782     7.27637E-03     8.33770E-03
            3374            3783     4.71731E-03     5.97683E-03
            3373            3783     4.71731E-03     5.97683E-03
            3391            3783     4.71731E-03     5.97683E-03
            3392            3783     4.71731E-03     5.97683E-03
            4348            4562     58.3604E-03     60.2247E-03
            4366            4562     58.3604E-03     60.2247E-03
            4365            4562     58.3604E-03     60.2247E-03
            4347            4562     58.3604E-03     60.2247E-03
            4366            4563     52.5876E-03     53.6650E-03
            4367            4563     52.5876E-03     53.6650E-03
            4349            4563     52.5876E-03     53.6650E-03
            4348            4563     52.5876E-03     53.6650E-03
            4349            4564     48.4773E-03     49.4110E-03
            4350            4564     48.4773E-03     49.4110E-03
            4368            4564     48.4773E-03     49.4110E-03
            4367            4564     48.4773E-03     49.4110E-03
            4369            4565     44.6958E-03     45.6695E-03
            4368            4565     44.6958E-03     45.6695E-03
            4351            4565     44.6958E-03     45.6695E-03
            4350            4565     44.6958E-03     45.6695E-03
            4352            4566     41.2277E-03     42.2356E-03
            4351            4566     41.2277E-03     42.2356E-03
            4370            4566     41.2277E-03     42.2356E-03
            4369            4566     41.2277E-03     42.2356E-03
            4352            4567     37.8648E-03     38.9553E-03
            4370            4567     37.8648E-03     38.9553E-03
            4371            4567     37.8648E-03     38.9553E-03
            4353            4567     37.8648E-03     38.9553E-03
            4353            4568     34.6084E-03     35.7476E-03
            4371            4568     34.6084E-03     35.7476E-03
            4354            4568     34.6084E-03     35.7476E-03
            4372            4568     34.6084E-03     35.7476E-03
            4355            4569     31.3867E-03     32.5825E-03
            4373            4569     31.3867E-03     32.5825E-03
            4372            4569     31.3867E-03     32.5825E-03
            4354            4569     31.3867E-03     32.5825E-03
            4355            4570     28.2028E-03     29.4290E-03
            4374            4570     28.2028E-03     29.4290E-03
            4373            4570     28.2028E-03     29.4290E-03
            4356            4570     28.2028E-03     29.4290E-03
            4356            4571     25.0289E-03     26.2805E-03
            4375            4571     25.0289E-03     26.2805E-03
            4374            4571     25.0289E-03     26.2805E-03
            4357            4571     25.0289E-03     26.2805E-03
            4357            4572     21.8701E-03     23.1276E-03
            4376            4572     21.8701E-03     23.1276E-03
            4358            4572     21.8701E-03     23.1276E-03
            4375            4572     21.8701E-03     23.1276E-03
            4358            4573     18.7175E-03     19.9682E-03
            4377            4573     18.7175E-03     19.9682E-03
            4376            4573     18.7175E-03     19.9682E-03
            4359            4573     18.7175E-03     19.9682E-03
            4378            4574     15.5808E-03     16.8036E-03
            4377            4574     15.5808E-03     16.8036E-03
            4359            4574     15.5808E-03     16.8036E-03
            4360            4574     15.5808E-03     16.8036E-03
            4379            4575     12.4649E-03     13.6332E-03
            4378            4575     12.4649E-03     13.6332E-03
            4360            4575     12.4649E-03     13.6332E-03
            4361            4575     12.4649E-03     13.6332E-03
            4362            4576     9.39420E-03     10.4702E-03
            4380            4576     9.39420E-03     10.4702E-03
            4361            4576     9.39420E-03     10.4702E-03
            4379            4576     9.39420E-03     10.4702E-03
            4380            4577     6.41510E-03     7.34783E-03
            4363            4577     6.41510E-03     7.34783E-03
            4381            4577     6.41510E-03     7.34783E-03
            4362            4577     6.41510E-03     7.34783E-03
            4364            4578     3.59236E-03     4.45325E-03
            4382            4578     3.59236E-03     4.45325E-03
            4381            4578     3.59236E-03     4.45325E-03
            4363            4578     3.59236E-03     4.45325E-03
            4383            4579     60.3837E-03     61.2448E-03
            4365            4579     60.3837E-03     61.2448E-03
            4384            4579     60.3837E-03     61.2448E-03
            4366            4579     60.3837E-03     61.2448E-03
            4385            4580     52.3531E-03     53.5734E-03
            4367            4580     52.3531E-03     53.5734E-03
            4384            4580     52.3531E-03     53.5734E-03
            4366            4580     52.3531E-03     53.5734E-03
            4386            4581     46.8654E-03     48.0072E-03
            4385            4581     46.8654E-03     48.0072E-03
            4368            4581     46.8654E-03     48.0072E-03
            4367            4581     46.8654E-03     48.0072E-03
            4386            4582     42.7023E-03     43.8513E-03
            4369            4582     42.7023E-03     43.8513E-03
            4368            4582     42.7023E-03     43.8513E-03
            4387            4582     42.7023E-03     43.8513E-03
            4387            4583     38.9938E-03     40.2191E-03
            4369            4583     38.9938E-03     40.2191E-03
            4370            4583     38.9938E-03     40.2191E-03
            4388            4583     38.9938E-03     40.2191E-03
            4370            4584     35.6540E-03     36.9611E-03
            4371            4584     35.6540E-03     36.9611E-03
            4389            4584     35.6540E-03     36.9611E-03
            4388            4584     35.6540E-03     36.9611E-03
            4390            4585     32.4664E-03     33.8565E-03
            4371            4585     32.4664E-03     33.8565E-03
            4372            4585     32.4664E-03     33.8565E-03
            4389            4585     32.4664E-03     33.8565E-03
            4372            4586     29.3999E-03     30.8561E-03
            4373            4586     29.3999E-03     30.8561E-03
            4391            4586     29.3999E-03     30.8561E-03
            4390            4586     29.3999E-03     30.8561E-03
            4391            4587     26.3817E-03     27.8890E-03
            4373            4587     26.3817E-03     27.8890E-03
            4374            4587     26.3817E-03     27.8890E-03
            4392            4587     26.3817E-03     27.8890E-03
            4375            4588     23.4035E-03     24.9401E-03
            4374            4588     23.4035E-03     24.9401E-03
            4392            4588     23.4035E-03     24.9401E-03
            4393            4588     23.4035E-03     24.9401E-03
            4394            4589     20.4398E-03     21.9865E-03
            4376            4589     20.4398E-03     21.9865E-03
            4375            4589     20.4398E-03     21.9865E-03
            4393            4589     20.4398E-03     21.9865E-03
            4376            4590     17.4958E-03     19.0253E-03
            4395            4590     17.4958E-03     19.0253E-03
            4394            4590     17.4958E-03     19.0253E-03
            4377            4590     17.4958E-03     19.0253E-03
            4377            4591     14.5663E-03     16.0502E-03
            4395            4591     14.5663E-03     16.0502E-03
            4396            4591     14.5663E-03     16.0502E-03
            4378            4591     14.5663E-03     16.0502E-03
            4397            4592     11.6711E-03     13.0674E-03
            4379            4592     11.6711E-03     13.0674E-03
            4396            4592     11.6711E-03     13.0674E-03
            4378            4592     11.6711E-03     13.0674E-03
            4380            4593     8.82283E-03     10.0870E-03
            4398            4593     8.82283E-03     10.0870E-03
            4379            4593     8.82283E-03     10.0870E-03
            4397            4593     8.82283E-03     10.0870E-03
            4380            4594     6.08950E-03     7.17496E-03
            4399            4594     6.08950E-03     7.17496E-03
            4398            4594     6.08950E-03     7.17496E-03
            4381            4594     6.08950E-03     7.17496E-03
            4399            4595     3.57542E-03     4.74918E-03
            4382            4595     3.57542E-03     4.74918E-03
            4381            4595     3.57542E-03     4.74918E-03
            4400            4595     3.57542E-03     4.74918E-03
            4401            4596     60.5965E-03     60.8411E-03
            4384            4596     60.5965E-03     60.8411E-03
            4402            4596     60.5965E-03     60.8411E-03
            4383            4596     60.5965E-03     60.8411E-03
            4403            4597     54.4586E-03     55.2968E-03
            4402            4597     54.4586E-03     55.2968E-03
            4385            4597     54.4586E-03     55.2968E-03
            4384            4597     54.4586E-03     55.2968E-03
            4404            4598     48.5412E-03     49.7754E-03
            4386            4598     48.5412E-03     49.7754E-03
            4403            4598     48.5412E-03     49.7754E-03
            4385            4598     48.5412E-03     49.7754E-03
            4405            4599     44.0813E-03     45.3747E-03
            4387            4599     44.0813E-03     45.3747E-03
            4386            4599     44.0813E-03     45.3747E-03
            4404            4599     44.0813E-03     45.3747E-03
            4387            4600     40.2282E-03     41.5316E-03
            4406            4600     40.2282E-03     41.5316E-03
            4405            4600     40.2282E-03     41.5316E-03
            4388            4600     40.2282E-03     41.5316E-03
            4406            4601     36.7094E-03     38.0420E-03
            4388            4601     36.7094E-03     38.0420E-03
            4389            4601     36.7094E-03     38.0420E-03
            4407            4601     36.7094E-03     38.0420E-03
            4408            4602     33.4109E-03     34.7517E-03
            4407            4602     33.4109E-03     34.7517E-03
            4390            4602     33.4109E-03     34.7517E-03
            4389            4602     33.4109E-03     34.7517E-03
            4391            4603     30.2125E-03     31.5735E-03
            4408            4603     30.2125E-03     31.5735E-03
            4390            4603     30.2125E-03     31.5735E-03
            4409            4603     30.2125E-03     31.5735E-03
            4410            4604     27.0886E-03     28.4566E-03
            4409            4604     27.0886E-03     28.4566E-03
            4391            4604     27.0886E-03     28.4566E-03
            4392            4604     27.0886E-03     28.4566E-03
            4393            4605     23.9929E-03     25.3680E-03
            4410            4605     23.9929E-03     25.3680E-03
            4392            4605     23.9929E-03     25.3680E-03
            4411            4605     23.9929E-03     25.3680E-03
            4393            4606     20.9215E-03     22.2908E-03
            4411            4606     20.9215E-03     22.2908E-03
            4394            4606     20.9215E-03     22.2908E-03
            4412            4606     20.9215E-03     22.2908E-03
            4394            4607     17.8582E-03     19.2138E-03
            4413            4607     17.8582E-03     19.2138E-03
            4412            4607     17.8582E-03     19.2138E-03
            4395            4607     17.8582E-03     19.2138E-03
            4395            4608     14.8066E-03     16.1298E-03
            4396            4608     14.8066E-03     16.1298E-03
            4414            4608     14.8066E-03     16.1298E-03
            4413            4608     14.8066E-03     16.1298E-03
            4396            4609     11.7600E-03     13.0422E-03
            4397            4609     11.7600E-03     13.0422E-03
            4414            4609     11.7600E-03     13.0422E-03
            4415            4609     11.7600E-03     13.0422E-03
            4397            4610     8.72674E-03     9.94896E-03
            4398            4610     8.72674E-03     9.94896E-03
            4416            4610     8.72674E-03     9.94896E-03
            4415            4610     8.72674E-03     9.94896E-03
            4398            4611     5.66089E-03     6.94327E-03
            4416            4611     5.66089E-03     6.94327E-03
            4399            4611     5.66089E-03     6.94327E-03
            4417            4611     5.66089E-03     6.94327E-03
            4399            4612     2.73291E-03     4.13842E-03
            4400            4612     2.73291E-03     4.13842E-03
            4418            4612     2.73291E-03     4.13842E-03
            4417            4612     2.73291E-03     4.13842E-03
            4420            4613     58.8905E-03     59.9137E-03
            4419            4613     58.8905E-03     59.9137E-03
            4401            4613     58.8905E-03     59.9137E-03
            4402            4613     58.8905E-03     59.9137E-03
            4421            4614     54.5310E-03     55.4714E-03
            4420            4614     54.5310E-03     55.4714E-03
            4402            4614     54.5310E-03     55.4714E-03
            4403            4614     54.5310E-03     55.4714E-03
            4404            4615     49.7002E-03     50.8157E-03
            4403            4615     49.7002E-03     50.8157E-03
            4421            4615     49.7002E-03     50.8157E-03
            4422            4615     49.7002E-03     50.8157E-03
            4423            4616     45.1630E-03     46.4767E-03
            4405            4616     45.1630E-03     46.4767E-03
            4422            4616     45.1630E-03     46.4767E-03
            4404            4616     45.1630E-03     46.4767E-03
            4423            4617     41.2847E-03     42.6089E-03
            4424            4617     41.2847E-03     42.6089E-03
            4405            4617     41.2847E-03     42.6089E-03
            4406            4617     41.2847E-03     42.6089E-03
            4406            4618     37.6841E-03     38.9941E-03
            4424            4618     37.6841E-03     38.9941E-03
            4407            4618     37.6841E-03     38.9941E-03
            4425            4618     37.6841E-03     38.9941E-03
            4426            4619     34.2833E-03     35.5753E-03
            4407            4619     34.2833E-03     35.5753E-03
            4408            4619     34.2833E-03     35.5753E-03
            4425            4619     34.2833E-03     35.5753E-03
            4426            4620     30.9997E-03     32.2626E-03
            4427            4620     30.9997E-03     32.2626E-03
            4408            4620     30.9997E-03     32.2626E-03
            4409            4620     30.9997E-03     32.2626E-03
            4427            4621     27.7775E-03     29.0251E-03
            4428            4621     27.7775E-03     29.0251E-03
            4409            4621     27.7775E-03     29.0251E-03
            4410            4621     27.7775E-03     29.0251E-03
            4410            4622     24.5988E-03     25.8281E-03
            4428            4622     24.5988E-03     25.8281E-03
            4429            4622     24.5988E-03     25.8281E-03
            4411            4622     24.5988E-03     25.8281E-03
            4412            4623     21.4394E-03     22.6585E-03
            4429            4623     21.4394E-03     22.6585E-03
            4430            4623     21.4394E-03     22.6585E-03
            4411            4623     21.4394E-03     22.6585E-03
            4430            4624     18.2965E-03     19.5012E-03
            4431            4624     18.2965E-03     19.5012E-03
            4412            4624     18.2965E-03     19.5012E-03
            4413            4624     18.2965E-03     19.5012E-03
            4414            4625     15.1604E-03     16.3569E-03
            4413            4625     15.1604E-03     16.3569E-03
            4431            4625     15.1604E-03     16.3569E-03
            4432            4625     15.1604E-03     16.3569E-03
            4432            4626     12.0368E-03     13.2127E-03
            4433            4626     12.0368E-03     13.2127E-03
            4415            4626     12.0368E-03     13.2127E-03
            4414            4626     12.0368E-03     13.2127E-03
            4415            4627     8.90608E-03     10.0984E-03
            4416            4627     8.90608E-03     10.0984E-03
            4433            4627     8.90608E-03     10.0984E-03
            4434            4627     8.90608E-03     10.0984E-03
            4416            4628     5.79021E-03     7.03952E-03
            4417            4628     5.79021E-03     7.03952E-03
            4434            4628     5.79021E-03     7.03952E-03
            4435            4628     5.79021E-03     7.03952E-03
            4436            4629     2.89095E-03     3.94431E-03
            4435            4629     2.89095E-03     3.94431E-03
            4418            4629     2.89095E-03     3.94431E-03
            4417            4629     2.89095E-03     3.94431E-03
            4438            4630     57.3676E-03     58.0616E-03
            4437            4630     57.3676E-03     58.0616E-03
            4419            4630     57.3676E-03     58.0616E-03
            4420            4630     57.3676E-03     58.0616E-03
            4421            4631     53.6240E-03     54.7086E-03
            4438            4631     53.6240E-03     54.7086E-03
            4439            4631     53.6240E-03     54.7086E-03
            4420            4631     53.6240E-03     54.7086E-03
            4440            4632     49.7347E-03     50.9159E-03
            4422            4632     49.7347E-03     50.9159E-03
            4439            4632     49.7347E-03     50.9159E-03
            4421            4632     49.7347E-03     50.9159E-03
            4441            4633     45.7867E-03     47.0243E-03
            4422            4633     45.7867E-03     47.0243E-03
            4440            4633     45.7867E-03     47.0243E-03
            4423            4633     45.7867E-03     47.0243E-03
            4424            4634     41.9714E-03     43.2639E-03
            4441            4634     41.9714E-03     43.2639E-03
            4442            4634     41.9714E-03     43.2639E-03
            4423            4634     41.9714E-03     43.2639E-03
            4425            4635     38.4218E-03     39.6719E-03
            4424            4635     38.4218E-03     39.6719E-03
            4442            4635     38.4218E-03     39.6719E-03
            4443            4635     38.4218E-03     39.6719E-03
            4444            4636     34.9879E-03     36.1899E-03
            4426            4636     34.9879E-03     36.1899E-03
            4443            4636     34.9879E-03     36.1899E-03
            4425            4636     34.9879E-03     36.1899E-03
            4445            4637     31.6549E-03     32.8111E-03
            4426            4637     31.6549E-03     32.8111E-03
            4444            4637     31.6549E-03     32.8111E-03
            4427            4637     31.6549E-03     32.8111E-03
            4428            4638     28.3806E-03     29.4950E-03
            4445            4638     28.3806E-03     29.4950E-03
            4427            4638     28.3806E-03     29.4950E-03
            4446            4638     28.3806E-03     29.4950E-03
            4428            4639     25.1443E-03     26.2338E-03
            4446            4639     25.1443E-03     26.2338E-03
            4447            4639     25.1443E-03     26.2338E-03
            4429            4639     25.1443E-03     26.2338E-03
            4447            4640     21.9356E-03     23.0086E-03
            4448            4640     21.9356E-03     23.0086E-03
            4429            4640     21.9356E-03     23.0086E-03
            4430            4640     21.9356E-03     23.0086E-03
            4430            4641     18.7454E-03     19.8176E-03
            4448            4641     18.7454E-03     19.8176E-03
            4449            4641     18.7454E-03     19.8176E-03
            4431            4641     18.7454E-03     19.8176E-03
            4431            4642     15.5755E-03     16.6491E-03
            4450            4642     15.5755E-03     16.6491E-03
            4432            4642     15.5755E-03     16.6491E-03
            4449            4642     15.5755E-03     16.6491E-03
            4451            4643     12.4242E-03     13.5169E-03
            4433            4643     12.4242E-03     13.5169E-03
            4450            4643     12.4242E-03     13.5169E-03
            4432            4643     12.4242E-03     13.5169E-03
            4433            4644     9.31768E-03     10.4223E-03
            4452            4644     9.31768E-03     10.4223E-03
            4451            4644     9.31768E-03     10.4223E-03
            4434            4644     9.31768E-03     10.4223E-03
            4453            4645     6.33341E-03     7.37075E-03
            4435            4645     6.33341E-03     7.37075E-03
            4452            4645     6.33341E-03     7.37075E-03
            4434            4645     6.33341E-03     7.37075E-03
            4453            4646     3.79817E-03     4.50323E-03
            4454            4646     3.79817E-03     4.50323E-03
            4436            4646     3.79817E-03     4.50323E-03
            4435            4646     3.79817E-03     4.50323E-03
            4456            4647     55.5570E-03     56.3260E-03
            4438            4647     55.5570E-03     56.3260E-03
            4437            4647     55.5570E-03     56.3260E-03
            4455            4647     55.5570E-03     56.3260E-03
            4456            4648     52.5021E-03     53.4677E-03
            4439            4648     52.5021E-03     53.4677E-03
            4457            4648     52.5021E-03     53.4677E-03
            4438            4648     52.5021E-03     53.4677E-03
            4439            4649     49.1787E-03     50.3483E-03
            4457            4649     49.1787E-03     50.3483E-03
            4440            4649     49.1787E-03     50.3483E-03
            4458            4649     49.1787E-03     50.3483E-03
            4458            4650     45.7422E-03     46.9634E-03
            4440            4650     45.7422E-03     46.9634E-03
            4441            4650     45.7422E-03     46.9634E-03
            4459            4650     45.7422E-03     46.9634E-03
            4459            4651     42.2666E-03     43.4558E-03
            4441            4651     42.2666E-03     43.4558E-03
            4442            4651     42.2666E-03     43.4558E-03
            4460            4651     42.2666E-03     43.4558E-03
            4460            4652     38.8099E-03     39.9569E-03
            4442            4652     38.8099E-03     39.9569E-03
            4461            4652     38.8099E-03     39.9569E-03
            4443            4652     38.8099E-03     39.9569E-03
            4443            4653     35.4383E-03     36.5126E-03
            4462            4653     35.4383E-03     36.5126E-03
            4444            4653     35.4383E-03     36.5126E-03
            4461            4653     35.4383E-03     36.5126E-03
            4444            4654     32.1087E-03     33.1213E-03
            4445            4654     32.1087E-03     33.1213E-03
            4462            4654     32.1087E-03     33.1213E-03
            4463            4654     32.1087E-03     33.1213E-03
            4445            4655     28.8279E-03     29.7922E-03
            4464            4655     28.8279E-03     29.7922E-03
            4446            4655     28.8279E-03     29.7922E-03
            4463            4655     28.8279E-03     29.7922E-03
            4446            4656     25.5794E-03     26.5120E-03
            4464            4656     25.5794E-03     26.5120E-03
            4447            4656     25.5794E-03     26.5120E-03
            4465            4656     25.5794E-03     26.5120E-03
            4465            4657     22.3602E-03     23.2816E-03
            4466            4657     22.3602E-03     23.2816E-03
            4447            4657     22.3602E-03     23.2816E-03
            4448            4657     22.3602E-03     23.2816E-03
            4467            4658     19.1666E-03     20.0967E-03
            4448            4658     19.1666E-03     20.0967E-03
            4466            4658     19.1666E-03     20.0967E-03
            4449            4658     19.1666E-03     20.0967E-03
            4449            4659     16.0046E-03     16.9628E-03
            4450            4659     16.0046E-03     16.9628E-03
            4468            4659     16.0046E-03     16.9628E-03
            4467            4659     16.0046E-03     16.9628E-03
            4468            4660     12.8910E-03     13.8786E-03
            4469            4660     12.8910E-03     13.8786E-03
            4451            4660     12.8910E-03     13.8786E-03
            4450            4660     12.8910E-03     13.8786E-03
            4470            4661     9.87556E-03     10.8673E-03
            4452            4661     9.87556E-03     10.8673E-03
            4469            4661     9.87556E-03     10.8673E-03
            4451            4661     9.87556E-03     10.8673E-03
            4453            4662     7.08458E-03     7.96615E-03
            4470            4662     7.08458E-03     7.96615E-03
            4452            4662     7.08458E-03     7.96615E-03
            4471            4662     7.08458E-03     7.96615E-03
            4453            4663     4.91721E-03     5.42731E-03
            4454            4663     4.91721E-03     5.42731E-03
            4471            4663     4.91721E-03     5.42731E-03
            4472            4663     4.91721E-03     5.42731E-03
            4456            4664     53.7324E-03     54.4055E-03
            4473            4664     53.7324E-03     54.4055E-03
            4474            4664     53.7324E-03     54.4055E-03
            4455            4664     53.7324E-03     54.4055E-03
            4474            4665     51.0811E-03     52.0504E-03
            4475            4665     51.0811E-03     52.0504E-03
            4456            4665     51.0811E-03     52.0504E-03
            4457            4665     51.0811E-03     52.0504E-03
            4457            4666     48.2863E-03     49.3836E-03
            4476            4666     48.2863E-03     49.3836E-03
            4458            4666     48.2863E-03     49.3836E-03
            4475            4666     48.2863E-03     49.3836E-03
            4459            4667     45.2588E-03     46.3853E-03
            4458            4667     45.2588E-03     46.3853E-03
            4477            4667     45.2588E-03     46.3853E-03
            4476            4667     45.2588E-03     46.3853E-03
            4478            4668     42.0930E-03     43.1565E-03
            4459            4668     42.0930E-03     43.1565E-03
            4460            4668     42.0930E-03     43.1565E-03
            4477            4668     42.0930E-03     43.1565E-03
            4461            4669     38.8450E-03     39.8224E-03
            4478            4669     38.8450E-03     39.8224E-03
            4479            4669     38.8450E-03     39.8224E-03
            4460            4669     38.8450E-03     39.8224E-03
            4480            4670     35.5710E-03     36.4726E-03
            4461            4670     35.5710E-03     36.4726E-03
            4479            4670     35.5710E-03     36.4726E-03
            4462            4670     35.5710E-03     36.4726E-03
            4462            4671     32.3162E-03     33.1475E-03
            4481            4671     32.3162E-03     33.1475E-03
            4480            4671     32.3162E-03     33.1475E-03
            4463            4671     32.3162E-03     33.1475E-03
            4463            4672     29.0770E-03     29.8608E-03
            4481            4672     29.0770E-03     29.8608E-03
            4482            4672     29.0770E-03     29.8608E-03
            4464            4672     29.0770E-03     29.8608E-03
            4483            4673     25.8685E-03     26.6226E-03
            4482            4673     25.8685E-03     26.6226E-03
            4465            4673     25.8685E-03     26.6226E-03
            4464            4673     25.8685E-03     26.6226E-03
            4466            4674     22.6868E-03     23.4358E-03
            4484            4674     22.6868E-03     23.4358E-03
            4483            4674     22.6868E-03     23.4358E-03
            4465            4674     22.6868E-03     23.4358E-03
            4466            4675     19.5395E-03     20.3070E-03
            4485            4675     19.5395E-03     20.3070E-03
            4484            4675     19.5395E-03     20.3070E-03
            4467            4675     19.5395E-03     20.3070E-03
            4467            4676     16.4318E-03     17.2531E-03
            4485            4676     16.4318E-03     17.2531E-03
            4486            4676     16.4318E-03     17.2531E-03
            4468            4676     16.4318E-03     17.2531E-03
            4487            4677     13.4057E-03     14.2842E-03
            4468            4677     13.4057E-03     14.2842E-03
            4486            4677     13.4057E-03     14.2842E-03
            4469            4677     13.4057E-03     14.2842E-03
            4469            4678     10.5253E-03     11.4127E-03
            4487            4678     10.5253E-03     11.4127E-03
            4470            4678     10.5253E-03     11.4127E-03
            4488            4678     10.5253E-03     11.4127E-03
            4489            4679     7.96596E-03     8.76079E-03
            4470            4679     7.96596E-03     8.76079E-03
            4471            4679     7.96596E-03     8.76079E-03
            4488            4679     7.96596E-03     8.76079E-03
            4490            4680     6.14310E-03     6.50053E-03
            4471            4680     6.14310E-03     6.50053E-03
            4489            4680     6.14310E-03     6.50053E-03
            4472            4680     6.14310E-03     6.50053E-03
            4473            4681     51.7323E-03     52.3305E-03
            4491            4681     51.7323E-03     52.3305E-03
            4492            4681     51.7323E-03     52.3305E-03
            4474            4681     51.7323E-03     52.3305E-03
            4492            4682     49.4845E-03     50.4052E-03
            4475            4682     49.4845E-03     50.4052E-03
            4474            4682     49.4845E-03     50.4052E-03
            4493            4682     49.4845E-03     50.4052E-03
            4476            4683     47.0705E-03     48.0820E-03
            4493            4683     47.0705E-03     48.0820E-03
            4475            4683     47.0705E-03     48.0820E-03
            4494            4683     47.0705E-03     48.0820E-03
            4477            4684     44.4290E-03     45.3638E-03
            4476            4684     44.4290E-03     45.3638E-03
            4494            4684     44.4290E-03     45.3638E-03
            4495            4684     44.4290E-03     45.3638E-03
            4478            4685     41.5283E-03     42.3795E-03
            4477            4685     41.5283E-03     42.3795E-03
            4496            4685     41.5283E-03     42.3795E-03
            4495            4685     41.5283E-03     42.3795E-03
            4497            4686     38.4978E-03     39.2497E-03
            4478            4686     38.4978E-03     39.2497E-03
            4496            4686     38.4978E-03     39.2497E-03
            4479            4686     38.4978E-03     39.2497E-03
            4479            4687     35.3890E-03     36.0589E-03
            4498            4687     35.3890E-03     36.0589E-03
            4497            4687     35.3890E-03     36.0589E-03
            4480            4687     35.3890E-03     36.0589E-03
            4480            4688     32.2492E-03     32.8643E-03
            4498            4688     32.2492E-03     32.8643E-03
            4499            4688     32.2492E-03     32.8643E-03
            4481            4688     32.2492E-03     32.8643E-03
            4499            4689     29.1169E-03     29.6897E-03
            4482            4689     29.1169E-03     29.6897E-03
            4500            4689     29.1169E-03     29.6897E-03
            4481            4689     29.1169E-03     29.6897E-03
            4483            4690     25.9987E-03     26.5525E-03
            4500            4690     25.9987E-03     26.5525E-03
            4482            4690     25.9987E-03     26.5525E-03
            4501            4690     25.9987E-03     26.5525E-03
            4484            4691     22.9121E-03     23.4644E-03
            4483            4691     22.9121E-03     23.4644E-03
            4501            4691     22.9121E-03     23.4644E-03
            4502            4691     22.9121E-03     23.4644E-03
            4485            4692     19.8630E-03     20.4443E-03
            4484            4692     19.8630E-03     20.4443E-03
            4503            4692     19.8630E-03     20.4443E-03
            4502            4692     19.8630E-03     20.4443E-03
            4503            4693     16.8705E-03     17.5099E-03
            4504            4693     16.8705E-03     17.5099E-03
            4486            4693     16.8705E-03     17.5099E-03
            4485            4693     16.8705E-03     17.5099E-03
            4504            4694     13.9609E-03     14.7184E-03
            4487            4694     13.9609E-03     14.7184E-03
            4505            4694     13.9609E-03     14.7184E-03
            4486            4694     13.9609E-03     14.7184E-03
            4505            4695     11.2599E-03     12.0919E-03
            4488            4695     11.2599E-03     12.0919E-03
            4506            4695     11.2599E-03     12.0919E-03
            4487            4695     11.2599E-03     12.0919E-03
            4506            4696     8.94853E-03     9.66002E-03
            4489            4696     8.94853E-03     9.66002E-03
            4488            4696     8.94853E-03     9.66002E-03
            4507            4696     8.94853E-03     9.66002E-03
            4489            4697     7.37734E-03     7.78395E-03
            4490            4697     7.37734E-03     7.78395E-03
            4507            4697     7.37734E-03     7.78395E-03
            4508            4697     7.37734E-03     7.78395E-03
            4509            4698     49.4790E-03     50.1052E-03
            4491            4698     49.4790E-03     50.1052E-03
            4510            4698     49.4790E-03     50.1052E-03
            4492            4698     49.4790E-03     50.1052E-03
            4510            4699     47.6358E-03     48.4222E-03
            4493            4699     47.6358E-03     48.4222E-03
            4492            4699     47.6358E-03     48.4222E-03
            4511            4699     47.6358E-03     48.4222E-03
            4493            4700     45.6204E-03     46.3496E-03
            4511            4700     45.6204E-03     46.3496E-03
            4494            4700     45.6204E-03     46.3496E-03
            4512            4700     45.6204E-03     46.3496E-03
            4494            4701     43.2311E-03     43.8759E-03
            4513            4701     43.2311E-03     43.8759E-03
            4512            4701     43.2311E-03     43.8759E-03
            4495            4701     43.2311E-03     43.8759E-03
            4514            4702     40.6146E-03     41.1392E-03
            4495            4702     40.6146E-03     41.1392E-03
            4496            4702     40.6146E-03     41.1392E-03
            4513            4702     40.6146E-03     41.1392E-03
            4515            4703     37.8045E-03     38.2510E-03
            4497            4703     37.8045E-03     38.2510E-03
            4514            4703     37.8045E-03     38.2510E-03
            4496            4703     37.8045E-03     38.2510E-03
            4516            4704     34.8918E-03     35.2902E-03
            4498            4704     34.8918E-03     35.2902E-03
            4497            4704     34.8918E-03     35.2902E-03
            4515            4704     34.8918E-03     35.2902E-03
            4499            4705     31.9325E-03     32.2948E-03
            4517            4705     31.9325E-03     32.2948E-03
            4516            4705     31.9325E-03     32.2948E-03
            4498            4705     31.9325E-03     32.2948E-03
            4517            4706     28.9543E-03     29.3022E-03
            4499            4706     28.9543E-03     29.3022E-03
            4500            4706     28.9543E-03     29.3022E-03
            4518            4706     28.9543E-03     29.3022E-03
            4500            4707     25.9910E-03     26.3298E-03
            4519            4707     25.9910E-03     26.3298E-03
            4501            4707     25.9910E-03     26.3298E-03
            4518            4707     25.9910E-03     26.3298E-03
            4501            4708     23.0541E-03     23.3994E-03
            4502            4708     23.0541E-03     23.3994E-03
            4520            4708     23.0541E-03     23.3994E-03
            4519            4708     23.0541E-03     23.3994E-03
            4521            4709     20.1636E-03     20.5331E-03
            4503            4709     20.1636E-03     20.5331E-03
            4520            4709     20.1636E-03     20.5331E-03
            4502            4709     20.1636E-03     20.5331E-03
            4521            4710     17.3409E-03     17.7718E-03
            4504            4710     17.3409E-03     17.7718E-03
            4503            4710     17.3409E-03     17.7718E-03
            4522            4710     17.3409E-03     17.7718E-03
            4523            4711     14.6179E-03     15.1703E-03
            4504            4711     14.6179E-03     15.1703E-03
            4522            4711     14.6179E-03     15.1703E-03
            4505            4711     14.6179E-03     15.1703E-03
            4506            4712     12.0739E-03     12.8626E-03
            4523            4712     12.0739E-03     12.8626E-03
            4524            4712     12.0739E-03     12.8626E-03
            4505            4712     12.0739E-03     12.8626E-03
            4525            4713     10.0173E-03     10.8322E-03
            4524            4713     10.0173E-03     10.8322E-03
            4506            4713     10.0173E-03     10.8322E-03
            4507            4713     10.0173E-03     10.8322E-03
            4507            4714     8.70733E-03     9.09065E-03
            4508            4714     8.70733E-03     9.09065E-03
            4525            4714     8.70733E-03     9.09065E-03
            4526            4714     8.70733E-03     9.09065E-03
            4527            4715     46.9946E-03     47.1874E-03
            4509            4715     46.9946E-03     47.1874E-03
            4510            4715     46.9946E-03     47.1874E-03
            4528            4715     46.9946E-03     47.1874E-03
            4528            4716     45.5784E-03     45.9031E-03
            4510            4716     45.5784E-03     45.9031E-03
            4511            4716     45.5784E-03     45.9031E-03
            4529            4716     45.5784E-03     45.9031E-03
            4530            4717     43.8175E-03     44.0677E-03
            4529            4717     43.8175E-03     44.0677E-03
            4512            4717     43.8175E-03     44.0677E-03
            4511            4717     43.8175E-03     44.0677E-03
            4512            4718     41.7314E-03     41.8708E-03
            4513            4718     41.7314E-03     41.8708E-03
            4531            4718     41.7314E-03     41.8708E-03
            4530            4718     41.7314E-03     41.8708E-03
            4532            4719     39.3604E-03     39.4529E-03
            4513            4719     39.3604E-03     39.4529E-03
            4531            4719     39.3604E-03     39.4529E-03
            4514            4719     39.3604E-03     39.4529E-03
            4514            4720     36.8056E-03     36.8906E-03
            4533            4720     36.8056E-03     36.8906E-03
            4532            4720     36.8056E-03     36.8906E-03
            4515            4720     36.8056E-03     36.8906E-03
            4533            4721     34.1396E-03     34.2284E-03
            4516            4721     34.1396E-03     34.2284E-03
            4515            4721     34.1396E-03     34.2284E-03
            4534            4721     34.1396E-03     34.2284E-03
            4534            4722     31.4049E-03     31.5128E-03
            4535            4722     31.4049E-03     31.5128E-03
            4516            4722     31.4049E-03     31.5128E-03
            4517            4722     31.4049E-03     31.5128E-03
            4535            4723     28.6487E-03     28.7686E-03
            4518            4723     28.6487E-03     28.7686E-03
            4536            4723     28.6487E-03     28.7686E-03
            4517            4723     28.6487E-03     28.7686E-03
            4536            4724     25.8907E-03     26.0264E-03
            4537            4724     25.8907E-03     26.0264E-03
            4518            4724     25.8907E-03     26.0264E-03
            4519            4724     25.8907E-03     26.0264E-03
            4537            4725     23.1632E-03     23.3091E-03
            4520            4725     23.1632E-03     23.3091E-03
            4519            4725     23.1632E-03     23.3091E-03
            4538            4725     23.1632E-03     23.3091E-03
            4521            4726     20.4863E-03     20.6479E-03
            4520            4726     20.4863E-03     20.6479E-03
            4539            4726     20.4863E-03     20.6479E-03
            4538            4726     20.4863E-03     20.6479E-03
            4521            4727     17.8905E-03     18.0899E-03
            4540            4727     17.8905E-03     18.0899E-03
            4539            4727     17.8905E-03     18.0899E-03
            4522            4727     17.8905E-03     18.0899E-03
            4541            4728     15.4183E-03     15.7052E-03
            4522            4728     15.4183E-03     15.7052E-03
            4540            4728     15.4183E-03     15.7052E-03
            4523            4728     15.4183E-03     15.7052E-03
            4524            4729     13.1053E-03     13.6420E-03
            4542            4729     13.1053E-03     13.6420E-03
            4523            4729     13.1053E-03     13.6420E-03
            4541            4729     13.1053E-03     13.6420E-03
            4542            4730     11.1222E-03     12.1357E-03
            4543            4730     11.1222E-03     12.1357E-03
            4525            4730     11.1222E-03     12.1357E-03
            4524            4730     11.1222E-03     12.1357E-03
            4526            4731     10.0750E-03     10.9423E-03
            4543            4731     10.0750E-03     10.9423E-03
            4525            4731     10.0750E-03     10.9423E-03
            4544            4731     10.0750E-03     10.9423E-03
            4528            4732     44.1969E-03     43.4466E-03
            4527            4732     44.1969E-03     43.4466E-03
            4545            4732     44.1969E-03     43.4466E-03
            4546            4732     44.1969E-03     43.4466E-03
            4528            4733     43.2330E-03     42.6241E-03
            4547            4733     43.2330E-03     42.6241E-03
            4529            4733     43.2330E-03     42.6241E-03
            4546            4733     43.2330E-03     42.6241E-03
            4547            4734     41.7528E-03     41.1404E-03
            4529            4734     41.7528E-03     41.1404E-03
            4530            4734     41.7528E-03     41.1404E-03
            4548            4734     41.7528E-03     41.1404E-03
            4549            4735     39.9283E-03     39.4087E-03
            4548            4735     39.9283E-03     39.4087E-03
            4531            4735     39.9283E-03     39.4087E-03
            4530            4735     39.9283E-03     39.4087E-03
            4532            4736     37.8426E-03     37.4344E-03
            4549            4736     37.8426E-03     37.4344E-03
            4531            4736     37.8426E-03     37.4344E-03
            4550            4736     37.8426E-03     37.4344E-03
            4550            4737     35.5925E-03     35.2938E-03
            4533            4737     35.5925E-03     35.2938E-03
            4551            4737     35.5925E-03     35.2938E-03
            4532            4737     35.5925E-03     35.2938E-03
            4533            4738     33.2203E-03     33.0176E-03
            4552            4738     33.2203E-03     33.0176E-03
            4534            4738     33.2203E-03     33.0176E-03
            4551            4738     33.2203E-03     33.0176E-03
            4552            4739     30.7762E-03     30.6461E-03
            4535            4739     30.7762E-03     30.6461E-03
            4553            4739     30.7762E-03     30.6461E-03
            4534            4739     30.7762E-03     30.6461E-03
            4536            4740     28.2870E-03     28.2160E-03
            4553            4740     28.2870E-03     28.2160E-03
            4554            4740     28.2870E-03     28.2160E-03
            4535            4740     28.2870E-03     28.2160E-03
            4555            4741     25.7927E-03     25.7560E-03
            4536            4741     25.7927E-03     25.7560E-03
            4554            4741     25.7927E-03     25.7560E-03
            4537            4741     25.7927E-03     25.7560E-03
            4555            4742     23.3148E-03     23.3017E-03
            4537            4742     23.3148E-03     23.3017E-03
            4556            4742     23.3148E-03     23.3017E-03
            4538            4742     23.3148E-03     23.3017E-03
            4539            4743     20.8979E-03     20.8877E-03
            4557            4743     20.8979E-03     20.8877E-03
            4556            4743     20.8979E-03     20.8877E-03
            4538            4743     20.8979E-03     20.8877E-03
            4558            4744     18.5708E-03     18.5614E-03
            4539            4744     18.5708E-03     18.5614E-03
            4557            4744     18.5708E-03     18.5614E-03
            4540            4744     18.5708E-03     18.5614E-03
            4540            4745     16.3983E-03     16.3988E-03
            4559            4745     16.3983E-03     16.3988E-03
            4558            4745     16.3983E-03     16.3988E-03
            4541            4745     16.3983E-03     16.3988E-03
            4560            4746     14.4165E-03     14.5062E-03
            4542            4746     14.4165E-03     14.5062E-03
            4541            4746     14.4165E-03     14.5062E-03
            4559            4746     14.4165E-03     14.5062E-03
            4561            4747     12.6562E-03     13.1860E-03
            4560            4747     12.6562E-03     13.1860E-03
            4542            4747     12.6562E-03     13.1860E-03
            4543            4747     12.6562E-03     13.1860E-03
            4561            4748     11.3118E-03     12.7389E-03
            4544            4748     11.3118E-03     12.7389E-03
            4562            4748     11.3118E-03     12.7389E-03
            4543            4748     11.3118E-03     12.7389E-03
            4564            4749     42.5098E-03     43.2846E-03
            4546            4749     42.5098E-03     43.2846E-03
            4545            4749     42.5098E-03     43.2846E-03
            4563            4749     42.5098E-03     43.2846E-03
            4547            4750     38.7741E-03     38.7638E-03
            4565            4750     38.7741E-03     38.7638E-03
            4546            4750     38.7741E-03     38.7638E-03
            4564            4750     38.7741E-03     38.7638E-03
            4547            4751     36.1544E-03     36.0911E-03
            4548            4751     36.1544E-03     36.0911E-03
            4565            4751     36.1544E-03     36.0911E-03
            4566            4751     36.1544E-03     36.0911E-03
            4567            4752     33.6781E-03     33.7404E-03
            4549            4752     33.6781E-03     33.7404E-03
            4566            4752     33.6781E-03     33.7404E-03
            4548            4752     33.6781E-03     33.7404E-03
            4567            4753     31.3941E-03     31.5608E-03
            4549            4753     31.3941E-03     31.5608E-03
            4568            4753     31.3941E-03     31.5608E-03
            4550            4753     31.3941E-03     31.5608E-03
            4550            4754     29.1378E-03     29.4482E-03
            4569            4754     29.1378E-03     29.4482E-03
            4568            4754     29.1378E-03     29.4482E-03
            4551            4754     29.1378E-03     29.4482E-03
            4552            4755     26.9350E-03     27.3387E-03
            4569            4755     26.9350E-03     27.3387E-03
            4570            4755     26.9350E-03     27.3387E-03
            4551            4755     26.9350E-03     27.3387E-03
            4552            4756     24.7330E-03     25.2314E-03
            4570            4756     24.7330E-03     25.2314E-03
            4571            4756     24.7330E-03     25.2314E-03
            4553            4756     24.7330E-03     25.2314E-03
            4553            4757     22.5523E-03     23.1069E-03
            4572            4757     22.5523E-03     23.1069E-03
            4554            4757     22.5523E-03     23.1069E-03
            4571            4757     22.5523E-03     23.1069E-03
            4572            4758     20.3773E-03     20.9777E-03
            4573            4758     20.3773E-03     20.9777E-03
            4554            4758     20.3773E-03     20.9777E-03
            4555            4758     20.3773E-03     20.9777E-03
            4573            4759     18.2302E-03     18.8480E-03
            4556            4759     18.2302E-03     18.8480E-03
            4555            4759     18.2302E-03     18.8480E-03
            4574            4759     18.2302E-03     18.8480E-03
            4557            4760     16.1152E-03     16.7336E-03
            4575            4760     16.1152E-03     16.7336E-03
            4574            4760     16.1152E-03     16.7336E-03
            4556            4760     16.1152E-03     16.7336E-03
            4575            4761     14.0624E-03     14.6538E-03
            4576            4761     14.0624E-03     14.6538E-03
            4558            4761     14.0624E-03     14.6538E-03
            4557            4761     14.0624E-03     14.6538E-03
            4558            4762     12.0944E-03     12.6445E-03
            4576            4762     12.0944E-03     12.6445E-03
            4577            4762     12.0944E-03     12.6445E-03
            4559            4762     12.0944E-03     12.6445E-03
            4560            4763     10.2497E-03     10.7360E-03
            4559            4763     10.2497E-03     10.7360E-03
            4577            4763     10.2497E-03     10.7360E-03
            4578            4763     10.2497E-03     10.7360E-03
            4579            4764     8.56084E-03     9.07323E-03
            4561            4764     8.56084E-03     9.07323E-03
            4578            4764     8.56084E-03     9.07323E-03
            4560            4764     8.56084E-03     9.07323E-03
            4579            4765     6.83967E-03     7.90069E-03
            4562            4765     6.83967E-03     7.90069E-03
            4580            4765     6.83967E-03     7.90069E-03
            4561            4765     6.83967E-03     7.90069E-03
            4582            4766     43.3686E-03     44.2268E-03
            4564            4766     43.3686E-03     44.2268E-03
            4563            4766     43.3686E-03     44.2268E-03
            4581            4766     43.3686E-03     44.2268E-03
            4582            4767     36.5977E-03     37.7171E-03
            4565            4767     36.5977E-03     37.7171E-03
            4564            4767     36.5977E-03     37.7171E-03
            4583            4767     36.5977E-03     37.7171E-03
            4565            4768     32.1522E-03     33.1841E-03
            4566            4768     32.1522E-03     33.1841E-03
            4584            4768     32.1522E-03     33.1841E-03
            4583            4768     32.1522E-03     33.1841E-03
            4566            4769     28.9077E-03     29.9115E-03
            4585            4769     28.9077E-03     29.9115E-03
            4567            4769     28.9077E-03     29.9115E-03
            4584            4769     28.9077E-03     29.9115E-03
            4585            4770     26.1169E-03     27.1547E-03
            4568            4770     26.1169E-03     27.1547E-03
            4567            4770     26.1169E-03     27.1547E-03
            4586            4770     26.1169E-03     27.1547E-03
            4587            4771     23.6891E-03     24.7694E-03
            4568            4771     23.6891E-03     24.7694E-03
            4586            4771     23.6891E-03     24.7694E-03
            4569            4771     23.6891E-03     24.7694E-03
            4570            4772     21.4310E-03     22.5620E-03
            4569            4772     21.4310E-03     22.5620E-03
            4587            4772     21.4310E-03     22.5620E-03
            4588            4772     21.4310E-03     22.5620E-03
            4571            4773     19.3065E-03     20.4806E-03
            4588            4773     19.3065E-03     20.4806E-03
            4570            4773     19.3065E-03     20.4806E-03
            4589            4773     19.3065E-03     20.4806E-03
            4590            4774     17.2467E-03     18.4548E-03
            4589            4774     17.2467E-03     18.4548E-03
            4571            4774     17.2467E-03     18.4548E-03
            4572            4774     17.2467E-03     18.4548E-03
            4573            4775     15.2363E-03     16.4662E-03
            4590            4775     15.2363E-03     16.4662E-03
            4572            4775     15.2363E-03     16.4662E-03
            4591            4775     15.2363E-03     16.4662E-03
            4592            4776     13.2495E-03     14.4864E-03
            4591            4776     13.2495E-03     14.4864E-03
            4574            4776     13.2495E-03     14.4864E-03
            4573            4776     13.2495E-03     14.4864E-03
            4575            4777     11.2813E-03     12.5098E-03
            4574            4777     11.2813E-03     12.5098E-03
            4592            4777     11.2813E-03     12.5098E-03
            4593            4777     11.2813E-03     12.5098E-03
            4575            4778     9.32458E-03     10.5245E-03
            4594            4778     9.32458E-03     10.5245E-03
            4593            4778     9.32458E-03     10.5245E-03
            4576            4778     9.32458E-03     10.5245E-03
            4594            4779     7.38030E-03     8.52792E-03
            4595            4779     7.38030E-03     8.52792E-03
            4576            4779     7.38030E-03     8.52792E-03
            4577            4779     7.38030E-03     8.52792E-03
            4577            4780     5.45122E-03     6.51694E-03
            4595            4780     5.45122E-03     6.51694E-03
            4578            4780     5.45122E-03     6.51694E-03
            4596            4780     5.45122E-03     6.51694E-03
            4579            4781     3.56042E-03     4.48204E-03
            4578            4781     3.56042E-03     4.48204E-03
            4597            4781     3.56042E-03     4.48204E-03
            4596            4781     3.56042E-03     4.48204E-03
            4598            4782     1.72199E-03     2.51361E-03
            4580            4782     1.72199E-03     2.51361E-03
            4579            4782     1.72199E-03     2.51361E-03
            4597            4782     1.72199E-03     2.51361E-03
            4600            4783     43.1442E-03     43.2985E-03
            4581            4783     43.1442E-03     43.2985E-03
            4599            4783     43.1442E-03     43.2985E-03
            4582            4783     43.1442E-03     43.2985E-03
            4583            4784     38.0030E-03     38.6288E-03
            4600            4784     38.0030E-03     38.6288E-03
            4601            4784     38.0030E-03     38.6288E-03
            4582            4784     38.0030E-03     38.6288E-03
            4584            4785     33.2305E-03     34.1842E-03
            4602            4785     33.2305E-03     34.1842E-03
            4601            4785     33.2305E-03     34.1842E-03
            4583            4785     33.2305E-03     34.1842E-03
            4602            4786     29.7762E-03     30.7920E-03
            4603            4786     29.7762E-03     30.7920E-03
            4584            4786     29.7762E-03     30.7920E-03
            4585            4786     29.7762E-03     30.7920E-03
            4585            4787     26.9097E-03     27.9378E-03
            4586            4787     26.9097E-03     27.9378E-03
            4603            4787     26.9097E-03     27.9378E-03
            4604            4787     26.9097E-03     27.9378E-03
            4604            4788     24.3779E-03     25.4340E-03
            4587            4788     24.3779E-03     25.4340E-03
            4586            4788     24.3779E-03     25.4340E-03
            4605            4788     24.3779E-03     25.4340E-03
            4588            4789     22.0747E-03     23.1394E-03
            4605            4789     22.0747E-03     23.1394E-03
            4606            4789     22.0747E-03     23.1394E-03
            4587            4789     22.0747E-03     23.1394E-03
            4589            4790     19.8875E-03     20.9679E-03
            4607            4790     19.8875E-03     20.9679E-03
            4588            4790     19.8875E-03     20.9679E-03
            4606            4790     19.8875E-03     20.9679E-03
            4589            4791     17.7851E-03     18.8712E-03
            4590            4791     17.7851E-03     18.8712E-03
            4607            4791     17.7851E-03     18.8712E-03
            4608            4791     17.7851E-03     18.8712E-03
            4608            4792     15.7233E-03     16.8124E-03
            4609            4792     15.7233E-03     16.8124E-03
            4591            4792     15.7233E-03     16.8124E-03
            4590            4792     15.7233E-03     16.8124E-03
            4610            4793     13.6925E-03     14.7753E-03
            4592            4793     13.6925E-03     14.7753E-03
            4591            4793     13.6925E-03     14.7753E-03
            4609            4793     13.6925E-03     14.7753E-03
            4611            4794     11.6776E-03     12.7436E-03
            4610            4794     11.6776E-03     12.7436E-03
            4592            4794     11.6776E-03     12.7436E-03
            4593            4794     11.6776E-03     12.7436E-03
            4611            4795     9.67759E-03     10.7129E-03
            4612            4795     9.67759E-03     10.7129E-03
            4594            4795     9.67759E-03     10.7129E-03
            4593            4795     9.67759E-03     10.7129E-03
            4594            4796     7.69196E-03     8.67771E-03
            4612            4796     7.69196E-03     8.67771E-03
            4613            4796     7.69196E-03     8.67771E-03
            4595            4796     7.69196E-03     8.67771E-03
            4614            4797     5.73035E-03     6.63547E-03
            4613            4797     5.73035E-03     6.63547E-03
            4596            4797     5.73035E-03     6.63547E-03
            4595            4797     5.73035E-03     6.63547E-03
            4615            4798     3.80723E-03     4.61274E-03
            4597            4798     3.80723E-03     4.61274E-03
            4614            4798     3.80723E-03     4.61274E-03
            4596            4798     3.80723E-03     4.61274E-03
            4615            4799     2.03465E-03     2.69487E-03
            4597            4799     2.03465E-03     2.69487E-03
            4598            4799     2.03465E-03     2.69487E-03
            4616            4799     2.03465E-03     2.69487E-03
            4617            4800     41.3407E-03     42.0816E-03
            4599            4800     41.3407E-03     42.0816E-03
            4600            4800     41.3407E-03     42.0816E-03
            4618            4800     41.3407E-03     42.0816E-03
            4619            4801     37.7384E-03     38.3664E-03
            4618            4801     37.7384E-03     38.3664E-03
            4600            4801     37.7384E-03     38.3664E-03
            4601            4801     37.7384E-03     38.3664E-03
            4601            4802     33.9065E-03     34.6814E-03
            4620            4802     33.9065E-03     34.6814E-03
            4602            4802     33.9065E-03     34.6814E-03
            4619            4802     33.9065E-03     34.6814E-03
            4602            4803     30.4426E-03     31.3929E-03
            4620            4803     30.4426E-03     31.3929E-03
            4621            4803     30.4426E-03     31.3929E-03
            4603            4803     30.4426E-03     31.3929E-03
            4622            4804     27.5984E-03     28.5855E-03
            4604            4804     27.5984E-03     28.5855E-03
            4621            4804     27.5984E-03     28.5855E-03
            4603            4804     27.5984E-03     28.5855E-03
            4604            4805     25.0466E-03     26.0420E-03
            4623            4805     25.0466E-03     26.0420E-03
            4622            4805     25.0466E-03     26.0420E-03
            4605            4805     25.0466E-03     26.0420E-03
            4605            4806     22.7004E-03     23.6970E-03
            4624            4806     22.7004E-03     23.6970E-03
            4606            4806     22.7004E-03     23.6970E-03
            4623            4806     22.7004E-03     23.6970E-03
            4606            4807     20.4806E-03     21.4644E-03
            4607            4807     20.4806E-03     21.4644E-03
            4625            4807     20.4806E-03     21.4644E-03
            4624            4807     20.4806E-03     21.4644E-03
            4607            4808     18.3327E-03     19.3080E-03
            4608            4808     18.3327E-03     19.3080E-03
            4625            4808     18.3327E-03     19.3080E-03
            4626            4808     18.3327E-03     19.3080E-03
            4608            4809     16.2351E-03     17.1961E-03
            4627            4809     16.2351E-03     17.1961E-03
            4626            4809     16.2351E-03     17.1961E-03
            4609            4809     16.2351E-03     17.1961E-03
            4628            4810     14.1652E-03     15.1117E-03
            4610            4810     14.1652E-03     15.1117E-03
            4609            4810     14.1652E-03     15.1117E-03
            4627            4810     14.1652E-03     15.1117E-03
            4629            4811     12.1199E-03     13.0449E-03
            4628            4811     12.1199E-03     13.0449E-03
            4610            4811     12.1199E-03     13.0449E-03
            4611            4811     12.1199E-03     13.0449E-03
            4630            4812     10.0950E-03     10.9886E-03
            4629            4812     10.0950E-03     10.9886E-03
            4612            4812     10.0950E-03     10.9886E-03
            4611            4812     10.0950E-03     10.9886E-03
            4630            4813     8.09937E-03     8.94416E-03
            4612            4813     8.09937E-03     8.94416E-03
            4631            4813     8.09937E-03     8.94416E-03
            4613            4813     8.09937E-03     8.94416E-03
            4614            4814     6.14955E-03     6.92144E-03
            4631            4814     6.14955E-03     6.92144E-03
            4632            4814     6.14955E-03     6.92144E-03
            4613            4814     6.14955E-03     6.92144E-03
            4633            4815     4.29767E-03     4.96515E-03
            4615            4815     4.29767E-03     4.96515E-03
            4614            4815     4.29767E-03     4.96515E-03
            4632            4815     4.29767E-03     4.96515E-03
            4634            4816     2.81775E-03     3.16004E-03
            4633            4816     2.81775E-03     3.16004E-03
            4615            4816     2.81775E-03     3.16004E-03
            4616            4816     2.81775E-03     3.16004E-03
            4635            4817     39.7348E-03     40.1994E-03
            4618            4817     39.7348E-03     40.1994E-03
            4617            4817     39.7348E-03     40.1994E-03
            4636            4817     39.7348E-03     40.1994E-03
            4618            4818     36.6897E-03     37.4160E-03
            4637            4818     36.6897E-03     37.4160E-03
            4636            4818     36.6897E-03     37.4160E-03
            4619            4818     36.6897E-03     37.4160E-03
            4619            4819     33.6996E-03     34.4809E-03
            4637            4819     33.6996E-03     34.4809E-03
            4620            4819     33.6996E-03     34.4809E-03
            4638            4819     33.6996E-03     34.4809E-03
            4621            4820     30.7707E-03     31.6209E-03
            4639            4820     30.7707E-03     31.6209E-03
            4620            4820     30.7707E-03     31.6209E-03
            4638            4820     30.7707E-03     31.6209E-03
            4639            4821     28.0359E-03     28.9590E-03
            4621            4821     28.0359E-03     28.9590E-03
            4622            4821     28.0359E-03     28.9590E-03
            4640            4821     28.0359E-03     28.9590E-03
            4640            4822     25.5721E-03     26.4917E-03
            4623            4822     25.5721E-03     26.4917E-03
            4622            4822     25.5721E-03     26.4917E-03
            4641            4822     25.5721E-03     26.4917E-03
            4642            4823     23.2371E-03     24.1427E-03
            4623            4823     23.2371E-03     24.1427E-03
            4624            4823     23.2371E-03     24.1427E-03
            4641            4823     23.2371E-03     24.1427E-03
            4625            4824     21.0089E-03     21.8922E-03
            4624            4824     21.0089E-03     21.8922E-03
            4643            4824     21.0089E-03     21.8922E-03
            4642            4824     21.0089E-03     21.8922E-03
            4644            4825     18.8422E-03     19.7008E-03
            4625            4825     18.8422E-03     19.7008E-03
            4643            4825     18.8422E-03     19.7008E-03
            4626            4825     18.8422E-03     19.7008E-03
            4644            4826     16.7185E-03     17.5574E-03
            4627            4826     16.7185E-03     17.5574E-03
            4626            4826     16.7185E-03     17.5574E-03
            4645            4826     16.7185E-03     17.5574E-03
            4645            4827     14.6276E-03     15.4468E-03
            4627            4827     14.6276E-03     15.4468E-03
            4646            4827     14.6276E-03     15.4468E-03
            4628            4827     14.6276E-03     15.4468E-03
            4646            4828     12.5638E-03     13.3633E-03
            4629            4828     12.5638E-03     13.3633E-03
            4647            4828     12.5638E-03     13.3633E-03
            4628            4828     12.5638E-03     13.3633E-03
            4647            4829     10.5337E-03     11.3066E-03
            4629            4829     10.5337E-03     11.3066E-03
            4630            4829     10.5337E-03     11.3066E-03
            4648            4829     10.5337E-03     11.3066E-03
            4649            4830     8.54967E-03     9.27792E-03
            4630            4830     8.54967E-03     9.27792E-03
            4648            4830     8.54967E-03     9.27792E-03
            4631            4830     8.54967E-03     9.27792E-03
            4632            4831     6.64457E-03     7.30571E-03
            4649            4831     6.64457E-03     7.30571E-03
            4631            4831     6.64457E-03     7.30571E-03
            4650            4831     6.64457E-03     7.30571E-03
            4650            4832     4.92433E-03     5.42501E-03
            4632            4832     4.92433E-03     5.42501E-03
            4651            4832     4.92433E-03     5.42501E-03
            4633            4832     4.92433E-03     5.42501E-03
            4651            4833     3.63654E-03     3.80989E-03
            4633            4833     3.63654E-03     3.80989E-03
            4652            4833     3.63654E-03     3.80989E-03
            4634            4833     3.63654E-03     3.80989E-03
            4654            4834     37.9326E-03     38.4545E-03
            4635            4834     37.9326E-03     38.4545E-03
            4636            4834     37.9326E-03     38.4545E-03
            4653            4834     37.9326E-03     38.4545E-03
            4654            4835     35.5286E-03     36.1303E-03
            4637            4835     35.5286E-03     36.1303E-03
            4636            4835     35.5286E-03     36.1303E-03
            4655            4835     35.5286E-03     36.1303E-03
            4656            4836     33.0480E-03     33.8115E-03
            4655            4836     33.0480E-03     33.8115E-03
            4637            4836     33.0480E-03     33.8115E-03
            4638            4836     33.0480E-03     33.8115E-03
            4638            4837     30.6077E-03     31.4280E-03
            4639            4837     30.6077E-03     31.4280E-03
            4657            4837     30.6077E-03     31.4280E-03
            4656            4837     30.6077E-03     31.4280E-03
            4658            4838     28.2110E-03     29.0403E-03
            4639            4838     28.2110E-03     29.0403E-03
            4640            4838     28.2110E-03     29.0403E-03
            4657            4838     28.2110E-03     29.0403E-03
            4659            4839     25.8687E-03     26.7003E-03
            4641            4839     25.8687E-03     26.7003E-03
            4640            4839     25.8687E-03     26.7003E-03
            4658            4839     25.8687E-03     26.7003E-03
            4660            4840     23.6227E-03     24.4186E-03
            4641            4840     23.6227E-03     24.4186E-03
            4642            4840     23.6227E-03     24.4186E-03
            4659            4840     23.6227E-03     24.4186E-03
            4642            4841     21.4174E-03     22.1820E-03
            4660            4841     21.4174E-03     22.1820E-03
            4661            4841     21.4174E-03     22.1820E-03
            4643            4841     21.4174E-03     22.1820E-03
            4661            4842     19.2608E-03     19.9944E-03
            4662            4842     19.2608E-03     19.9944E-03
            4643            4842     19.2608E-03     19.9944E-03
            4644            4842     19.2608E-03     19.9944E-03
            4644            4843     17.1347E-03     17.8442E-03
            4645            4843     17.1347E-03     17.8442E-03
            4663            4843     17.1347E-03     17.8442E-03
            4662            4843     17.1347E-03     17.8442E-03
            4663            4844     15.0398E-03     15.7335E-03
            4664            4844     15.0398E-03     15.7335E-03
            4645            4844     15.0398E-03     15.7335E-03
            4646            4844     15.0398E-03     15.7335E-03
            4665            4845     12.9787E-03     13.6594E-03
            4647            4845     12.9787E-03     13.6594E-03
            4646            4845     12.9787E-03     13.6594E-03
            4664            4845     12.9787E-03     13.6594E-03
            4648            4846     10.9600E-03     11.6240E-03
            4666            4846     10.9600E-03     11.6240E-03
            4647            4846     10.9600E-03     11.6240E-03
            4665            4846     10.9600E-03     11.6240E-03
            4648            4847     9.00842E-03     9.64395E-03
            4667            4847     9.00842E-03     9.64395E-03
            4649            4847     9.00842E-03     9.64395E-03
            4666            4847     9.00842E-03     9.64395E-03
            4667            4848     7.17809E-03     7.73112E-03
            4650            4848     7.17809E-03     7.73112E-03
            4649            4848     7.17809E-03     7.73112E-03
            4668            4848     7.17809E-03     7.73112E-03
            4668            4849     5.57199E-03     5.97221E-03
            4669            4849     5.57199E-03     5.97221E-03
            4650            4849     5.57199E-03     5.97221E-03
            4651            4849     5.57199E-03     5.97221E-03
            4669            4850     4.44904E-03     4.53371E-03
            4651            4850     4.44904E-03     4.53371E-03
            4652            4850     4.44904E-03     4.53371E-03
            4670            4850     4.44904E-03     4.53371E-03
            4654            4851     36.1931E-03     36.5980E-03
            4653            4851     36.1931E-03     36.5980E-03
            4672            4851     36.1931E-03     36.5980E-03
            4671            4851     36.1931E-03     36.5980E-03
            4673            4852     34.1501E-03     34.7643E-03
            4672            4852     34.1501E-03     34.7643E-03
            4655            4852     34.1501E-03     34.7643E-03
            4654            4852     34.1501E-03     34.7643E-03
            4656            4853     32.1892E-03     32.8866E-03
            4673            4853     32.1892E-03     32.8866E-03
            4655            4853     32.1892E-03     32.8866E-03
            4674            4853     32.1892E-03     32.8866E-03
            4675            4854     30.1541E-03     30.9116E-03
            4656            4854     30.1541E-03     30.9116E-03
            4674            4854     30.1541E-03     30.9116E-03
            4657            4854     30.1541E-03     30.9116E-03
            4658            4855     28.0684E-03     28.8200E-03
            4676            4855     28.0684E-03     28.8200E-03
            4675            4855     28.0684E-03     28.8200E-03
            4657            4855     28.0684E-03     28.8200E-03
            4659            4856     25.9500E-03     26.6561E-03
            4658            4856     25.9500E-03     26.6561E-03
            4677            4856     25.9500E-03     26.6561E-03
            4676            4856     25.9500E-03     26.6561E-03
            4659            4857     23.8033E-03     24.4725E-03
            4677            4857     23.8033E-03     24.4725E-03
            4678            4857     23.8033E-03     24.4725E-03
            4660            4857     23.8033E-03     24.4725E-03
            4678            4858     21.6738E-03     22.2965E-03
            4661            4858     21.6738E-03     22.2965E-03
            4679            4858     21.6738E-03     22.2965E-03
            4660            4858     21.6738E-03     22.2965E-03
            4679            4859     19.5498E-03     20.1412E-03
            4661            4859     19.5498E-03     20.1412E-03
            4662            4859     19.5498E-03     20.1412E-03
            4680            4859     19.5498E-03     20.1412E-03
            4662            4860     17.4517E-03     18.0203E-03
            4681            4860     17.4517E-03     18.0203E-03
            4680            4860     17.4517E-03     18.0203E-03
            4663            4860     17.4517E-03     18.0203E-03
            4682            4861     15.3781E-03     15.9362E-03
            4681            4861     15.3781E-03     15.9362E-03
            4663            4861     15.3781E-03     15.9362E-03
            4664            4861     15.3781E-03     15.9362E-03
            4665            4862     13.3406E-03     13.9001E-03
            4683            4862     13.3406E-03     13.9001E-03
            4682            4862     13.3406E-03     13.9001E-03
            4664            4862     13.3406E-03     13.9001E-03
            4665            4863     11.3571E-03     11.9200E-03
            4683            4863     11.3571E-03     11.9200E-03
            4666            4863     11.3571E-03     11.9200E-03
            4684            4863     11.3571E-03     11.9200E-03
            4684            4864     9.45934E-03     10.0048E-03
            4685            4864     9.45934E-03     10.0048E-03
            4666            4864     9.45934E-03     10.0048E-03
            4667            4864     9.45934E-03     10.0048E-03
            4686            4865     7.70968E-03     8.20087E-03
            4668            4865     7.70968E-03     8.20087E-03
            4667            4865     7.70968E-03     8.20087E-03
            4685            4865     7.70968E-03     8.20087E-03
            4686            4866     6.23666E-03     6.55936E-03
            4669            4866     6.23666E-03     6.55936E-03
            4668            4866     6.23666E-03     6.55936E-03
            4687            4866     6.23666E-03     6.55936E-03
            4669            4867     5.23730E-03     5.28286E-03
            4687            4867     5.23730E-03     5.28286E-03
            4670            4867     5.23730E-03     5.28286E-03
            4688            4867     5.23730E-03     5.28286E-03
            4689            4868     34.3000E-03     34.6920E-03
            4690            4868     34.3000E-03     34.6920E-03
            4671            4868     34.3000E-03     34.6920E-03
            4672            4868     34.3000E-03     34.6920E-03
            4672            4869     32.7081E-03     33.2527E-03
            4690            4869     32.7081E-03     33.2527E-03
            4673            4869     32.7081E-03     33.2527E-03
            4691            4869     32.7081E-03     33.2527E-03
            4674            4870     31.1334E-03     31.8041E-03
            4673            4870     31.1334E-03     31.8041E-03
            4692            4870     31.1334E-03     31.8041E-03
            4691            4870     31.1334E-03     31.8041E-03
            4675            4871     29.4933E-03     30.1612E-03
            4693            4871     29.4933E-03     30.1612E-03
            4692            4871     29.4933E-03     30.1612E-03
            4674            4871     29.4933E-03     30.1612E-03
            4676            4872     27.7043E-03     28.3256E-03
            4693            4872     27.7043E-03     28.3256E-03
            4675            4872     27.7043E-03     28.3256E-03
            4694            4872     27.7043E-03     28.3256E-03
            4694            4873     25.7845E-03     26.3489E-03
            4677            4873     25.7845E-03     26.3489E-03
            4676            4873     25.7845E-03     26.3489E-03
            4695            4873     25.7845E-03     26.3489E-03
            4696            4874     23.7884E-03     24.2905E-03
            4678            4874     23.7884E-03     24.2905E-03
            4677            4874     23.7884E-03     24.2905E-03
            4695            4874     23.7884E-03     24.2905E-03
            4678            4875     21.7435E-03     22.2045E-03
            4696            4875     21.7435E-03     22.2045E-03
            4679            4875     21.7435E-03     22.2045E-03
            4697            4875     21.7435E-03     22.2045E-03
            4697            4876     19.6949E-03     20.1215E-03
            4679            4876     19.6949E-03     20.1215E-03
            4698            4876     19.6949E-03     20.1215E-03
            4680            4876     19.6949E-03     20.1215E-03
            4680            4877     17.6493E-03     18.0598E-03
            4681            4877     17.6493E-03     18.0598E-03
            4699            4877     17.6493E-03     18.0598E-03
            4698            4877     17.6493E-03     18.0598E-03
            4700            4878     15.6299E-03     16.0384E-03
            4681            4878     15.6299E-03     16.0384E-03
            4699            4878     15.6299E-03     16.0384E-03
            4682            4878     15.6299E-03     16.0384E-03
            4682            4879     13.6457E-03     14.0687E-03
            4683            4879     13.6457E-03     14.0687E-03
            4701            4879     13.6457E-03     14.0687E-03
            4700            4879     13.6457E-03     14.0687E-03
            4702            4880     11.7192E-03     12.1742E-03
            4684            4880     11.7192E-03     12.1742E-03
            4701            4880     11.7192E-03     12.1742E-03
            4683            4880     11.7192E-03     12.1742E-03
            4684            4881     9.89584E-03     10.3721E-03
            4703            4881     9.89584E-03     10.3721E-03
            4702            4881     9.89584E-03     10.3721E-03
            4685            4881     9.89584E-03     10.3721E-03
            4704            4882     8.24575E-03     8.68221E-03
            4686            4882     8.24575E-03     8.68221E-03
            4685            4882     8.24575E-03     8.68221E-03
            4703            4882     8.24575E-03     8.68221E-03
            4687            4883     6.89339E-03     7.20910E-03
            4704            4883     6.89339E-03     7.20910E-03
            4686            4883     6.89339E-03     7.20910E-03
            4705            4883     6.89339E-03     7.20910E-03
            4706            4884     6.02963E-03     6.05461E-03
            4705            4884     6.02963E-03     6.05461E-03
            4688            4884     6.02963E-03     6.05461E-03
            4687            4884     6.02963E-03     6.05461E-03
            4708            4885     32.3451E-03     32.6543E-03
            4690            4885     32.3451E-03     32.6543E-03
            4707            4885     32.3451E-03     32.6543E-03
            4689            4885     32.3451E-03     32.6543E-03
            4690            4886     31.1070E-03     31.6487E-03
            4709            4886     31.1070E-03     31.6487E-03
            4691            4886     31.1070E-03     31.6487E-03
            4708            4886     31.1070E-03     31.6487E-03
            4710            4887     29.9658E-03     30.5433E-03
            4692            4887     29.9658E-03     30.5433E-03
            4691            4887     29.9658E-03     30.5433E-03
            4709            4887     29.9658E-03     30.5433E-03
            4711            4888     28.6670E-03     29.1928E-03
            4692            4888     28.6670E-03     29.1928E-03
            4693            4888     28.6670E-03     29.1928E-03
            4710            4888     28.6670E-03     29.1928E-03
            4712            4889     27.1378E-03     27.5781E-03
            4693            4889     27.1378E-03     27.5781E-03
            4694            4889     27.1378E-03     27.5781E-03
            4711            4889     27.1378E-03     27.5781E-03
            4713            4890     25.4112E-03     25.7746E-03
            4712            4890     25.4112E-03     25.7746E-03
            4695            4890     25.4112E-03     25.7746E-03
            4694            4890     25.4112E-03     25.7746E-03
            4696            4891     23.5563E-03     23.8660E-03
            4714            4891     23.5563E-03     23.8660E-03
            4713            4891     23.5563E-03     23.8660E-03
            4695            4891     23.5563E-03     23.8660E-03
            4696            4892     21.6358E-03     21.9033E-03
            4715            4892     21.6358E-03     21.9033E-03
            4714            4892     21.6358E-03     21.9033E-03
            4697            4892     21.6358E-03     21.9033E-03
            4698            4893     19.6815E-03     19.9276E-03
            4697            4893     19.6815E-03     19.9276E-03
            4715            4893     19.6815E-03     19.9276E-03
            4716            4893     19.6815E-03     19.9276E-03
            4698            4894     17.7309E-03     17.9657E-03
            4716            4894     17.7309E-03     17.9657E-03
            4717            4894     17.7309E-03     17.9657E-03
            4699            4894     17.7309E-03     17.9657E-03
            4700            4895     15.7958E-03     16.0383E-03
            4699            4895     15.7958E-03     16.0383E-03
            4717            4895     15.7958E-03     16.0383E-03
            4718            4895     15.7958E-03     16.0383E-03
            4718            4896     13.9017E-03     14.1708E-03
            4701            4896     13.9017E-03     14.1708E-03
            4700            4896     13.9017E-03     14.1708E-03
            4719            4896     13.9017E-03     14.1708E-03
            4720            4897     12.0656E-03     12.3868E-03
            4701            4897     12.0656E-03     12.3868E-03
            4702            4897     12.0656E-03     12.3868E-03
            4719            4897     12.0656E-03     12.3868E-03
            4702            4898     10.3283E-03     10.7345E-03
            4721            4898     10.3283E-03     10.7345E-03
            4720            4898     10.3283E-03     10.7345E-03
            4703            4898     10.3283E-03     10.7345E-03
            4703            4899     8.79189E-03     9.22583E-03
            4722            4899     8.79189E-03     9.22583E-03
            4721            4899     8.79189E-03     9.22583E-03
            4704            4899     8.79189E-03     9.22583E-03
            4723            4900     7.56765E-03     7.88269E-03
            4704            4900     7.56765E-03     7.88269E-03
            4705            4900     7.56765E-03     7.88269E-03
            4722            4900     7.56765E-03     7.88269E-03
            4723            4901     6.80532E-03     6.91613E-03
            4724            4901     6.80532E-03     6.91613E-03
            4705            4901     6.80532E-03     6.91613E-03
            4706            4901     6.80532E-03     6.91613E-03
            4726            4902     30.2104E-03     30.5122E-03
            4708            4902     30.2104E-03     30.5122E-03
            4707            4902     30.2104E-03     30.5122E-03
            4725            4902     30.2104E-03     30.5122E-03
            4708            4903     29.4013E-03     29.8441E-03
            4709            4903     29.4013E-03     29.8441E-03
            4726            4903     29.4013E-03     29.8441E-03
            4727            4903     29.4013E-03     29.8441E-03
            4728            4904     28.7018E-03     29.0893E-03
            4709            4904     28.7018E-03     29.0893E-03
            4727            4904     28.7018E-03     29.0893E-03
            4710            4904     28.7018E-03     29.0893E-03
            4728            4905     27.7063E-03     27.9743E-03
            4710            4905     27.7063E-03     27.9743E-03
            4711            4905     27.7063E-03     27.9743E-03
            4729            4905     27.7063E-03     27.9743E-03
            4711            4906     26.3773E-03     26.5544E-03
            4729            4906     26.3773E-03     26.5544E-03
            4730            4906     26.3773E-03     26.5544E-03
            4712            4906     26.3773E-03     26.5544E-03
            4731            4907     24.8267E-03     24.9417E-03
            4730            4907     24.8267E-03     24.9417E-03
            4713            4907     24.8267E-03     24.9417E-03
            4712            4907     24.8267E-03     24.9417E-03
            4713            4908     23.1294E-03     23.2077E-03
            4732            4908     23.1294E-03     23.2077E-03
            4714            4908     23.1294E-03     23.2077E-03
            4731            4908     23.1294E-03     23.2077E-03
            4714            4909     21.3487E-03     21.4089E-03
            4733            4909     21.3487E-03     21.4089E-03
            4715            4909     21.3487E-03     21.4089E-03
            4732            4909     21.3487E-03     21.4089E-03
            4716            4910     19.5318E-03     19.5826E-03
            4715            4910     19.5318E-03     19.5826E-03
            4734            4910     19.5318E-03     19.5826E-03
            4733            4910     19.5318E-03     19.5826E-03
            4734            4911     17.7053E-03     17.7599E-03
            4716            4911     17.7053E-03     17.7599E-03
            4717            4911     17.7053E-03     17.7599E-03
            4735            4911     17.7053E-03     17.7599E-03
            4736            4912     15.8999E-03     15.9658E-03
            4718            4912     15.8999E-03     15.9658E-03
            4735            4912     15.8999E-03     15.9658E-03
            4717            4912     15.8999E-03     15.9658E-03
            4719            4913     14.1293E-03     14.2288E-03
            4718            4913     14.1293E-03     14.2288E-03
            4737            4913     14.1293E-03     14.2288E-03
            4736            4913     14.1293E-03     14.2288E-03
            4719            4914     12.4254E-03     12.5858E-03
            4738            4914     12.4254E-03     12.5858E-03
            4720            4914     12.4254E-03     12.5858E-03
            4737            4914     12.4254E-03     12.5858E-03
            4721            4915     10.8094E-03     11.0860E-03
            4739            4915     10.8094E-03     11.0860E-03
            4738            4915     10.8094E-03     11.0860E-03
            4720            4915     10.8094E-03     11.0860E-03
            4721            4916     9.35465E-03     9.81770E-03
            4722            4916     9.35465E-03     9.81770E-03
            4740            4916     9.35465E-03     9.81770E-03
            4739            4916     9.35465E-03     9.81770E-03
            4740            4917     8.27075E-03     8.72003E-03
            4741            4917     8.27075E-03     8.72003E-03
            4723            4917     8.27075E-03     8.72003E-03
            4722            4917     8.27075E-03     8.72003E-03
            4741            4918     7.63216E-03     7.76857E-03
            4723            4918     7.63216E-03     7.76857E-03
            4742            4918     7.63216E-03     7.76857E-03
            4724            4918     7.63216E-03     7.76857E-03
            4725            4919     27.8690E-03     27.9456E-03
            4726            4919     27.8690E-03     27.9456E-03
            4743            4919     27.8690E-03     27.9456E-03
            4744            4919     27.8690E-03     27.9456E-03
            4745            4920     27.6874E-03     27.7940E-03
            4727            4920     27.6874E-03     27.7940E-03
            4744            4920     27.6874E-03     27.7940E-03
            4726            4920     27.6874E-03     27.7940E-03
            4745            4921     27.3869E-03     27.3488E-03
            4727            4921     27.3869E-03     27.3488E-03
            4746            4921     27.3869E-03     27.3488E-03
            4728            4921     27.3869E-03     27.3488E-03
            4746            4922     26.5700E-03     26.4436E-03
            4728            4922     26.5700E-03     26.4436E-03
            4729            4922     26.5700E-03     26.4436E-03
            4747            4922     26.5700E-03     26.4436E-03
            4747            4923     25.4225E-03     25.2513E-03
            4748            4923     25.4225E-03     25.2513E-03
            4729            4923     25.4225E-03     25.2513E-03
            4730            4923     25.4225E-03     25.2513E-03
            4748            4924     24.0441E-03     23.8682E-03
            4730            4924     24.0441E-03     23.8682E-03
            4749            4924     24.0441E-03     23.8682E-03
            4731            4924     24.0441E-03     23.8682E-03
            4750            4925     22.5270E-03     22.3582E-03
            4749            4925     22.5270E-03     22.3582E-03
            4732            4925     22.5270E-03     22.3582E-03
            4731            4925     22.5270E-03     22.3582E-03
            4732            4926     20.9231E-03     20.7691E-03
            4733            4926     20.9231E-03     20.7691E-03
            4750            4926     20.9231E-03     20.7691E-03
            4751            4926     20.9231E-03     20.7691E-03
            4751            4927     19.2758E-03     19.1396E-03
            4752            4927     19.2758E-03     19.1396E-03
            4734            4927     19.2758E-03     19.1396E-03
            4733            4927     19.2758E-03     19.1396E-03
            4753            4928     17.6184E-03     17.4982E-03
            4752            4928     17.6184E-03     17.4982E-03
            4735            4928     17.6184E-03     17.4982E-03
            4734            4928     17.6184E-03     17.4982E-03
            4753            4929     15.9747E-03     15.8756E-03
            4754            4929     15.9747E-03     15.8756E-03
            4735            4929     15.9747E-03     15.8756E-03
            4736            4929     15.9747E-03     15.8756E-03
            4737            4930     14.3730E-03     14.2996E-03
            4755            4930     14.3730E-03     14.2996E-03
            4754            4930     14.3730E-03     14.2996E-03
            4736            4930     14.3730E-03     14.2996E-03
            4738            4931     12.8324E-03     12.8145E-03
            4755            4931     12.8324E-03     12.8145E-03
            4737            4931     12.8324E-03     12.8145E-03
            4756            4931     12.8324E-03     12.8145E-03
            4739            4932     11.3901E-03     11.4718E-03
            4756            4932     11.3901E-03     11.4718E-03
            4738            4932     11.3901E-03     11.4718E-03
            4757            4932     11.3901E-03     11.4718E-03
            4757            4933     10.0557E-03     10.3781E-03
            4739            4933     10.0557E-03     10.3781E-03
            4740            4933     10.0557E-03     10.3781E-03
            4758            4933     10.0557E-03     10.3781E-03
            4741            4934     8.95057E-03     9.65575E-03
            4740            4934     8.95057E-03     9.65575E-03
            4758            4934     8.95057E-03     9.65575E-03
            4759            4934     8.95057E-03     9.65575E-03
            4741            4935     8.47160E-03     9.03605E-03
            4742            4935     8.47160E-03     9.03605E-03
            4760            4935     8.47160E-03     9.03605E-03
            4759            4935     8.47160E-03     9.03605E-03
            4743            4936     25.6021E-03     24.8375E-03
            4762            4936     25.6021E-03     24.8375E-03
            4744            4936     25.6021E-03     24.8375E-03
            4761            4936     25.6021E-03     24.8375E-03
            4745            4937     26.1174E-03     25.3920E-03
            4763            4937     26.1174E-03     25.3920E-03
            4762            4937     26.1174E-03     25.3920E-03
            4744            4937     26.1174E-03     25.3920E-03
            4745            4938     25.9317E-03     25.2178E-03
            4763            4938     25.9317E-03     25.2178E-03
            4764            4938     25.9317E-03     25.2178E-03
            4746            4938     25.9317E-03     25.2178E-03
            4746            4939     25.2529E-03     24.6076E-03
            4747            4939     25.2529E-03     24.6076E-03
            4765            4939     25.2529E-03     24.6076E-03
            4764            4939     25.2529E-03     24.6076E-03
            4747            4940     24.2793E-03     23.7224E-03
            4765            4940     24.2793E-03     23.7224E-03
            4766            4940     24.2793E-03     23.7224E-03
            4748            4940     24.2793E-03     23.7224E-03
            4748            4941     23.1137E-03     22.6368E-03
            4766            4941     23.1137E-03     22.6368E-03
            4749            4941     23.1137E-03     22.6368E-03
            4767            4941     23.1137E-03     22.6368E-03
            4749            4942     21.8121E-03     21.4076E-03
            4767            4942     21.8121E-03     21.4076E-03
            4768            4942     21.8121E-03     21.4076E-03
            4750            4942     21.8121E-03     21.4076E-03
            4769            4943     20.4265E-03     20.0812E-03
            4750            4943     20.4265E-03     20.0812E-03
            4751            4943     20.4265E-03     20.0812E-03
            4768            4943     20.4265E-03     20.0812E-03
            4770            4944     18.9890E-03     18.6904E-03
            4752            4944     18.9890E-03     18.6904E-03
            4769            4944     18.9890E-03     18.6904E-03
            4751            4944     18.9890E-03     18.6904E-03
            4753            4945     17.5333E-03     17.2708E-03
            4771            4945     17.5333E-03     17.2708E-03
            4770            4945     17.5333E-03     17.2708E-03
            4752            4945     17.5333E-03     17.2708E-03
            4772            4946     16.0857E-03     15.8500E-03
            4771            4946     16.0857E-03     15.8500E-03
            4753            4946     16.0857E-03     15.8500E-03
            4754            4946     16.0857E-03     15.8500E-03
            4755            4947     14.6779E-03     14.4624E-03
            4773            4947     14.6779E-03     14.4624E-03
            4754            4947     14.6779E-03     14.4624E-03
            4772            4947     14.6779E-03     14.4624E-03
            4774            4948     13.3346E-03     13.1447E-03
            4773            4948     13.3346E-03     13.1447E-03
            4756            4948     13.3346E-03     13.1447E-03
            4755            4948     13.3346E-03     13.1447E-03
            4757            4949     12.0948E-03     11.9527E-03
            4774            4949     12.0948E-03     11.9527E-03
            4756            4949     12.0948E-03     11.9527E-03
            4775            4949     12.0948E-03     11.9527E-03
            4757            4950     10.9719E-03     10.9546E-03
            4776            4950     10.9719E-03     10.9546E-03
            4758            4950     10.9719E-03     10.9546E-03
            4775            4950     10.9719E-03     10.9546E-03
            4759            4951     9.95461E-03     10.3524E-03
            4777            4951     9.95461E-03     10.3524E-03
            4758            4951     9.95461E-03     10.3524E-03
            4776            4951     9.95461E-03     10.3524E-03
            4759            4952     9.16934E-03     10.2858E-03
            4777            4952     9.16934E-03     10.2858E-03
            4760            4952     9.16934E-03     10.2858E-03
            4778            4952     9.16934E-03     10.2858E-03
            4762            4953     24.3793E-03     24.8581E-03
            4780            4953     24.3793E-03     24.8581E-03
            4761            4953     24.3793E-03     24.8581E-03
            4779            4953     24.3793E-03     24.8581E-03
            4763            4954     22.1826E-03     22.1790E-03
            4780            4954     22.1826E-03     22.1790E-03
            4762            4954     22.1826E-03     22.1790E-03
            4781            4954     22.1826E-03     22.1790E-03
            4763            4955     20.7571E-03     20.7102E-03
            4764            4955     20.7571E-03     20.7102E-03
            4781            4955     20.7571E-03     20.7102E-03
            4782            4955     20.7571E-03     20.7102E-03
            4782            4956     19.4294E-03     19.4623E-03
            4783            4956     19.4294E-03     19.4623E-03
            4764            4956     19.4294E-03     19.4623E-03
            4765            4956     19.4294E-03     19.4623E-03
            4784            4957     18.2324E-03     18.3301E-03
            4766            4957     18.2324E-03     18.3301E-03
            4783            4957     18.2324E-03     18.3301E-03
            4765            4957     18.2324E-03     18.3301E-03
            4785            4958     17.0504E-03     17.2363E-03
            4784            4958     17.0504E-03     17.2363E-03
            4767            4958     17.0504E-03     17.2363E-03
            4766            4958     17.0504E-03     17.2363E-03
            4785            4959     15.8997E-03     16.1449E-03
            4786            4959     15.8997E-03     16.1449E-03
            4767            4959     15.8997E-03     16.1449E-03
            4768            4959     15.8997E-03     16.1449E-03
            4768            4960     14.7430E-03     15.0447E-03
            4787            4960     14.7430E-03     15.0447E-03
            4786            4960     14.7430E-03     15.0447E-03
            4769            4960     14.7430E-03     15.0447E-03
            4788            4961     13.5941E-03     13.9316E-03
            4770            4961     13.5941E-03     13.9316E-03
            4787            4961     13.5941E-03     13.9316E-03
            4769            4961     13.5941E-03     13.9316E-03
            4788            4962     12.4475E-03     12.8121E-03
            4770            4962     12.4475E-03     12.8121E-03
            4771            4962     12.4475E-03     12.8121E-03
            4789            4962     12.4475E-03     12.8121E-03
            4789            4963     11.3172E-03     11.6929E-03
            4771            4963     11.3172E-03     11.6929E-03
            4772            4963     11.3172E-03     11.6929E-03
            4790            4963     11.3172E-03     11.6929E-03
            4772            4964     10.2150E-03     10.5928E-03
            4791            4964     10.2150E-03     10.5928E-03
            4773            4964     10.2150E-03     10.5928E-03
            4790            4964     10.2150E-03     10.5928E-03
            4792            4965     9.15934E-03     9.52110E-03
            4791            4965     9.15934E-03     9.52110E-03
            4773            4965     9.15934E-03     9.52110E-03
            4774            4965     9.15934E-03     9.52110E-03
            4775            4966     8.17381E-03     8.52206E-03
            4792            4966     8.17381E-03     8.52206E-03
            4793            4966     8.17381E-03     8.52206E-03
            4774            4966     8.17381E-03     8.52206E-03
            4776            4967     7.28320E-03     7.60396E-03
            4775            4967     7.28320E-03     7.60396E-03
            4793            4967     7.28320E-03     7.60396E-03
            4794            4967     7.28320E-03     7.60396E-03
            4794            4968     6.52323E-03     6.91085E-03
            4776            4968     6.52323E-03     6.91085E-03
            4777            4968     6.52323E-03     6.91085E-03
            4795            4968     6.52323E-03     6.91085E-03
            4796            4969     5.72354E-03     6.62497E-03
            4777            4969     5.72354E-03     6.62497E-03
            4778            4969     5.72354E-03     6.62497E-03
            4795            4969     5.72354E-03     6.62497E-03
            4779            4970     24.6581E-03     25.4927E-03
            4798            4970     24.6581E-03     25.4927E-03
            4780            4970     24.6581E-03     25.4927E-03
            4797            4970     24.6581E-03     25.4927E-03
            4798            4971     19.5701E-03     20.5787E-03
            4799            4971     19.5701E-03     20.5787E-03
            4780            4971     19.5701E-03     20.5787E-03
            4781            4971     19.5701E-03     20.5787E-03
            4781            4972     16.5491E-03     17.4884E-03
            4782            4972     16.5491E-03     17.4884E-03
            4799            4972     16.5491E-03     17.4884E-03
            4800            4972     16.5491E-03     17.4884E-03
            4801            4973     14.5506E-03     15.4558E-03
            4782            4973     14.5506E-03     15.4558E-03
            4783            4973     14.5506E-03     15.4558E-03
            4800            4973     14.5506E-03     15.4558E-03
            4783            4974     12.9597E-03     13.8724E-03
            4802            4974     12.9597E-03     13.8724E-03
            4784            4974     12.9597E-03     13.8724E-03
            4801            4974     12.9597E-03     13.8724E-03
            4803            4975     11.6756E-03     12.6015E-03
            4784            4975     11.6756E-03     12.6015E-03
            4802            4975     11.6756E-03     12.6015E-03
            4785            4975     11.6756E-03     12.6015E-03
            4804            4976     10.5376E-03     11.4802E-03
            4785            4976     10.5376E-03     11.4802E-03
            4786            4976     10.5376E-03     11.4802E-03
            4803            4976     10.5376E-03     11.4802E-03
            4805            4977     9.50657E-03     10.4622E-03
            4786            4977     9.50657E-03     10.4622E-03
            4804            4977     9.50657E-03     10.4622E-03
            4787            4977     9.50657E-03     10.4622E-03
            4788            4978     8.52815E-03     9.48981E-03
            4806            4978     8.52815E-03     9.48981E-03
            4805            4978     8.52815E-03     9.48981E-03
            4787            4978     8.52815E-03     9.48981E-03
            4806            4979     7.58913E-03     8.55009E-03
            4788            4979     7.58913E-03     8.55009E-03
            4807            4979     7.58913E-03     8.55009E-03
            4789            4979     7.58913E-03     8.55009E-03
            4790            4980     6.67354E-03     7.62373E-03
            4808            4980     6.67354E-03     7.62373E-03
            4807            4980     6.67354E-03     7.62373E-03
            4789            4980     6.67354E-03     7.62373E-03
            4790            4981     5.78302E-03     6.71056E-03
            4791            4981     5.78302E-03     6.71056E-03
            4808            4981     5.78302E-03     6.71056E-03
            4809            4981     5.78302E-03     6.71056E-03
            4792            4982     4.91897E-03     5.80972E-03
            4810            4982     4.91897E-03     5.80972E-03
            4809            4982     4.91897E-03     5.80972E-03
            4791            4982     4.91897E-03     5.80972E-03
            4810            4983     4.09877E-03     4.93153E-03
            4792            4983     4.09877E-03     4.93153E-03
            4811            4983     4.09877E-03     4.93153E-03
            4793            4983     4.09877E-03     4.93153E-03
            4793            4984     3.34577E-03     4.09419E-03
            4811            4984     3.34577E-03     4.09419E-03
            4812            4984     3.34577E-03     4.09419E-03
            4794            4984     3.34577E-03     4.09419E-03
            4795            4985     2.71314E-03     3.35374E-03
            4794            4985     2.71314E-03     3.35374E-03
            4812            4985     2.71314E-03     3.35374E-03
            4813            4985     2.71314E-03     3.35374E-03
            4813            4986     2.33561E-03     2.74784E-03
            4796            4986     2.33561E-03     2.74784E-03
            4795            4986     2.33561E-03     2.74784E-03
            4814            4986     2.33561E-03     2.74784E-03
            4797            4987     23.9119E-03     23.9725E-03
            4798            4987     23.9119E-03     23.9725E-03
            4816            4987     23.9119E-03     23.9725E-03
            4815            4987     23.9119E-03     23.9725E-03
            4816            4988     20.1722E-03     20.6004E-03
            4799            4988     20.1722E-03     20.6004E-03
            4798            4988     20.1722E-03     20.6004E-03
            4817            4988     20.1722E-03     20.6004E-03
            4817            4989     16.9899E-03     17.6947E-03
            4799            4989     16.9899E-03     17.6947E-03
            4818            4989     16.9899E-03     17.6947E-03
            4800            4989     16.9899E-03     17.6947E-03
            4819            4990     14.9203E-03     15.6940E-03
            4818            4990     14.9203E-03     15.6940E-03
            4801            4990     14.9203E-03     15.6940E-03
            4800            4990     14.9203E-03     15.6940E-03
            4801            4991     13.3508E-03     14.1396E-03
            4802            4991     13.3508E-03     14.1396E-03
            4819            4991     13.3508E-03     14.1396E-03
            4820            4991     13.3508E-03     14.1396E-03
            4820            4992     12.0514E-03     12.8575E-03
            4821            4992     12.0514E-03     12.8575E-03
            4802            4992     12.0514E-03     12.8575E-03
            4803            4992     12.0514E-03     12.8575E-03
            4804            4993     10.9309E-03     11.7357E-03
            4821            4993     10.9309E-03     11.7357E-03
            4822            4993     10.9309E-03     11.7357E-03
            4803            4993     10.9309E-03     11.7357E-03
            4822            4994     9.89672E-03     10.7015E-03
            4804            4994     9.89672E-03     10.7015E-03
            4805            4994     9.89672E-03     10.7015E-03
            4823            4994     9.89672E-03     10.7015E-03
            4806            4995     8.92521E-03     9.72247E-03
            4823            4995     8.92521E-03     9.72247E-03
            4805            4995     8.92521E-03     9.72247E-03
            4824            4995     8.92521E-03     9.72247E-03
            4807            4996     7.98592E-03     8.77208E-03
            4825            4996     7.98592E-03     8.77208E-03
            4824            4996     7.98592E-03     8.77208E-03
            4806            4996     7.98592E-03     8.77208E-03
            4825            4997     7.07711E-03     7.84387E-03
            4808            4997     7.07711E-03     7.84387E-03
            4826            4997     7.07711E-03     7.84387E-03
            4807            4997     7.07711E-03     7.84387E-03
            4827            4998     6.19517E-03     6.93207E-03
            4808            4998     6.19517E-03     6.93207E-03
            4809            4998     6.19517E-03     6.93207E-03
            4826            4998     6.19517E-03     6.93207E-03
            4810            4999     5.35157E-03     6.04182E-03
            4827            4999     5.35157E-03     6.04182E-03
            4809            4999     5.35157E-03     6.04182E-03
            4828            4999     5.35157E-03     6.04182E-03
            4828            5000     4.56331E-03     5.18108E-03
            4829            5000     4.56331E-03     5.18108E-03
            4810            5000     4.56331E-03     5.18108E-03
            4811            5000     4.56331E-03     5.18108E-03
            4811            5001     3.86117E-03     4.37735E-03
            4829            5001     3.86117E-03     4.37735E-03
            4830            5001     3.86117E-03     4.37735E-03
            4812            5001     3.86117E-03     4.37735E-03
            4813            5002     3.31797E-03     3.65213E-03
            4812            5002     3.31797E-03     3.65213E-03
            4830            5002     3.31797E-03     3.65213E-03
            4831            5002     3.31797E-03     3.65213E-03
            4831            5003     3.04110E-03     3.04442E-03
            4813            5003     3.04110E-03     3.04442E-03
            4814            5003     3.04110E-03     3.04442E-03
            4832            5003     3.04110E-03     3.04442E-03
            4833            5004     21.9847E-03     22.4102E-03
            4816            5004     21.9847E-03     22.4102E-03
            4834            5004     21.9847E-03     22.4102E-03
            4815            5004     21.9847E-03     22.4102E-03
            4835            5005     19.5071E-03     19.8526E-03
            4816            5005     19.5071E-03     19.8526E-03
            4834            5005     19.5071E-03     19.8526E-03
            4817            5005     19.5071E-03     19.8526E-03
            4817            5006     17.1307E-03     17.6085E-03
            4835            5006     17.1307E-03     17.6085E-03
            4818            5006     17.1307E-03     17.6085E-03
            4836            5006     17.1307E-03     17.6085E-03
            4818            5007     15.1554E-03     15.7812E-03
            4836            5007     15.1554E-03     15.7812E-03
            4837            5007     15.1554E-03     15.7812E-03
            4819            5007     15.1554E-03     15.7812E-03
            4819            5008     13.6812E-03     14.3466E-03
            4837            5008     13.6812E-03     14.3466E-03
            4838            5008     13.6812E-03     14.3466E-03
            4820            5008     13.6812E-03     14.3466E-03
            4838            5009     12.4332E-03     13.1042E-03
            4839            5009     12.4332E-03     13.1042E-03
            4820            5009     12.4332E-03     13.1042E-03
            4821            5009     12.4332E-03     13.1042E-03
            4840            5010     11.3251E-03     11.9947E-03
            4839            5010     11.3251E-03     11.9947E-03
            4821            5010     11.3251E-03     11.9947E-03
            4822            5010     11.3251E-03     11.9947E-03
            4841            5011     10.3029E-03     10.9574E-03
            4840            5011     10.3029E-03     10.9574E-03
            4823            5011     10.3029E-03     10.9574E-03
            4822            5011     10.3029E-03     10.9574E-03
            4841            5012     9.32643E-03     9.96767E-03
            4842            5012     9.32643E-03     9.96767E-03
            4824            5012     9.32643E-03     9.96767E-03
            4823            5012     9.32643E-03     9.96767E-03
            4843            5013     8.38786E-03     9.01008E-03
            4825            5013     8.38786E-03     9.01008E-03
            4824            5013     8.38786E-03     9.01008E-03
            4842            5013     8.38786E-03     9.01008E-03
            4825            5014     7.47812E-03     8.07740E-03
            4844            5014     7.47812E-03     8.07740E-03
            4826            5014     7.47812E-03     8.07740E-03
            4843            5014     7.47812E-03     8.07740E-03
            4827            5015     6.60406E-03     7.16972E-03
            4845            5015     6.60406E-03     7.16972E-03
            4844            5015     6.60406E-03     7.16972E-03
            4826            5015     6.60406E-03     7.16972E-03
            4827            5016     5.77697E-03     6.29030E-03
            4845            5016     5.77697E-03     6.29030E-03
            4846            5016     5.77697E-03     6.29030E-03
            4828            5016     5.77697E-03     6.29030E-03
            4829            5017     5.01771E-03     5.45040E-03
            4846            5017     5.01771E-03     5.45040E-03
            4828            5017     5.01771E-03     5.45040E-03
            4847            5017     5.01771E-03     5.45040E-03
            4847            5018     4.36697E-03     4.66826E-03
            4848            5018     4.36697E-03     4.66826E-03
            4829            5018     4.36697E-03     4.66826E-03
            4830            5018     4.36697E-03     4.66826E-03
            4831            5019     3.88676E-03     3.96419E-03
            4849            5019     3.88676E-03     3.96419E-03
            4848            5019     3.88676E-03     3.96419E-03
            4830            5019     3.88676E-03     3.96419E-03
            4850            5020     3.59094E-03     3.43532E-03
            4832            5020     3.59094E-03     3.43532E-03
            4831            5020     3.59094E-03     3.43532E-03
            4849            5020     3.59094E-03     3.43532E-03
            4834            5021     20.2606E-03     20.4806E-03
            4852            5021     20.2606E-03     20.4806E-03
            4833            5021     20.2606E-03     20.4806E-03
            4851            5021     20.2606E-03     20.4806E-03
            4834            5022     18.2773E-03     18.6692E-03
            4835            5022     18.2773E-03     18.6692E-03
            4852            5022     18.2773E-03     18.6692E-03
            4853            5022     18.2773E-03     18.6692E-03
            4836            5023     16.6263E-03     17.0689E-03
            4835            5023     16.6263E-03     17.0689E-03
            4854            5023     16.6263E-03     17.0689E-03
            4853            5023     16.6263E-03     17.0689E-03
            4836            5024     15.1564E-03     15.6522E-03
            4855            5024     15.1564E-03     15.6522E-03
            4837            5024     15.1564E-03     15.6522E-03
            4854            5024     15.1564E-03     15.6522E-03
            4837            5025     13.8534E-03     14.3986E-03
            4838            5025     13.8534E-03     14.3986E-03
            4855            5025     13.8534E-03     14.3986E-03
            4856            5025     13.8534E-03     14.3986E-03
            4838            5026     12.7284E-03     13.2687E-03
            4857            5026     12.7284E-03     13.2687E-03
            4839            5026     12.7284E-03     13.2687E-03
            4856            5026     12.7284E-03     13.2687E-03
            4840            5027     11.6725E-03     12.1974E-03
            4857            5027     11.6725E-03     12.1974E-03
            4839            5027     11.6725E-03     12.1974E-03
            4858            5027     11.6725E-03     12.1974E-03
            4840            5028     10.6700E-03     11.1764E-03
            4841            5028     10.6700E-03     11.1764E-03
            4858            5028     10.6700E-03     11.1764E-03
            4859            5028     10.6700E-03     11.1764E-03
            4841            5029     9.70165E-03     10.1871E-03
            4842            5029     9.70165E-03     10.1871E-03
            4860            5029     9.70165E-03     10.1871E-03
            4859            5029     9.70165E-03     10.1871E-03
            4842            5030     8.76277E-03     9.22891E-03
            4861            5030     8.76277E-03     9.22891E-03
            4843            5030     8.76277E-03     9.22891E-03
            4860            5030     8.76277E-03     9.22891E-03
            4862            5031     7.85603E-03     8.29968E-03
            4844            5031     7.85603E-03     8.29968E-03
            4861            5031     7.85603E-03     8.29968E-03
            4843            5031     7.85603E-03     8.29968E-03
            4862            5032     6.98945E-03     7.40209E-03
            4863            5032     6.98945E-03     7.40209E-03
            4844            5032     6.98945E-03     7.40209E-03
            4845            5032     6.98945E-03     7.40209E-03
            4845            5033     6.17692E-03     6.54129E-03
            4846            5033     6.17692E-03     6.54129E-03
            4863            5033     6.17692E-03     6.54129E-03
            4864            5033     6.17692E-03     6.54129E-03
            4865            5034     5.44552E-03     5.72938E-03
            4846            5034     5.44552E-03     5.72938E-03
            4847            5034     5.44552E-03     5.72938E-03
            4864            5034     5.44552E-03     5.72938E-03
            4866            5035     4.83125E-03     4.97589E-03
            4847            5035     4.83125E-03     4.97589E-03
            4865            5035     4.83125E-03     4.97589E-03
            4848            5035     4.83125E-03     4.97589E-03
            4849            5036     4.36088E-03     4.33923E-03
            4866            5036     4.36088E-03     4.33923E-03
            4867            5036     4.36088E-03     4.33923E-03
            4848            5036     4.36088E-03     4.33923E-03
            4867            5037     4.08606E-03     3.87913E-03
            4868            5037     4.08606E-03     3.87913E-03
            4849            5037     4.08606E-03     3.87913E-03
            4850            5037     4.08606E-03     3.87913E-03
            4869            5038     18.4309E-03     18.6724E-03
            4870            5038     18.4309E-03     18.6724E-03
            4851            5038     18.4309E-03     18.6724E-03
            4852            5038     18.4309E-03     18.6724E-03
            4852            5039     16.9982E-03     17.2947E-03
            4870            5039     16.9982E-03     17.2947E-03
            4871            5039     16.9982E-03     17.2947E-03
            4853            5039     16.9982E-03     17.2947E-03
            4853            5040     15.8351E-03     16.2425E-03
            4871            5040     15.8351E-03     16.2425E-03
            4872            5040     15.8351E-03     16.2425E-03
            4854            5040     15.8351E-03     16.2425E-03
            4873            5041     14.8350E-03     15.2676E-03
            4854            5041     14.8350E-03     15.2676E-03
            4872            5041     14.8350E-03     15.2676E-03
            4855            5041     14.8350E-03     15.2676E-03
            4874            5042     13.8659E-03     14.2850E-03
            4856            5042     13.8659E-03     14.2850E-03
            4855            5042     13.8659E-03     14.2850E-03
            4873            5042     13.8659E-03     14.2850E-03
            4875            5043     12.8872E-03     13.2925E-03
            4874            5043     12.8872E-03     13.2925E-03
            4857            5043     12.8872E-03     13.2925E-03
            4856            5043     12.8872E-03     13.2925E-03
            4857            5044     11.9258E-03     12.3005E-03
            4875            5044     11.9258E-03     12.3005E-03
            4876            5044     11.9258E-03     12.3005E-03
            4858            5044     11.9258E-03     12.3005E-03
            4858            5045     10.9608E-03     11.3114E-03
            4876            5045     10.9608E-03     11.3114E-03
            4877            5045     10.9608E-03     11.3114E-03
            4859            5045     10.9608E-03     11.3114E-03
            4877            5046     10.0137E-03     10.3431E-03
            4859            5046     10.0137E-03     10.3431E-03
            4878            5046     10.0137E-03     10.3431E-03
            4860            5046     10.0137E-03     10.3431E-03
            4878            5047     9.08605E-03     9.39778E-03
            4879            5047     9.08605E-03     9.39778E-03
            4860            5047     9.08605E-03     9.39778E-03
            4861            5047     9.08605E-03     9.39778E-03
            4879            5048     8.18989E-03     8.48521E-03
            4862            5048     8.18989E-03     8.48521E-03
            4861            5048     8.18989E-03     8.48521E-03
            4880            5048     8.18989E-03     8.48521E-03
            4880            5049     7.33489E-03     7.61137E-03
            4881            5049     7.33489E-03     7.61137E-03
            4862            5049     7.33489E-03     7.61137E-03
            4863            5049     7.33489E-03     7.61137E-03
            4882            5050     6.54176E-03     6.78390E-03
            4863            5050     6.54176E-03     6.78390E-03
            4881            5050     6.54176E-03     6.78390E-03
            4864            5050     6.54176E-03     6.78390E-03
            4883            5051     5.83328E-03     6.00908E-03
            4882            5051     5.83328E-03     6.00908E-03
            4865            5051     5.83328E-03     6.00908E-03
            4864            5051     5.83328E-03     6.00908E-03
            4865            5052     5.24100E-03     5.31646E-03
            4884            5052     5.24100E-03     5.31646E-03
            4883            5052     5.24100E-03     5.31646E-03
            4866            5052     5.24100E-03     5.31646E-03
            4885            5053     4.80513E-03     4.72616E-03
            4866            5053     4.80513E-03     4.72616E-03
            4867            5053     4.80513E-03     4.72616E-03
            4884            5053     4.80513E-03     4.72616E-03
            4885            5054     4.54306E-03     4.30895E-03
            4886            5054     4.54306E-03     4.30895E-03
            4867            5054     4.54306E-03     4.30895E-03
            4868            5054     4.54306E-03     4.30895E-03
            4888            5055     16.6514E-03     16.7962E-03
            4870            5055     16.6514E-03     16.7962E-03
            4887            5055     16.6514E-03     16.7962E-03
            4869            5055     16.6514E-03     16.7962E-03
            4889            5056     15.5835E-03     15.8819E-03
            4888            5056     15.5835E-03     15.8819E-03
            4871            5056     15.5835E-03     15.8819E-03
            4870            5056     15.5835E-03     15.8819E-03
            4872            5057     14.9479E-03     15.2847E-03
            4890            5057     14.9479E-03     15.2847E-03
            4889            5057     14.9479E-03     15.2847E-03
            4871            5057     14.9479E-03     15.2847E-03
            4873            5058     14.3615E-03     14.7022E-03
            4890            5058     14.3615E-03     14.7022E-03
            4872            5058     14.3615E-03     14.7022E-03
            4891            5058     14.3615E-03     14.7022E-03
            4892            5059     13.6983E-03     13.9969E-03
            4874            5059     13.6983E-03     13.9969E-03
            4891            5059     13.6983E-03     13.9969E-03
            4873            5059     13.6983E-03     13.9969E-03
            4874            5060     12.9200E-03     13.1651E-03
            4892            5060     12.9200E-03     13.1651E-03
            4893            5060     12.9200E-03     13.1651E-03
            4875            5060     12.9200E-03     13.1651E-03
            4894            5061     12.0487E-03     12.2630E-03
            4875            5061     12.0487E-03     12.2630E-03
            4876            5061     12.0487E-03     12.2630E-03
            4893            5061     12.0487E-03     12.2630E-03
            4876            5062     11.1502E-03     11.3352E-03
            4895            5062     11.1502E-03     11.3352E-03
            4894            5062     11.1502E-03     11.3352E-03
            4877            5062     11.1502E-03     11.3352E-03
            4877            5063     10.2368E-03     10.4047E-03
            4896            5063     10.2368E-03     10.4047E-03
            4878            5063     10.2368E-03     10.4047E-03
            4895            5063     10.2368E-03     10.4047E-03
            4897            5064     9.33888E-03     9.49505E-03
            4896            5064     9.33888E-03     9.49505E-03
            4879            5064     9.33888E-03     9.49505E-03
            4878            5064     9.33888E-03     9.49505E-03
            4879            5065     8.46628E-03     8.61683E-03
            4880            5065     8.46628E-03     8.61683E-03
            4897            5065     8.46628E-03     8.61683E-03
            4898            5065     8.46628E-03     8.61683E-03
            4898            5066     7.63629E-03     7.78359E-03
            4899            5066     7.63629E-03     7.78359E-03
            4880            5066     7.63629E-03     7.78359E-03
            4881            5066     7.63629E-03     7.78359E-03
            4881            5067     6.86481E-03     7.00788E-03
            4882            5067     6.86481E-03     7.00788E-03
            4899            5067     6.86481E-03     7.00788E-03
            4900            5067     6.86481E-03     7.00788E-03
            4882            5068     6.18306E-03     6.29725E-03
            4901            5068     6.18306E-03     6.29725E-03
            4900            5068     6.18306E-03     6.29725E-03
            4883            5068     6.18306E-03     6.29725E-03
            4902            5069     5.61957E-03     5.65916E-03
            4883            5069     5.61957E-03     5.65916E-03
            4901            5069     5.61957E-03     5.65916E-03
            4884            5069     5.61957E-03     5.65916E-03
            4902            5070     5.21037E-03     5.13747E-03
            4903            5070     5.21037E-03     5.13747E-03
            4885            5070     5.21037E-03     5.13747E-03
            4884            5070     5.21037E-03     5.13747E-03
            4904            5071     4.98053E-03     4.74653E-03
            4903            5071     4.98053E-03     4.74653E-03
            4886            5071     4.98053E-03     4.74653E-03
            4885            5071     4.98053E-03     4.74653E-03
            4887            5072     14.7670E-03     14.8802E-03
            4888            5072     14.7670E-03     14.8802E-03
            4905            5072     14.7670E-03     14.8802E-03
            4906            5072     14.7670E-03     14.8802E-03
            4889            5073     14.1521E-03     14.3794E-03
            4907            5073     14.1521E-03     14.3794E-03
            4906            5073     14.1521E-03     14.3794E-03
            4888            5073     14.1521E-03     14.3794E-03
            4908            5074     13.9818E-03     14.2584E-03
            4907            5074     13.9818E-03     14.2584E-03
            4890            5074     13.9818E-03     14.2584E-03
            4889            5074     13.9818E-03     14.2584E-03
            4891            5075     13.8278E-03     14.0289E-03
            4908            5075     13.8278E-03     14.0289E-03
            4890            5075     13.8278E-03     14.0289E-03
            4909            5075     13.8278E-03     14.0289E-03
            4909            5076     13.4262E-03     13.5471E-03
            4892            5076     13.4262E-03     13.5471E-03
            4891            5076     13.4262E-03     13.5471E-03
            4910            5076     13.4262E-03     13.5471E-03
            4910            5077     12.7985E-03     12.8679E-03
            4911            5077     12.7985E-03     12.8679E-03
            4892            5077     12.7985E-03     12.8679E-03
            4893            5077     12.7985E-03     12.8679E-03
            4894            5078     12.0449E-03     12.0745E-03
            4911            5078     12.0449E-03     12.0745E-03
            4893            5078     12.0449E-03     12.0745E-03
            4912            5078     12.0449E-03     12.0745E-03
            4912            5079     11.2132E-03     11.2248E-03
            4895            5079     11.2132E-03     11.2248E-03
            4894            5079     11.2132E-03     11.2248E-03
            4913            5079     11.2132E-03     11.2248E-03
            4913            5080     10.3625E-03     10.3623E-03
            4914            5080     10.3625E-03     10.3623E-03
            4896            5080     10.3625E-03     10.3623E-03
            4895            5080     10.3625E-03     10.3623E-03
            4897            5081     9.51140E-03     9.50959E-03
            4914            5081     9.51140E-03     9.50959E-03
            4915            5081     9.51140E-03     9.50959E-03
            4896            5081     9.51140E-03     9.50959E-03
            4897            5082     8.68466E-03     8.68920E-03
            4915            5082     8.68466E-03     8.68920E-03
            4916            5082     8.68466E-03     8.68920E-03
            4898            5082     8.68466E-03     8.68920E-03
            4917            5083     7.89587E-03     7.91600E-03
            4898            5083     7.89587E-03     7.91600E-03
            4899            5083     7.89587E-03     7.91600E-03
            4916            5083     7.89587E-03     7.91600E-03
            4900            5084     7.16050E-03     7.20716E-03
            4899            5084     7.16050E-03     7.20716E-03
            4918            5084     7.16050E-03     7.20716E-03
            4917            5084     7.16050E-03     7.20716E-03
            4901            5085     6.50272E-03     6.58397E-03
            4919            5085     6.50272E-03     6.58397E-03
            4918            5085     6.50272E-03     6.58397E-03
            4900            5085     6.50272E-03     6.58397E-03
            4919            5086     5.97484E-03     6.03268E-03
            4920            5086     5.97484E-03     6.03268E-03
            4901            5086     5.97484E-03     6.03268E-03
            4902            5086     5.97484E-03     6.03268E-03
            4920            5087     5.59526E-03     5.55229E-03
            4903            5087     5.59526E-03     5.55229E-03
            4921            5087     5.59526E-03     5.55229E-03
            4902            5087     5.59526E-03     5.55229E-03
            4922            5088     5.38575E-03     5.23112E-03
            4921            5088     5.38575E-03     5.23112E-03
            4904            5088     5.38575E-03     5.23112E-03
            4903            5088     5.38575E-03     5.23112E-03
            4905            5089     12.8101E-03     12.8277E-03
            4923            5089     12.8101E-03     12.8277E-03
            4906            5089     12.8101E-03     12.8277E-03
            4924            5089     12.8101E-03     12.8277E-03
            4906            5090     12.6389E-03     12.8272E-03
            4924            5090     12.6389E-03     12.8272E-03
            4907            5090     12.6389E-03     12.8272E-03
            4925            5090     12.6389E-03     12.8272E-03
            4925            5091     13.0894E-03     13.1857E-03
            4907            5091     13.0894E-03     13.1857E-03
            4908            5091     13.0894E-03     13.1857E-03
            4926            5091     13.0894E-03     13.1857E-03
            4908            5092     13.2675E-03     13.2390E-03
            4909            5092     13.2675E-03     13.2390E-03
            4926            5092     13.2675E-03     13.2390E-03
            4927            5092     13.2675E-03     13.2390E-03
            4928            5093     13.0338E-03     12.9292E-03
            4927            5093     13.0338E-03     12.9292E-03
            4910            5093     13.0338E-03     12.9292E-03
            4909            5093     13.0338E-03     12.9292E-03
            4910            5094     12.5454E-03     12.3968E-03
            4929            5094     12.5454E-03     12.3968E-03
            4928            5094     12.5454E-03     12.3968E-03
            4911            5094     12.5454E-03     12.3968E-03
            4912            5095     11.8920E-03     11.7264E-03
            4930            5095     11.8920E-03     11.7264E-03
            4929            5095     11.8920E-03     11.7264E-03
            4911            5095     11.8920E-03     11.7264E-03
            4930            5096     11.1593E-03     10.9860E-03
            4912            5096     11.1593E-03     10.9860E-03
            4913            5096     11.1593E-03     10.9860E-03
            4931            5096     11.1593E-03     10.9860E-03
            4932            5097     10.3868E-03     10.2176E-03
            4914            5097     10.3868E-03     10.2176E-03
            4913            5097     10.3868E-03     10.2176E-03
            4931            5097     10.3868E-03     10.2176E-03
            4914            5098     9.61286E-03     9.45289E-03
            4933            5098     9.61286E-03     9.45289E-03
            4915            5098     9.61286E-03     9.45289E-03
            4932            5098     9.61286E-03     9.45289E-03
            4915            5099     8.85461E-03     8.71230E-03
            4934            5099     8.85461E-03     8.71230E-03
            4916            5099     8.85461E-03     8.71230E-03
            4933            5099     8.85461E-03     8.71230E-03
            4917            5100     8.12829E-03     8.01833E-03
            4934            5100     8.12829E-03     8.01833E-03
            4935            5100     8.12829E-03     8.01833E-03
            4916            5100     8.12829E-03     8.01833E-03
            4918            5101     7.45027E-03     7.38988E-03
            4935            5101     7.45027E-03     7.38988E-03
            4917            5101     7.45027E-03     7.38988E-03
            4936            5101     7.45027E-03     7.38988E-03
            4937            5102     6.82857E-03     6.85262E-03
            4936            5102     6.82857E-03     6.85262E-03
            4918            5102     6.82857E-03     6.85262E-03
            4919            5102     6.82857E-03     6.85262E-03
            4919            5103     6.30145E-03     6.43623E-03
            4937            5103     6.30145E-03     6.43623E-03
            4938            5103     6.30145E-03     6.43623E-03
            4920            5103     6.30145E-03     6.43623E-03
            4921            5104     5.97141E-03     6.05826E-03
            4938            5104     5.97141E-03     6.05826E-03
            4939            5104     5.97141E-03     6.05826E-03
            4920            5104     5.97141E-03     6.05826E-03
            4922            5105     5.80129E-03     5.69010E-03
            4940            5105     5.80129E-03     5.69010E-03
            4921            5105     5.80129E-03     5.69010E-03
            4939            5105     5.80129E-03     5.69010E-03
            4924            5106     10.6899E-03     10.6447E-03
            4941            5106     10.6899E-03     10.6447E-03
            4923            5106     10.6899E-03     10.6447E-03
            4942            5106     10.6899E-03     10.6447E-03
            4925            5107     11.3238E-03     11.2354E-03
            4942            5107     11.3238E-03     11.2354E-03
            4943            5107     11.3238E-03     11.2354E-03
            4924            5107     11.3238E-03     11.2354E-03
            4925            5108     12.3169E-03     12.0433E-03
            4944            5108     12.3169E-03     12.0433E-03
            4943            5108     12.3169E-03     12.0433E-03
            4926            5108     12.3169E-03     12.0433E-03
            4927            5109     12.6196E-03     12.2608E-03
            4926            5109     12.6196E-03     12.2608E-03
            4944            5109     12.6196E-03     12.2608E-03
            4945            5109     12.6196E-03     12.2608E-03
            4946            5110     12.5101E-03     12.1272E-03
            4928            5110     12.5101E-03     12.1272E-03
            4945            5110     12.5101E-03     12.1272E-03
            4927            5110     12.5101E-03     12.1272E-03
            4929            5111     12.1404E-03     11.7561E-03
            4928            5111     12.1404E-03     11.7561E-03
            4947            5111     12.1404E-03     11.7561E-03
            4946            5111     12.1404E-03     11.7561E-03
            4947            5112     11.6134E-03     11.2412E-03
            4930            5112     11.6134E-03     11.2412E-03
            4929            5112     11.6134E-03     11.2412E-03
            4948            5112     11.6134E-03     11.2412E-03
            4949            5113     10.9972E-03     10.6436E-03
            4948            5113     10.9972E-03     10.6436E-03
            4931            5113     10.9972E-03     10.6436E-03
            4930            5113     10.9972E-03     10.6436E-03
            4949            5114     10.3384E-03     10.0044E-03
            4950            5114     10.3384E-03     10.0044E-03
            4931            5114     10.3384E-03     10.0044E-03
            4932            5114     10.3384E-03     10.0044E-03
            4933            5115     9.66482E-03     9.35498E-03
            4932            5115     9.66482E-03     9.35498E-03
            4951            5115     9.66482E-03     9.35498E-03
            4950            5115     9.66482E-03     9.35498E-03
            4951            5116     9.00052E-03     8.71935E-03
            4934            5116     9.00052E-03     8.71935E-03
            4933            5116     9.00052E-03     8.71935E-03
            4952            5116     9.00052E-03     8.71935E-03
            4953            5117     8.36043E-03     8.11772E-03
            4934            5117     8.36043E-03     8.11772E-03
            4935            5117     8.36043E-03     8.11772E-03
            4952            5117     8.36043E-03     8.11772E-03
            4953            5118     7.75570E-03     7.57676E-03
            4954            5118     7.75570E-03     7.57676E-03
            4935            5118     7.75570E-03     7.57676E-03
            4936            5118     7.75570E-03     7.57676E-03
            4937            5119     7.20128E-03     7.11773E-03
            4955            5119     7.20128E-03     7.11773E-03
            4954            5119     7.20128E-03     7.11773E-03
            4936            5119     7.20128E-03     7.11773E-03
            4955            5120     6.68658E-03     6.79405E-03
            4937            5120     6.68658E-03     6.79405E-03
            4938            5120     6.68658E-03     6.79405E-03
            4956            5120     6.68658E-03     6.79405E-03
            4956            5121     6.27789E-03     6.63380E-03
            4957            5121     6.27789E-03     6.63380E-03
            4939            5121     6.27789E-03     6.63380E-03
            4938            5121     6.27789E-03     6.63380E-03
            4957            5122     6.19087E-03     6.41926E-03
            4958            5122     6.19087E-03     6.41926E-03
            4940            5122     6.19087E-03     6.41926E-03
            4939            5122     6.19087E-03     6.41926E-03
            4941            5123     8.92650E-03     8.31440E-03
            4960            5123     8.92650E-03     8.31440E-03
            4959            5123     8.92650E-03     8.31440E-03
            4942            5123     8.92650E-03     8.31440E-03
            4961            5124     10.4663E-03     9.65768E-03
            4943            5124     10.4663E-03     9.65768E-03
            4942            5124     10.4663E-03     9.65768E-03
            4960            5124     10.4663E-03     9.65768E-03
            4944            5125     11.4762E-03     10.6662E-03
            4943            5125     11.4762E-03     10.6662E-03
            4962            5125     11.4762E-03     10.6662E-03
            4961            5125     11.4762E-03     10.6662E-03
            4963            5126     11.8203E-03     11.0804E-03
            4944            5126     11.8203E-03     11.0804E-03
            4962            5126     11.8203E-03     11.0804E-03
            4945            5126     11.8203E-03     11.0804E-03
            4963            5127     11.8373E-03     11.1597E-03
            4964            5127     11.8373E-03     11.1597E-03
            4946            5127     11.8373E-03     11.1597E-03
            4945            5127     11.8373E-03     11.1597E-03
            4964            5128     11.6131E-03     10.9978E-03
            4947            5128     11.6131E-03     10.9978E-03
            4946            5128     11.6131E-03     10.9978E-03
            4965            5128     11.6131E-03     10.9978E-03
            4947            5129     11.2474E-03     10.6840E-03
            4965            5129     11.2474E-03     10.6840E-03
            4948            5129     11.2474E-03     10.6840E-03
            4966            5129     11.2474E-03     10.6840E-03
            4966            5130     10.7835E-03     10.2644E-03
            4948            5130     10.7835E-03     10.2644E-03
            4967            5130     10.7835E-03     10.2644E-03
            4949            5130     10.7835E-03     10.2644E-03
            4967            5131     10.2630E-03     9.78567E-03
            4968            5131     10.2630E-03     9.78567E-03
            4950            5131     10.2630E-03     9.78567E-03
            4949            5131     10.2630E-03     9.78567E-03
            4968            5132     9.71496E-03     9.27436E-03
            4950            5132     9.71496E-03     9.27436E-03
            4969            5132     9.71496E-03     9.27436E-03
            4951            5132     9.71496E-03     9.27436E-03
            4970            5133     9.15983E-03     8.75932E-03
            4952            5133     9.15983E-03     8.75932E-03
            4969            5133     9.15983E-03     8.75932E-03
            4951            5133     9.15983E-03     8.75932E-03
            4971            5134     8.62011E-03     8.26089E-03
            4970            5134     8.62011E-03     8.26089E-03
            4953            5134     8.62011E-03     8.26089E-03
            4952            5134     8.62011E-03     8.26089E-03
            4971            5135     8.10547E-03     7.80236E-03
            4953            5135     8.10547E-03     7.80236E-03
            4972            5135     8.10547E-03     7.80236E-03
            4954            5135     8.10547E-03     7.80236E-03
            4954            5136     7.63392E-03     7.41044E-03
            4973            5136     7.63392E-03     7.41044E-03
            4955            5136     7.63392E-03     7.41044E-03
            4972            5136     7.63392E-03     7.41044E-03
            4956            5137     7.19867E-03     7.11131E-03
            4974            5137     7.19867E-03     7.11131E-03
            4955            5137     7.19867E-03     7.11131E-03
            4973            5137     7.19867E-03     7.11131E-03
            4957            5138     6.77076E-03     7.01490E-03
            4974            5138     6.77076E-03     7.01490E-03
            4956            5138     6.77076E-03     7.01490E-03
            4975            5138     6.77076E-03     7.01490E-03
            4958            5139     6.42729E-03     7.15143E-03
            4975            5139     6.42729E-03     7.15143E-03
            4957            5139     6.42729E-03     7.15143E-03
            4976            5139     6.42729E-03     7.15143E-03
            4978            5140     7.80251E-03     8.12875E-03
            4977            5140     7.80251E-03     8.12875E-03
            4960            5140     7.80251E-03     8.12875E-03
            4959            5140     7.80251E-03     8.12875E-03
            4960            5141     7.43780E-03     7.44152E-03
            4978            5141     7.43780E-03     7.44152E-03
            4979            5141     7.43780E-03     7.44152E-03
            4961            5141     7.43780E-03     7.44152E-03
            4962            5142     7.64937E-03     7.64582E-03
            4961            5142     7.64937E-03     7.64582E-03
            4979            5142     7.64937E-03     7.64582E-03
            4980            5142     7.64937E-03     7.64582E-03
            4963            5143     7.80992E-03     7.83971E-03
            4980            5143     7.80992E-03     7.83971E-03
            4981            5143     7.80992E-03     7.83971E-03
            4962            5143     7.80992E-03     7.83971E-03
            4963            5144     7.80321E-03     7.86610E-03
            4964            5144     7.80321E-03     7.86610E-03
            4982            5144     7.80321E-03     7.86610E-03
            4981            5144     7.80321E-03     7.86610E-03
            4983            5145     7.68615E-03     7.77515E-03
            4964            5145     7.68615E-03     7.77515E-03
            4982            5145     7.68615E-03     7.77515E-03
            4965            5145     7.68615E-03     7.77515E-03
            4984            5146     7.48319E-03     7.58770E-03
            4966            5146     7.48319E-03     7.58770E-03
            4965            5146     7.48319E-03     7.58770E-03
            4983            5146     7.48319E-03     7.58770E-03
            4984            5147     7.23842E-03     7.34863E-03
            4967            5147     7.23842E-03     7.34863E-03
            4985            5147     7.23842E-03     7.34863E-03
            4966            5147     7.23842E-03     7.34863E-03
            4986            5148     6.96378E-03     7.07115E-03
            4968            5148     6.96378E-03     7.07115E-03
            4967            5148     6.96378E-03     7.07115E-03
            4985            5148     6.96378E-03     7.07115E-03
            4969            5149     6.68065E-03     6.77976E-03
            4986            5149     6.68065E-03     6.77976E-03
            4987            5149     6.68065E-03     6.77976E-03
            4968            5149     6.68065E-03     6.77976E-03
            4988            5150     6.39731E-03     6.48317E-03
            4987            5150     6.39731E-03     6.48317E-03
            4969            5150     6.39731E-03     6.48317E-03
            4970            5150     6.39731E-03     6.48317E-03
            4971            5151     6.12664E-03     6.19782E-03
            4988            5151     6.12664E-03     6.19782E-03
            4989            5151     6.12664E-03     6.19782E-03
            4970            5151     6.12664E-03     6.19782E-03
            4989            5152     5.87399E-03     5.92789E-03
            4971            5152     5.87399E-03     5.92789E-03
            4990            5152     5.87399E-03     5.92789E-03
            4972            5152     5.87399E-03     5.92789E-03
            4991            5153     5.65481E-03     5.69693E-03
            4973            5153     5.65481E-03     5.69693E-03
            4972            5153     5.65481E-03     5.69693E-03
            4990            5153     5.65481E-03     5.69693E-03
            4974            5154     5.45394E-03     5.47968E-03
            4991            5154     5.45394E-03     5.47968E-03
            4973            5154     5.45394E-03     5.47968E-03
            4992            5154     5.45394E-03     5.47968E-03
            4975            5155     5.26967E-03     5.39683E-03
            4992            5155     5.26967E-03     5.39683E-03
            4974            5155     5.26967E-03     5.39683E-03
            4993            5155     5.26967E-03     5.39683E-03
            4975            5156     4.89347E-03     5.50289E-03
            4976            5156     4.89347E-03     5.50289E-03
            4994            5156     4.89347E-03     5.50289E-03
            4993            5156     4.89347E-03     5.50289E-03
            4996            5157     7.10877E-03     7.89051E-03
            4977            5157     7.10877E-03     7.89051E-03
            4995            5157     7.10877E-03     7.89051E-03
            4978            5157     7.10877E-03     7.89051E-03
            4997            5158     5.02270E-03     5.90182E-03
            4978            5158     5.02270E-03     5.90182E-03
            4996            5158     5.02270E-03     5.90182E-03
            4979            5158     5.02270E-03     5.90182E-03
            4997            5159     4.53437E-03     5.37681E-03
            4998            5159     4.53437E-03     5.37681E-03
            4979            5159     4.53437E-03     5.37681E-03
            4980            5159     4.53437E-03     5.37681E-03
            4998            5160     4.47831E-03     5.22720E-03
            4999            5160     4.47831E-03     5.22720E-03
            4980            5160     4.47831E-03     5.22720E-03
            4981            5160     4.47831E-03     5.22720E-03
            5000            5161     4.33235E-03     5.04704E-03
            4981            5161     4.33235E-03     5.04704E-03
            4982            5161     4.33235E-03     5.04704E-03
            4999            5161     4.33235E-03     5.04704E-03
            4983            5162     4.20023E-03     4.88586E-03
            5001            5162     4.20023E-03     4.88586E-03
            5000            5162     4.20023E-03     4.88586E-03
            4982            5162     4.20023E-03     4.88586E-03
            5002            5163     4.06514E-03     4.71716E-03
            4983            5163     4.06514E-03     4.71716E-03
            5001            5163     4.06514E-03     4.71716E-03
            4984            5163     4.06514E-03     4.71716E-03
            4984            5164     3.94156E-03     4.55954E-03
            5003            5164     3.94156E-03     4.55954E-03
            5002            5164     3.94156E-03     4.55954E-03
            4985            5164     3.94156E-03     4.55954E-03
            5004            5165     3.83501E-03     4.40756E-03
            4985            5165     3.83501E-03     4.40756E-03
            5003            5165     3.83501E-03     4.40756E-03
            4986            5165     3.83501E-03     4.40756E-03
            4986            5166     3.74167E-03     4.26904E-03
            4987            5166     3.74167E-03     4.26904E-03
            5005            5166     3.74167E-03     4.26904E-03
            5004            5166     3.74167E-03     4.26904E-03
            4988            5167     3.66530E-03     4.13817E-03
            4987            5167     3.66530E-03     4.13817E-03
            5006            5167     3.66530E-03     4.13817E-03
            5005            5167     3.66530E-03     4.13817E-03
            4988            5168     3.60358E-03     4.02152E-03
            5006            5168     3.60358E-03     4.02152E-03
            4989            5168     3.60358E-03     4.02152E-03
            5007            5168     3.60358E-03     4.02152E-03
            4989            5169     3.55701E-03     3.91241E-03
            5008            5169     3.55701E-03     3.91241E-03
            4990            5169     3.55701E-03     3.91241E-03
            5007            5169     3.55701E-03     3.91241E-03
            4991            5170     3.53084E-03     3.82150E-03
            5008            5170     3.53084E-03     3.82150E-03
            5009            5170     3.53084E-03     3.82150E-03
            4990            5170     3.53084E-03     3.82150E-03
            5010            5171     3.52012E-03     3.72689E-03
            5009            5171     3.52012E-03     3.72689E-03
            4991            5171     3.52012E-03     3.72689E-03
            4992            5171     3.52012E-03     3.72689E-03
            4992            5172     3.50060E-03     3.66508E-03
            5011            5172     3.50060E-03     3.66508E-03
            4993            5172     3.50060E-03     3.66508E-03
            5010            5172     3.50060E-03     3.66508E-03
            4994            5173     3.49060E-03     3.67517E-03
            4993            5173     3.49060E-03     3.67517E-03
            5012            5173     3.49060E-03     3.67517E-03
            5011            5173     3.49060E-03     3.67517E-03
            4995            5174     5.65338E-03     5.61638E-03
            5013            5174     5.65338E-03     5.61638E-03
            4996            5174     5.65338E-03     5.61638E-03
            5014            5174     5.65338E-03     5.61638E-03
            5015            5175     5.09853E-03     5.41866E-03
            4996            5175     5.09853E-03     5.41866E-03
            4997            5175     5.09853E-03     5.41866E-03
            5014            5175     5.09853E-03     5.41866E-03
            4997            5176     5.06859E-03     5.35860E-03
            5015            5176     5.06859E-03     5.35860E-03
            5016            5176     5.06859E-03     5.35860E-03
            4998            5176     5.06859E-03     5.35860E-03
            4999            5177     4.89598E-03     5.16811E-03
            4998            5177     4.89598E-03     5.16811E-03
            5016            5177     4.89598E-03     5.16811E-03
            5017            5177     4.89598E-03     5.16811E-03
            5017            5178     4.69413E-03     4.95538E-03
            4999            5178     4.69413E-03     4.95538E-03
            5018            5178     4.69413E-03     4.95538E-03
            5000            5178     4.69413E-03     4.95538E-03
            5000            5179     4.50905E-03     4.76052E-03
            5018            5179     4.50905E-03     4.76052E-03
            5001            5179     4.50905E-03     4.76052E-03
            5019            5179     4.50905E-03     4.76052E-03
            5020            5180     4.35547E-03     4.59570E-03
            5001            5180     4.35547E-03     4.59570E-03
            5019            5180     4.35547E-03     4.59570E-03
            5002            5180     4.35547E-03     4.59570E-03
            5003            5181     4.22233E-03     4.44720E-03
            5021            5181     4.22233E-03     4.44720E-03
            5002            5181     4.22233E-03     4.44720E-03
            5020            5181     4.22233E-03     4.44720E-03
            5004            5182     4.10559E-03     4.31609E-03
            5003            5182     4.10559E-03     4.31609E-03
            5022            5182     4.10559E-03     4.31609E-03
            5021            5182     4.10559E-03     4.31609E-03
            5022            5183     4.00294E-03     4.19462E-03
            5005            5183     4.00294E-03     4.19462E-03
            5004            5183     4.00294E-03     4.19462E-03
            5023            5183     4.00294E-03     4.19462E-03
            5005            5184     3.91297E-03     4.08643E-03
            5023            5184     3.91297E-03     4.08643E-03
            5006            5184     3.91297E-03     4.08643E-03
            5024            5184     3.91297E-03     4.08643E-03
            5006            5185     3.83586E-03     3.98755E-03
            5025            5185     3.83586E-03     3.98755E-03
            5007            5185     3.83586E-03     3.98755E-03
            5024            5185     3.83586E-03     3.98755E-03
            5007            5186     3.77496E-03     3.90375E-03
            5025            5186     3.77496E-03     3.90375E-03
            5008            5186     3.77496E-03     3.90375E-03
            5026            5186     3.77496E-03     3.90375E-03
            5027            5187     3.72514E-03     3.83340E-03
            5008            5187     3.72514E-03     3.83340E-03
            5026            5187     3.72514E-03     3.83340E-03
            5009            5187     3.72514E-03     3.83340E-03
            5010            5188     3.69454E-03     3.79704E-03
            5009            5188     3.69454E-03     3.79704E-03
            5028            5188     3.69454E-03     3.79704E-03
            5027            5188     3.69454E-03     3.79704E-03
            5011            5189     3.74677E-03     3.72493E-03
            5028            5189     3.74677E-03     3.72493E-03
            5010            5189     3.74677E-03     3.72493E-03
            5029            5189     3.74677E-03     3.72493E-03
            5030            5190     3.88403E-03     3.52517E-03
            5029            5190     3.88403E-03     3.52517E-03
            5011            5190     3.88403E-03     3.52517E-03
            5012            5190     3.88403E-03     3.52517E-03
            5013            5191     3.72058E-03     3.72135E-03
            5032            5191     3.72058E-03     3.72135E-03
            5031            5191     3.72058E-03     3.72135E-03
            5014            5191     3.72058E-03     3.72135E-03
            5014            5192     4.62444E-03     4.53362E-03
            5032            5192     4.62444E-03     4.53362E-03
            5033            5192     4.62444E-03     4.53362E-03
            5015            5192     4.62444E-03     4.53362E-03
            5015            5193     5.33175E-03     5.09350E-03
            5016            5193     5.33175E-03     5.09350E-03
            5034            5193     5.33175E-03     5.09350E-03
            5033            5193     5.33175E-03     5.09350E-03
            5016            5194     5.16210E-03     4.95937E-03
            5035            5194     5.16210E-03     4.95937E-03
            5034            5194     5.16210E-03     4.95937E-03
            5017            5194     5.16210E-03     4.95937E-03
            5017            5195     4.97800E-03     4.79382E-03
            5035            5195     4.97800E-03     4.79382E-03
            5018            5195     4.97800E-03     4.79382E-03
            5036            5195     4.97800E-03     4.79382E-03
            5036            5196     4.79366E-03     4.61810E-03
            5019            5196     4.79366E-03     4.61810E-03
            5037            5196     4.79366E-03     4.61810E-03
            5018            5196     4.79366E-03     4.61810E-03
            5037            5197     4.64033E-03     4.47518E-03
            5038            5197     4.64033E-03     4.47518E-03
            5020            5197     4.64033E-03     4.47518E-03
            5019            5197     4.64033E-03     4.47518E-03
            5039            5198     4.50771E-03     4.35448E-03
            5038            5198     4.50771E-03     4.35448E-03
            5020            5198     4.50771E-03     4.35448E-03
            5021            5198     4.50771E-03     4.35448E-03
            5021            5199     4.38755E-03     4.24657E-03
            5040            5199     4.38755E-03     4.24657E-03
            5039            5199     4.38755E-03     4.24657E-03
            5022            5199     4.38755E-03     4.24657E-03
            5022            5200     4.27881E-03     4.15071E-03
            5041            5200     4.27881E-03     4.15071E-03
            5040            5200     4.27881E-03     4.15071E-03
            5023            5200     4.27881E-03     4.15071E-03
            5023            5201     4.17925E-03     4.06503E-03
            5041            5201     4.17925E-03     4.06503E-03
            5042            5201     4.17925E-03     4.06503E-03
            5024            5201     4.17925E-03     4.06503E-03
            5025            5202     4.09057E-03     3.98990E-03
            5042            5202     4.09057E-03     3.98990E-03
            5024            5202     4.09057E-03     3.98990E-03
            5043            5202     4.09057E-03     3.98990E-03
            5025            5203     4.01350E-03     3.92854E-03
            5044            5203     4.01350E-03     3.92854E-03
            5026            5203     4.01350E-03     3.92854E-03
            5043            5203     4.01350E-03     3.92854E-03
            5045            5204     3.94793E-03     3.88144E-03
            5027            5204     3.94793E-03     3.88144E-03
            5026            5204     3.94793E-03     3.88144E-03
            5044            5204     3.94793E-03     3.88144E-03
            5027            5205     3.89462E-03     3.86686E-03
            5028            5205     3.89462E-03     3.86686E-03
            5046            5205     3.89462E-03     3.86686E-03
            5045            5205     3.89462E-03     3.86686E-03
            5028            5206     3.91234E-03     3.83520E-03
            5046            5206     3.91234E-03     3.83520E-03
            5047            5206     3.91234E-03     3.83520E-03
            5029            5206     3.91234E-03     3.83520E-03
            5048            5207     4.03022E-03     3.68501E-03
            5047            5207     4.03022E-03     3.68501E-03
            5029            5207     4.03022E-03     3.68501E-03
            5030            5207     4.03022E-03     3.68501E-03
            5049            5208     2.91364E-03     2.96372E-03
            5031            5208     2.91364E-03     2.96372E-03
            5050            5208     2.91364E-03     2.96372E-03
            5032            5208     2.91364E-03     2.96372E-03
            5050            5209     4.15667E-03     3.42353E-03
            5051            5209     4.15667E-03     3.42353E-03
            5032            5209     4.15667E-03     3.42353E-03
            5033            5209     4.15667E-03     3.42353E-03
            5034            5210     5.02757E-03     4.31043E-03
            5051            5210     5.02757E-03     4.31043E-03
            5052            5210     5.02757E-03     4.31043E-03
            5033            5210     5.02757E-03     4.31043E-03
            5052            5211     5.23282E-03     4.55078E-03
            5034            5211     5.23282E-03     4.55078E-03
            5053            5211     5.23282E-03     4.55078E-03
            5035            5211     5.23282E-03     4.55078E-03
            5053            5212     5.16200E-03     4.53292E-03
            5035            5212     5.16200E-03     4.53292E-03
            5036            5212     5.16200E-03     4.53292E-03
            5054            5212     5.16200E-03     4.53292E-03
            5037            5213     5.05158E-03     4.45781E-03
            5054            5213     5.05158E-03     4.45781E-03
            5055            5213     5.05158E-03     4.45781E-03
            5036            5213     5.05158E-03     4.45781E-03
            5055            5214     4.92463E-03     4.37215E-03
            5037            5214     4.92463E-03     4.37215E-03
            5056            5214     4.92463E-03     4.37215E-03
            5038            5214     4.92463E-03     4.37215E-03
            5039            5215     4.80100E-03     4.28830E-03
            5038            5215     4.80100E-03     4.28830E-03
            5057            5215     4.80100E-03     4.28830E-03
            5056            5215     4.80100E-03     4.28830E-03
            5057            5216     4.68288E-03     4.21040E-03
            5058            5216     4.68288E-03     4.21040E-03
            5040            5216     4.68288E-03     4.21040E-03
            5039            5216     4.68288E-03     4.21040E-03
            5040            5217     4.56915E-03     4.14120E-03
            5059            5217     4.56915E-03     4.14120E-03
            5041            5217     4.56915E-03     4.14120E-03
            5058            5217     4.56915E-03     4.14120E-03
            5059            5218     4.46267E-03     4.07947E-03
            5060            5218     4.46267E-03     4.07947E-03
            5041            5218     4.46267E-03     4.07947E-03
            5042            5218     4.46267E-03     4.07947E-03
            5060            5219     4.36354E-03     4.02999E-03
            5042            5219     4.36354E-03     4.02999E-03
            5061            5219     4.36354E-03     4.02999E-03
            5043            5219     4.36354E-03     4.02999E-03
            5043            5220     4.27146E-03     3.98813E-03
            5061            5220     4.27146E-03     3.98813E-03
            5062            5220     4.27146E-03     3.98813E-03
            5044            5220     4.27146E-03     3.98813E-03
            5044            5221     4.19272E-03     3.96499E-03
            5045            5221     4.19272E-03     3.96499E-03
            5063            5221     4.19272E-03     3.96499E-03
            5062            5221     4.19272E-03     3.96499E-03
            5045            5222     4.11997E-03     3.94029E-03
            5063            5222     4.11997E-03     3.94029E-03
            5064            5222     4.11997E-03     3.94029E-03
            5046            5222     4.11997E-03     3.94029E-03
            5047            5223     4.02411E-03     3.96851E-03
            5065            5223     4.02411E-03     3.96851E-03
            5064            5223     4.02411E-03     3.96851E-03
            5046            5223     4.02411E-03     3.96851E-03
            5066            5224     3.93422E-03     4.09070E-03
            5065            5224     3.93422E-03     4.09070E-03
            5047            5224     3.93422E-03     4.09070E-03
            5048            5224     3.93422E-03     4.09070E-03
            5175            5310     69.6843E-03     71.0007E-03
            5194            5310     69.6843E-03     71.0007E-03
            5176            5310     69.6843E-03     71.0007E-03
            5193            5310     69.6843E-03     71.0007E-03
            5194            5311     62.3972E-03     64.2987E-03
            5176            5311     62.3972E-03     64.2987E-03
            5177            5311     62.3972E-03     64.2987E-03
            5195            5311     62.3972E-03     64.2987E-03
            5177            5312     57.4858E-03     59.4385E-03
            5196            5312     57.4858E-03     59.4385E-03
            5178            5312     57.4858E-03     59.4385E-03
            5195            5312     57.4858E-03     59.4385E-03
            5197            5313     53.5247E-03     55.4911E-03
            5179            5313     53.5247E-03     55.4911E-03
            5196            5313     53.5247E-03     55.4911E-03
            5178            5313     53.5247E-03     55.4911E-03
            5198            5314     49.6264E-03     51.6572E-03
            5180            5314     49.6264E-03     51.6572E-03
            5197            5314     49.6264E-03     51.6572E-03
            5179            5314     49.6264E-03     51.6572E-03
            5181            5315     45.8344E-03     47.8919E-03
            5199            5315     45.8344E-03     47.8919E-03
            5180            5315     45.8344E-03     47.8919E-03
            5198            5315     45.8344E-03     47.8919E-03
            5182            5316     42.0070E-03     44.0770E-03
            5199            5316     42.0070E-03     44.0770E-03
            5181            5316     42.0070E-03     44.0770E-03
            5200            5316     42.0070E-03     44.0770E-03
            5182            5317     38.1662E-03     40.2450E-03
            5183            5317     38.1662E-03     40.2450E-03
            5200            5317     38.1662E-03     40.2450E-03
            5201            5317     38.1662E-03     40.2450E-03
            5201            5318     34.2976E-03     36.3759E-03
            5183            5318     34.2976E-03     36.3759E-03
            5184            5318     34.2976E-03     36.3759E-03
            5202            5318     34.2976E-03     36.3759E-03
            5203            5319     30.4114E-03     32.4940E-03
            5202            5319     30.4114E-03     32.4940E-03
            5184            5319     30.4114E-03     32.4940E-03
            5185            5319     30.4114E-03     32.4940E-03
            5185            5320     26.5094E-03     28.5942E-03
            5204            5320     26.5094E-03     28.5942E-03
            5203            5320     26.5094E-03     28.5942E-03
            5186            5320     26.5094E-03     28.5942E-03
            5204            5321     22.6007E-03     24.6906E-03
            5187            5321     22.6007E-03     24.6906E-03
            5205            5321     22.6007E-03     24.6906E-03
            5186            5321     22.6007E-03     24.6906E-03
            5187            5322     18.6867E-03     20.7764E-03
            5188            5322     18.6867E-03     20.7764E-03
            5205            5322     18.6867E-03     20.7764E-03
            5206            5322     18.6867E-03     20.7764E-03
            5189            5323     14.7825E-03     16.8654E-03
            5188            5323     14.7825E-03     16.8654E-03
            5206            5323     14.7825E-03     16.8654E-03
            5207            5323     14.7825E-03     16.8654E-03
            5189            5324     10.9204E-03     12.9126E-03
            5208            5324     10.9204E-03     12.9126E-03
            5190            5324     10.9204E-03     12.9126E-03
            5207            5324     10.9204E-03     12.9126E-03
            5191            5325     7.13333E-03     8.93206E-03
            5208            5325     7.13333E-03     8.93206E-03
            5190            5325     7.13333E-03     8.93206E-03
            5209            5325     7.13333E-03     8.93206E-03
            5192            5326     3.47055E-03     5.12006E-03
            5210            5326     3.47055E-03     5.12006E-03
            5209            5326     3.47055E-03     5.12006E-03
            5191            5326     3.47055E-03     5.12006E-03
            5194            5327     70.0038E-03     70.4877E-03
            5193            5327     70.0038E-03     70.4877E-03
            5211            5327     70.0038E-03     70.4877E-03
            5212            5327     70.0038E-03     70.4877E-03
            5194            5328     64.5603E-03     66.0426E-03
            5195            5328     64.5603E-03     66.0426E-03
            5213            5328     64.5603E-03     66.0426E-03
            5212            5328     64.5603E-03     66.0426E-03
            5196            5329     59.1548E-03     60.8980E-03
            5213            5329     59.1548E-03     60.8980E-03
            5214            5329     59.1548E-03     60.8980E-03
            5195            5329     59.1548E-03     60.8980E-03
            5196            5330     54.8500E-03     56.5020E-03
            5197            5330     54.8500E-03     56.5020E-03
            5214            5330     54.8500E-03     56.5020E-03
            5215            5330     54.8500E-03     56.5020E-03
            5198            5331     50.7338E-03     52.3182E-03
            5216            5331     50.7338E-03     52.3182E-03
            5215            5331     50.7338E-03     52.3182E-03
            5197            5331     50.7338E-03     52.3182E-03
            5199            5332     46.7237E-03     48.2763E-03
            5216            5332     46.7237E-03     48.2763E-03
            5217            5332     46.7237E-03     48.2763E-03
            5198            5332     46.7237E-03     48.2763E-03
            5217            5333     42.7430E-03     44.2831E-03
            5218            5333     42.7430E-03     44.2831E-03
            5200            5333     42.7430E-03     44.2831E-03
            5199            5333     42.7430E-03     44.2831E-03
            5200            5334     38.7754E-03     40.3128E-03
            5219            5334     38.7754E-03     40.3128E-03
            5218            5334     38.7754E-03     40.3128E-03
            5201            5334     38.7754E-03     40.3128E-03
            5201            5335     34.8180E-03     36.3574E-03
            5202            5335     34.8180E-03     36.3574E-03
            5219            5335     34.8180E-03     36.3574E-03
            5220            5335     34.8180E-03     36.3574E-03
            5203            5336     30.8679E-03     32.4055E-03
            5220            5336     30.8679E-03     32.4055E-03
            5221            5336     30.8679E-03     32.4055E-03
            5202            5336     30.8679E-03     32.4055E-03
            5221            5337     26.9246E-03     28.4600E-03
            5203            5337     26.9246E-03     28.4600E-03
            5204            5337     26.9246E-03     28.4600E-03
            5222            5337     26.9246E-03     28.4600E-03
            5204            5338     22.9901E-03     24.5174E-03
            5205            5338     22.9901E-03     24.5174E-03
            5222            5338     22.9901E-03     24.5174E-03
            5223            5338     22.9901E-03     24.5174E-03
            5205            5339     19.0629E-03     20.5781E-03
            5206            5339     19.0629E-03     20.5781E-03
            5223            5339     19.0629E-03     20.5781E-03
            5224            5339     19.0629E-03     20.5781E-03
            5224            5340     15.1432E-03     16.6568E-03
            5225            5340     15.1432E-03     16.6568E-03
            5206            5340     15.1432E-03     16.6568E-03
            5207            5340     15.1432E-03     16.6568E-03
            5207            5341     11.2455E-03     12.7675E-03
            5226            5341     11.2455E-03     12.7675E-03
            5208            5341     11.2455E-03     12.7675E-03
            5225            5341     11.2455E-03     12.7675E-03
            5209            5342     7.42486E-03     8.86627E-03
            5227            5342     7.42486E-03     8.86627E-03
            5226            5342     7.42486E-03     8.86627E-03
            5208            5342     7.42486E-03     8.86627E-03
            5227            5343     3.81524E-03     5.29666E-03
            5209            5343     3.81524E-03     5.29666E-03
            5210            5343     3.81524E-03     5.29666E-03
            5228            5343     3.81524E-03     5.29666E-03
            5211            5344     67.8590E-03     69.4126E-03
            5212            5344     67.8590E-03     69.4126E-03
            5229            5344     67.8590E-03     69.4126E-03
            5230            5344     67.8590E-03     69.4126E-03
            5230            5345     64.5369E-03     65.7328E-03
            5213            5345     64.5369E-03     65.7328E-03
            5212            5345     64.5369E-03     65.7328E-03
            5231            5345     64.5369E-03     65.7328E-03
            5231            5346     60.0542E-03     61.2647E-03
            5214            5346     60.0542E-03     61.2647E-03
            5213            5346     60.0542E-03     61.2647E-03
            5232            5346     60.0542E-03     61.2647E-03
            5215            5347     55.5026E-03     56.7231E-03
            5233            5347     55.5026E-03     56.7231E-03
            5232            5347     55.5026E-03     56.7231E-03
            5214            5347     55.5026E-03     56.7231E-03
            5234            5348     51.3942E-03     52.4752E-03
            5215            5348     51.3942E-03     52.4752E-03
            5216            5348     51.3942E-03     52.4752E-03
            5233            5348     51.3942E-03     52.4752E-03
            5234            5349     47.2926E-03     48.3259E-03
            5235            5349     47.2926E-03     48.3259E-03
            5217            5349     47.2926E-03     48.3259E-03
            5216            5349     47.2926E-03     48.3259E-03
            5235            5350     43.2732E-03     44.2807E-03
            5236            5350     43.2732E-03     44.2807E-03
            5218            5350     43.2732E-03     44.2807E-03
            5217            5350     43.2732E-03     44.2807E-03
            5218            5351     39.2767E-03     40.2791E-03
            5237            5351     39.2767E-03     40.2791E-03
            5236            5351     39.2767E-03     40.2791E-03
            5219            5351     39.2767E-03     40.2791E-03
            5220            5352     35.3117E-03     36.3094E-03
            5219            5352     35.3117E-03     36.3094E-03
            5237            5352     35.3117E-03     36.3094E-03
            5238            5352     35.3117E-03     36.3094E-03
            5238            5353     31.3652E-03     32.3616E-03
            5239            5353     31.3652E-03     32.3616E-03
            5220            5353     31.3652E-03     32.3616E-03
            5221            5353     31.3652E-03     32.3616E-03
            5239            5354     27.4420E-03     28.4281E-03
            5240            5354     27.4420E-03     28.4281E-03
            5221            5354     27.4420E-03     28.4281E-03
            5222            5354     27.4420E-03     28.4281E-03
            5240            5355     23.5360E-03     24.5096E-03
            5241            5355     23.5360E-03     24.5096E-03
            5223            5355     23.5360E-03     24.5096E-03
            5222            5355     23.5360E-03     24.5096E-03
            5241            5356     19.6587E-03     20.6163E-03
            5224            5356     19.6587E-03     20.6163E-03
            5223            5356     19.6587E-03     20.6163E-03
            5242            5356     19.6587E-03     20.6163E-03
            5225            5357     15.8081E-03     16.7576E-03
            5224            5357     15.8081E-03     16.7576E-03
            5242            5357     15.8081E-03     16.7576E-03
            5243            5357     15.8081E-03     16.7576E-03
            5244            5358     11.9849E-03     13.0322E-03
            5225            5358     11.9849E-03     13.0322E-03
            5243            5358     11.9849E-03     13.0322E-03
            5226            5358     11.9849E-03     13.0322E-03
            5226            5359     8.33636E-03     9.54446E-03
            5245            5359     8.33636E-03     9.54446E-03
            5227            5359     8.33636E-03     9.54446E-03
            5244            5359     8.33636E-03     9.54446E-03
            5246            5360     5.42541E-03     6.15702E-03
            5245            5360     5.42541E-03     6.15702E-03
            5227            5360     5.42541E-03     6.15702E-03
            5228            5360     5.42541E-03     6.15702E-03
            5248            5361     65.7543E-03     66.1663E-03
            5230            5361     65.7543E-03     66.1663E-03
            5247            5361     65.7543E-03     66.1663E-03
            5229            5361     65.7543E-03     66.1663E-03
            5248            5362     62.9557E-03     63.8274E-03
            5249            5362     62.9557E-03     63.8274E-03
            5230            5362     62.9557E-03     63.8274E-03
            5231            5362     62.9557E-03     63.8274E-03
            5232            5363     59.3610E-03     60.0377E-03
            5250            5363     59.3610E-03     60.0377E-03
            5231            5363     59.3610E-03     60.0377E-03
            5249            5363     59.3610E-03     60.0377E-03
            5250            5364     55.4445E-03     55.9898E-03
            5232            5364     55.4445E-03     55.9898E-03
            5251            5364     55.4445E-03     55.9898E-03
            5233            5364     55.4445E-03     55.9898E-03
            5251            5365     51.4191E-03     51.9353E-03
            5233            5365     51.4191E-03     51.9353E-03
            5252            5365     51.4191E-03     51.9353E-03
            5234            5365     51.4191E-03     51.9353E-03
            5252            5366     47.4835E-03     47.9593E-03
            5253            5366     47.4835E-03     47.9593E-03
            5235            5366     47.4835E-03     47.9593E-03
            5234            5366     47.4835E-03     47.9593E-03
            5254            5367     43.5438E-03     44.0171E-03
            5235            5367     43.5438E-03     44.0171E-03
            5253            5367     43.5438E-03     44.0171E-03
            5236            5367     43.5438E-03     44.0171E-03
            5255            5368     39.6438E-03     40.1085E-03
            5236            5368     39.6438E-03     40.1085E-03
            5254            5368     39.6438E-03     40.1085E-03
            5237            5368     39.6438E-03     40.1085E-03
            5256            5369     35.7539E-03     36.2213E-03
            5255            5369     35.7539E-03     36.2213E-03
            5238            5369     35.7539E-03     36.2213E-03
            5237            5369     35.7539E-03     36.2213E-03
            5239            5370     31.8881E-03     32.3491E-03
            5257            5370     31.8881E-03     32.3491E-03
            5238            5370     31.8881E-03     32.3491E-03
            5256            5370     31.8881E-03     32.3491E-03
            5239            5371     28.0393E-03     28.4961E-03
            5257            5371     28.0393E-03     28.4961E-03
            5240            5371     28.0393E-03     28.4961E-03
            5258            5371     28.0393E-03     28.4961E-03
            5240            5372     24.2243E-03     24.6661E-03
            5258            5372     24.2243E-03     24.6661E-03
            5241            5372     24.2243E-03     24.6661E-03
            5259            5372     24.2243E-03     24.6661E-03
            5242            5373     20.4475E-03     20.8773E-03
            5260            5373     20.4475E-03     20.8773E-03
            5241            5373     20.4475E-03     20.8773E-03
            5259            5373     20.4475E-03     20.8773E-03
            5261            5374     16.7395E-03     17.1669E-03
            5242            5374     16.7395E-03     17.1669E-03
            5243            5374     16.7395E-03     17.1669E-03
            5260            5374     16.7395E-03     17.1669E-03
            5244            5375     13.1210E-03     13.6335E-03
            5261            5375     13.1210E-03     13.6335E-03
            5243            5375     13.1210E-03     13.6335E-03
            5262            5375     13.1210E-03     13.6335E-03
            5262            5376     9.71515E-03     10.5734E-03
            5245            5376     9.71515E-03     10.5734E-03
            5244            5376     9.71515E-03     10.5734E-03
            5263            5376     9.71515E-03     10.5734E-03
            5263            5377     7.28598E-03     8.07805E-03
            5245            5377     7.28598E-03     8.07805E-03
            5264            5377     7.28598E-03     8.07805E-03
            5246            5377     7.28598E-03     8.07805E-03
            5266            5378     62.4960E-03     62.1393E-03
            5248            5378     62.4960E-03     62.1393E-03
            5265            5378     62.4960E-03     62.1393E-03
            5247            5378     62.4960E-03     62.1393E-03
            5266            5379     60.4606E-03     60.2628E-03
            5248            5379     60.4606E-03     60.2628E-03
            5267            5379     60.4606E-03     60.2628E-03
            5249            5379     60.4606E-03     60.2628E-03
            5267            5380     57.6602E-03     57.4912E-03
            5250            5380     57.6602E-03     57.4912E-03
            5268            5380     57.6602E-03     57.4912E-03
            5249            5380     57.6602E-03     57.4912E-03
            5268            5381     54.4691E-03     54.2994E-03
            5250            5381     54.4691E-03     54.2994E-03
            5251            5381     54.4691E-03     54.2994E-03
            5269            5381     54.4691E-03     54.2994E-03
            5252            5382     50.9322E-03     50.8147E-03
            5269            5382     50.9322E-03     50.8147E-03
            5251            5382     50.9322E-03     50.8147E-03
            5270            5382     50.9322E-03     50.8147E-03
            5270            5383     47.2991E-03     47.2258E-03
            5253            5383     47.2991E-03     47.2258E-03
            5252            5383     47.2991E-03     47.2258E-03
            5271            5383     47.2991E-03     47.2258E-03
            5253            5384     43.6251E-03     43.5547E-03
            5271            5384     43.6251E-03     43.5547E-03
            5254            5384     43.6251E-03     43.5547E-03
            5272            5384     43.6251E-03     43.5547E-03
            5272            5385     39.9098E-03     39.8540E-03
            5254            5385     39.9098E-03     39.8540E-03
            5273            5385     39.9098E-03     39.8540E-03
            5255            5385     39.9098E-03     39.8540E-03
            5273            5386     36.1884E-03     36.1288E-03
            5274            5386     36.1884E-03     36.1288E-03
            5256            5386     36.1884E-03     36.1288E-03
            5255            5386     36.1884E-03     36.1288E-03
            5275            5387     32.4565E-03     32.4013E-03
            5257            5387     32.4565E-03     32.4013E-03
            5274            5387     32.4565E-03     32.4013E-03
            5256            5387     32.4565E-03     32.4013E-03
            5276            5388     28.7392E-03     28.6841E-03
            5257            5388     28.7392E-03     28.6841E-03
            5275            5388     28.7392E-03     28.6841E-03
            5258            5388     28.7392E-03     28.6841E-03
            5277            5389     25.0511E-03     25.0012E-03
            5276            5389     25.0511E-03     25.0012E-03
            5259            5389     25.0511E-03     25.0012E-03
            5258            5389     25.0511E-03     25.0012E-03
            5260            5390     21.4215E-03     21.3758E-03
            5259            5390     21.4215E-03     21.3758E-03
            5277            5390     21.4215E-03     21.3758E-03
            5278            5390     21.4215E-03     21.3758E-03
            5260            5391     17.9020E-03     17.8685E-03
            5261            5391     17.9020E-03     17.8685E-03
            5278            5391     17.9020E-03     17.8685E-03
            5279            5391     17.9020E-03     17.8685E-03
            5262            5392     14.5619E-03     14.5620E-03
            5261            5392     14.5619E-03     14.5620E-03
            5280            5392     14.5619E-03     14.5620E-03
            5279            5392     14.5619E-03     14.5620E-03
            5280            5393     11.5301E-03     11.7477E-03
            5263            5393     11.5301E-03     11.7477E-03
            5262            5393     11.5301E-03     11.7477E-03
            5281            5393     11.5301E-03     11.7477E-03
            5281            5394     9.10394E-03     10.1164E-03
            5282            5394     9.10394E-03     10.1164E-03
            5263            5394     9.10394E-03     10.1164E-03
            5264            5394     9.10394E-03     10.1164E-03
            5757            5777     23.7484E-15     23.0460E-15
            5739            5777     23.7484E-15     23.0460E-15
            5758            5777     23.7484E-15     23.0460E-15
            5740            5777     23.7484E-15     23.0460E-15
            5740            5778     36.9056E-15     36.0180E-15
            5758            5778     36.9056E-15     36.0180E-15
            5759            5778     36.9056E-15     36.0180E-15
            5741            5778     36.9056E-15     36.0180E-15
            5759            5779     32.4454E-15     31.7922E-15
            5741            5779     32.4454E-15     31.7922E-15
            5760            5779     32.4454E-15     31.7922E-15
            5742            5779     32.4454E-15     31.7922E-15
            5761            5780     27.3826E-15     26.7962E-15
            5760            5780     27.3826E-15     26.7962E-15
            5743            5780     27.3826E-15     26.7962E-15
            5742            5780     27.3826E-15     26.7962E-15
            5761            5781     25.0173E-15     25.1742E-15
            5762            5781     25.0173E-15     25.1742E-15
            5743            5781     25.0173E-15     25.1742E-15
            5744            5781     25.0173E-15     25.1742E-15
            5745            5782     19.6516E-15     19.2639E-15
            5744            5782     19.6516E-15     19.2639E-15
            5763            5782     19.6516E-15     19.2639E-15
            5762            5782     19.6516E-15     19.2639E-15
            5763            5783     27.2131E-15     27.9088E-15
            5746            5783     27.2131E-15     27.9088E-15
            5764            5783     27.2131E-15     27.9088E-15
            5745            5783     27.2131E-15     27.9088E-15
            5746            5784     26.8869E-15     28.7183E-15
            5764            5784     26.8869E-15     28.7183E-15
            5747            5784     26.8869E-15     28.7183E-15
            5765            5784     26.8869E-15     28.7183E-15
            5748            5785     21.5689E-15     22.6128E-15
            5747            5785     21.5689E-15     22.6128E-15
            5765            5785     21.5689E-15     22.6128E-15
            5766            5785     21.5689E-15     22.6128E-15
            5749            5786     22.0721E-15     20.9523E-15
            5766            5786     22.0721E-15     20.9523E-15
            5767            5786     22.0721E-15     20.9523E-15
            5748            5786     22.0721E-15     20.9523E-15
            5768            5787     17.8901E-15     17.1951E-15
            5749            5787     17.8901E-15     17.1951E-15
            5750            5787     17.8901E-15     17.1951E-15
            5767            5787     17.8901E-15     17.1951E-15
            5751            5788     18.6478E-15     20.4949E-15
            5768            5788     18.6478E-15     20.4949E-15
            5769            5788     18.6478E-15     20.4949E-15
            5750            5788     18.6478E-15     20.4949E-15
            5770            5789     19.2133E-15     19.6839E-15
            5751            5789     19.2133E-15     19.6839E-15
            5752            5789     19.2133E-15     19.6839E-15
            5769            5789     19.2133E-15     19.6839E-15
            5753            5790     16.7595E-15     16.0924E-15
            5771            5790     16.7595E-15     16.0924E-15
            5770            5790     16.7595E-15     16.0924E-15
            5752            5790     16.7595E-15     16.0924E-15
            5771            5791     14.4532E-15     14.3894E-15
            5753            5791     14.4532E-15     14.3894E-15
            5772            5791     14.4532E-15     14.3894E-15
            5754            5791     14.4532E-15     14.3894E-15
            5772            5792     9.99997E-15     11.5624E-15
            5755            5792     9.99997E-15     11.5624E-15
            5754            5792     9.99997E-15     11.5624E-15
            5773            5792     9.99997E-15     11.5624E-15
            5755            5793     14.1479E-15     12.4503E-15
            5773            5793     14.1479E-15     12.4503E-15
            5774            5793     14.1479E-15     12.4503E-15
            5756            5793     14.1479E-15     12.4503E-15
            5775            5794     29.0475E-15     28.1351E-15
            5758            5794     29.0475E-15     28.1351E-15
            5776            5794     29.0475E-15     28.1351E-15
            5757            5794     29.0475E-15     28.1351E-15
            5776            5795     30.3029E-15     29.8622E-15
            5759            5795     30.3029E-15     29.8622E-15
            5777            5795     30.3029E-15     29.8622E-15
            5758            5795     30.3029E-15     29.8622E-15
            5778            5796     31.1564E-15     30.8336E-15
            5759            5796     31.1564E-15     30.8336E-15
            5760            5796     31.1564E-15     30.8336E-15
            5777            5796     31.1564E-15     30.8336E-15
            5779            5797     30.2110E-15     29.7141E-15
            5761            5797     30.2110E-15     29.7141E-15
            5778            5797     30.2110E-15     29.7141E-15
            5760            5797     30.2110E-15     29.7141E-15
            5762            5798     21.1204E-15     20.6389E-15
            5779            5798     21.1204E-15     20.6389E-15
            5780            5798     21.1204E-15     20.6389E-15
            5761            5798     21.1204E-15     20.6389E-15
            5763            5799     21.9619E-15     19.1510E-15
            5780            5799     21.9619E-15     19.1510E-15
            5781            5799     21.9619E-15     19.1510E-15
            5762            5799     21.9619E-15     19.1510E-15
            5782            5800     29.5693E-15     26.8326E-15
            5781            5800     29.5693E-15     26.8326E-15
            5764            5800     29.5693E-15     26.8326E-15
            5763            5800     29.5693E-15     26.8326E-15
            5782            5801     26.9811E-15     26.4924E-15
            5783            5801     26.9811E-15     26.4924E-15
            5764            5801     26.9811E-15     26.4924E-15
            5765            5801     26.9811E-15     26.4924E-15
            5766            5802     18.8233E-15     17.2924E-15
            5784            5802     18.8233E-15     17.2924E-15
            5783            5802     18.8233E-15     17.2924E-15
            5765            5802     18.8233E-15     17.2924E-15
            5767            5803     21.4215E-15     20.4463E-15
            5784            5803     21.4215E-15     20.4463E-15
            5785            5803     21.4215E-15     20.4463E-15
            5766            5803     21.4215E-15     20.4463E-15
            5768            5804     17.0441E-15     17.8354E-15
            5767            5804     17.0441E-15     17.8354E-15
            5786            5804     17.0441E-15     17.8354E-15
            5785            5804     17.0441E-15     17.8354E-15
            5787            5805     17.7377E-15     18.0267E-15
            5769            5805     17.7377E-15     18.0267E-15
            5768            5805     17.7377E-15     18.0267E-15
            5786            5805     17.7377E-15     18.0267E-15
            5788            5806     26.7968E-15     25.8404E-15
            5769            5806     26.7968E-15     25.8404E-15
            5770            5806     26.7968E-15     25.8404E-15
            5787            5806     26.7968E-15     25.8404E-15
            5788            5807     23.8596E-15     22.4154E-15
            5771            5807     23.8596E-15     22.4154E-15
            5789            5807     23.8596E-15     22.4154E-15
            5770            5807     23.8596E-15     22.4154E-15
            5772            5808     21.4376E-15     20.7300E-15
            5771            5808     21.4376E-15     20.7300E-15
            5789            5808     21.4376E-15     20.7300E-15
            5790            5808     21.4376E-15     20.7300E-15
            5773            5809     14.9686E-15     16.9685E-15
            5772            5809     14.9686E-15     16.9685E-15
            5791            5809     14.9686E-15     16.9685E-15
            5790            5809     14.9686E-15     16.9685E-15
            5791            5810     13.0289E-15     13.3548E-15
            5773            5810     13.0289E-15     13.3548E-15
            5792            5810     13.0289E-15     13.3548E-15
            5774            5810     13.0289E-15     13.3548E-15
            5794            5811     29.9154E-15     29.7724E-15
            5775            5811     29.9154E-15     29.7724E-15
            5793            5811     29.9154E-15     29.7724E-15
            5776            5811     29.9154E-15     29.7724E-15
            5776            5812     27.6815E-15     27.9068E-15
            5794            5812     27.6815E-15     27.9068E-15
            5795            5812     27.6815E-15     27.9068E-15
            5777            5812     27.6815E-15     27.9068E-15
            5777            5813     27.6412E-15     27.3860E-15
            5795            5813     27.6412E-15     27.3860E-15
            5796            5813     27.6412E-15     27.3860E-15
            5778            5813     27.6412E-15     27.3860E-15
            5779            5814     32.6386E-15     31.5082E-15
            5778            5814     32.6386E-15     31.5082E-15
            5797            5814     32.6386E-15     31.5082E-15
            5796            5814     32.6386E-15     31.5082E-15
            5780            5815     20.6258E-15     19.5196E-15
            5797            5815     20.6258E-15     19.5196E-15
            5798            5815     20.6258E-15     19.5196E-15
            5779            5815     20.6258E-15     19.5196E-15
            5780            5816     26.4550E-15     24.7969E-15
            5781            5816     26.4550E-15     24.7969E-15
            5799            5816     26.4550E-15     24.7969E-15
            5798            5816     26.4550E-15     24.7969E-15
            5781            5817     40.9615E-15     40.0691E-15
            5799            5817     40.9615E-15     40.0691E-15
            5800            5817     40.9615E-15     40.0691E-15
            5782            5817     40.9615E-15     40.0691E-15
            5800            5818     28.8929E-15     28.7850E-15
            5801            5818     28.8929E-15     28.7850E-15
            5783            5818     28.8929E-15     28.7850E-15
            5782            5818     28.8929E-15     28.7850E-15
            5802            5819     12.7574E-15     12.2519E-15
            5801            5819     12.7574E-15     12.2519E-15
            5783            5819     12.7574E-15     12.2519E-15
            5784            5819     12.7574E-15     12.2519E-15
            5784            5820     20.8487E-15     22.2122E-15
            5785            5820     20.8487E-15     22.2122E-15
            5802            5820     20.8487E-15     22.2122E-15
            5803            5820     20.8487E-15     22.2122E-15
            5804            5821     19.8017E-15     20.0034E-15
            5785            5821     19.8017E-15     20.0034E-15
            5803            5821     19.8017E-15     20.0034E-15
            5786            5821     19.8017E-15     20.0034E-15
            5787            5822     12.1076E-15     10.4525E-15
            5804            5822     12.1076E-15     10.4525E-15
            5805            5822     12.1076E-15     10.4525E-15
            5786            5822     12.1076E-15     10.4525E-15
            5806            5823     26.1278E-15     26.9550E-15
            5787            5823     26.1278E-15     26.9550E-15
            5788            5823     26.1278E-15     26.9550E-15
            5805            5823     26.1278E-15     26.9550E-15
            5788            5824     30.7490E-15     30.2535E-15
            5806            5824     30.7490E-15     30.2535E-15
            5807            5824     30.7490E-15     30.2535E-15
            5789            5824     30.7490E-15     30.2535E-15
            5807            5825     23.8432E-15     21.3270E-15
            5789            5825     23.8432E-15     21.3270E-15
            5808            5825     23.8432E-15     21.3270E-15
            5790            5825     23.8432E-15     21.3270E-15
            5809            5826     18.9676E-15     19.4172E-15
            5808            5826     18.9676E-15     19.4172E-15
            5790            5826     18.9676E-15     19.4172E-15
            5791            5826     18.9676E-15     19.4172E-15
            5810            5827     22.8238E-15     22.1485E-15
            5791            5827     22.8238E-15     22.1485E-15
            5792            5827     22.8238E-15     22.1485E-15
            5809            5827     22.8238E-15     22.1485E-15
            5794            5828     25.7527E-15     25.6991E-15
            5811            5828     25.7527E-15     25.6991E-15
            5812            5828     25.7527E-15     25.6991E-15
            5793            5828     25.7527E-15     25.6991E-15
            5795            5829     23.5685E-15     23.7766E-15
            5812            5829     23.5685E-15     23.7766E-15
            5794            5829     23.5685E-15     23.7766E-15
            5813            5829     23.5685E-15     23.7766E-15
            5813            5830     15.7115E-15     14.5990E-15
            5796            5830     15.7115E-15     14.5990E-15
            5814            5830     15.7115E-15     14.5990E-15
            5795            5830     15.7115E-15     14.5990E-15
            5796            5831     26.7561E-15     26.0374E-15
            5797            5831     26.7561E-15     26.0374E-15
            5814            5831     26.7561E-15     26.0374E-15
            5815            5831     26.7561E-15     26.0374E-15
            5797            5832     25.3321E-15     25.2997E-15
            5816            5832     25.3321E-15     25.2997E-15
            5815            5832     25.3321E-15     25.2997E-15
            5798            5832     25.3321E-15     25.2997E-15
            5799            5833     28.9056E-15     28.3821E-15
            5816            5833     28.9056E-15     28.3821E-15
            5817            5833     28.9056E-15     28.3821E-15
            5798            5833     28.9056E-15     28.3821E-15
            5800            5834     44.3356E-15     44.5585E-15
            5817            5834     44.3356E-15     44.5585E-15
            5799            5834     44.3356E-15     44.5585E-15
            5818            5834     44.3356E-15     44.5585E-15
            5819            5835     34.1815E-15     33.9622E-15
            5800            5835     34.1815E-15     33.9622E-15
            5818            5835     34.1815E-15     33.9622E-15
            5801            5835     34.1815E-15     33.9622E-15
            5801            5836     25.9086E-15     25.2299E-15
            5820            5836     25.9086E-15     25.2299E-15
            5819            5836     25.9086E-15     25.2299E-15
            5802            5836     25.9086E-15     25.2299E-15
            5802            5837     29.6290E-15     29.0220E-15
            5803            5837     29.6290E-15     29.0220E-15
            5820            5837     29.6290E-15     29.0220E-15
            5821            5837     29.6290E-15     29.0220E-15
            5803            5838     19.3792E-15     17.8257E-15
            5821            5838     19.3792E-15     17.8257E-15
            5804            5838     19.3792E-15     17.8257E-15
            5822            5838     19.3792E-15     17.8257E-15
            5822            5839     11.0906E-15     10.0619E-15
            5804            5839     11.0906E-15     10.0619E-15
            5805            5839     11.0906E-15     10.0619E-15
            5823            5839     11.0906E-15     10.0619E-15
            5823            5840     15.7048E-15     18.3957E-15
            5805            5840     15.7048E-15     18.3957E-15
            5806            5840     15.7048E-15     18.3957E-15
            5824            5840     15.7048E-15     18.3957E-15
            5807            5841     19.4857E-15     20.0752E-15
            5824            5841     19.4857E-15     20.0752E-15
            5806            5841     19.4857E-15     20.0752E-15
            5825            5841     19.4857E-15     20.0752E-15
            5807            5842     15.4493E-15     10.7337E-15
            5826            5842     15.4493E-15     10.7337E-15
            5825            5842     15.4493E-15     10.7337E-15
            5808            5842     15.4493E-15     10.7337E-15
            5827            5843     15.2053E-15     12.7451E-15
            5808            5843     15.2053E-15     12.7451E-15
            5826            5843     15.2053E-15     12.7451E-15
            5809            5843     15.2053E-15     12.7451E-15
            5828            5844     27.2178E-15     25.2199E-15
            5827            5844     27.2178E-15     25.2199E-15
            5809            5844     27.2178E-15     25.2199E-15
            5810            5844     27.2178E-15     25.2199E-15
            5812            5845     24.9744E-15     25.3687E-15
            5811            5845     24.9744E-15     25.3687E-15
            5829            5845     24.9744E-15     25.3687E-15
            5830            5845     24.9744E-15     25.3687E-15
            5813            5846     19.3681E-15     19.8019E-15
            5812            5846     19.3681E-15     19.8019E-15
            5831            5846     19.3681E-15     19.8019E-15
            5830            5846     19.3681E-15     19.8019E-15
            5814            5847     18.2547E-15     17.7157E-15
            5813            5847     18.2547E-15     17.7157E-15
            5831            5847     18.2547E-15     17.7157E-15
            5832            5847     18.2547E-15     17.7157E-15
            5815            5848     26.0294E-15     24.7500E-15
            5814            5848     26.0294E-15     24.7500E-15
            5833            5848     26.0294E-15     24.7500E-15
            5832            5848     26.0294E-15     24.7500E-15
            5833            5849     26.1115E-15     24.2445E-15
            5834            5849     26.1115E-15     24.2445E-15
            5815            5849     26.1115E-15     24.2445E-15
            5816            5849     26.1115E-15     24.2445E-15
            5835            5850     23.8078E-15     22.8716E-15
            5816            5850     23.8078E-15     22.8716E-15
            5834            5850     23.8078E-15     22.8716E-15
            5817            5850     23.8078E-15     22.8716E-15
            5835            5851     25.3639E-15     24.9674E-15
            5817            5851     25.3639E-15     24.9674E-15
            5818            5851     25.3639E-15     24.9674E-15
            5836            5851     25.3639E-15     24.9674E-15
            5819            5852     22.5211E-15     21.4824E-15
            5836            5852     22.5211E-15     21.4824E-15
            5818            5852     22.5211E-15     21.4824E-15
            5837            5852     22.5211E-15     21.4824E-15
            5820            5853     27.4327E-15     26.4255E-15
            5819            5853     27.4327E-15     26.4255E-15
            5838            5853     27.4327E-15     26.4255E-15
            5837            5853     27.4327E-15     26.4255E-15
            5820            5854     27.1756E-15     26.7432E-15
            5838            5854     27.1756E-15     26.7432E-15
            5839            5854     27.1756E-15     26.7432E-15
            5821            5854     27.1756E-15     26.7432E-15
            5839            5855     15.8135E-15     16.4424E-15
            5821            5855     15.8135E-15     16.4424E-15
            5822            5855     15.8135E-15     16.4424E-15
            5840            5855     15.8135E-15     16.4424E-15
            5823            5856     16.3885E-15     18.5821E-15
            5841            5856     16.3885E-15     18.5821E-15
            5822            5856     16.3885E-15     18.5821E-15
            5840            5856     16.3885E-15     18.5821E-15
            5824            5857     16.9914E-15     20.3680E-15
            5841            5857     16.9914E-15     20.3680E-15
            5823            5857     16.9914E-15     20.3680E-15
            5842            5857     16.9914E-15     20.3680E-15
            5843            5858     22.5548E-15     23.7752E-15
            5825            5858     22.5548E-15     23.7752E-15
            5824            5858     22.5548E-15     23.7752E-15
            5842            5858     22.5548E-15     23.7752E-15
            5844            5859     26.5238E-15     22.7818E-15
            5825            5859     26.5238E-15     22.7818E-15
            5843            5859     26.5238E-15     22.7818E-15
            5826            5859     26.5238E-15     22.7818E-15
            5844            5860     20.9008E-15     16.5625E-15
            5827            5860     20.9008E-15     16.5625E-15
            5826            5860     20.9008E-15     16.5625E-15
            5845            5860     20.9008E-15     16.5625E-15
            5846            5861     20.7417E-15     19.2431E-15
            5827            5861     20.7417E-15     19.2431E-15
            5845            5861     20.7417E-15     19.2431E-15
            5828            5861     20.7417E-15     19.2431E-15


  Minimum                            4.64429E-15     3.13453E-15
      At Element                            5837            5837
            Node                             817             817

  Maximum                            74.0004E-03     77.7027E-03
      At Element                            5193            5175
            Node                             629              22

           Total                         146.649         150.495


