********************************************************************************
Field Output Report, written Tue Feb 20 13:43:46 2018

Source 1
---------

   ODB: C:/Users/JMJFVA~1/AppData/Local/Temp/A320.odb
   Step: Jam2
   Frame: Increment      1: Step Time =    1.000

Loc 1 : Element nodal  values at shell < ALUMINIUM > < 5 section points > from source 1 : SNEG, (fraction = -1.0) ( Average criteria = 75%, Not averaged across region boundaries )
Loc 2 : Element nodal  values at shell < ALUMINIUM > < 5 section points > from source 1 : SPOS, (fraction = 1.0) ( Average criteria = 75%, Not averaged across region boundaries )

Output sorted by column "Node Label".

Field Output reported at element nodes for region: A320-1.Region_1
   Computation algorithm: EXTRAPOLATE_COMPUTE_AVERAGE
   Averaged at nodes
   Averaging regions: ODB_REGIONS

   Element Label      Node Label         S.Mises         S.Mises
                                          @Loc 1          @Loc 2
-----------------------------------------------------------------
            2271               3     851.958E-06     1.25253E-03
             874               3     851.958E-06     1.25253E-03
            2325               4     84.3043E-06     183.631E-06
            3976               6     73.4587E-03     75.7922E-03
            1756               6     73.4587E-03     75.7922E-03
            4066               8     68.6334E-03     75.4511E-03
            3410               8     68.6334E-03     75.4511E-03
            5864              10     62.9663E-03     62.0280E-03
            3500              10     62.9663E-03     62.0280E-03
            5084              15     820.718E-06     1.30794E-03
            6566              15     820.718E-06     1.30794E-03
            2288              16     1.36912E-03     1.71411E-03
             857              16     1.36912E-03     1.71411E-03
            2342              19     251.216E-06     296.436E-06
            1739              20     22.3452E-03     22.7202E-03
            3959              20     22.3452E-03     22.7202E-03
            4049              23     90.5685E-03     140.347E-03
            3393              23     90.5685E-03     140.347E-03
            5847              24     22.2254E-03     47.9467E-03
            3483              24     22.2254E-03     47.9467E-03
            5067              26     1.63949E-03     1.98974E-03
            6549              26     1.63949E-03     1.98974E-03
            5174              27     112.100E-06     214.044E-06
            5157              28     268.471E-06     327.164E-06
            2289              38     319.364E-06     353.735E-06
            2271              38     319.364E-06     353.735E-06
            2289              39     151.911E-06     156.375E-06
            2307              39     151.911E-06     156.375E-06
            2307              40     59.9919E-06     139.587E-06
            2325              40     59.9919E-06     139.587E-06
            1738             102     71.3682E-03     71.8041E-03
            1756             102     71.3682E-03     71.8041E-03
            1738             103     69.4479E-03     69.3815E-03
            1720             103     69.4479E-03     69.3815E-03
            1720             104     66.8997E-03     68.1438E-03
            1702             104     66.8997E-03     68.1438E-03
            1702             105     65.0634E-03     65.4143E-03
            1684             105     65.0634E-03     65.4143E-03
            1684             106     62.6154E-03     63.4781E-03
            1666             106     62.6154E-03     63.4781E-03
            1666             107     60.5365E-03     60.8406E-03
            1648             107     60.5365E-03     60.8406E-03
            1648             108     57.8421E-03     58.5272E-03
            1630             108     57.8421E-03     58.5272E-03
            1630             109     54.9372E-03     54.9451E-03
            1612             109     54.9372E-03     54.9451E-03
            1612             110     51.5309E-03     50.6323E-03
            1594             110     51.5309E-03     50.6323E-03
            1576             111     51.9105E-03     53.3256E-03
            1594             111     51.9105E-03     53.3256E-03
            1558             112     54.4598E-03     54.8867E-03
            1576             112     54.4598E-03     54.8867E-03
            1558             113     52.6543E-03     52.6062E-03
            1540             113     52.6543E-03     52.6062E-03
            1540             114     50.3890E-03     51.3147E-03
            1522             114     50.3890E-03     51.3147E-03
            1504             115     48.6687E-03     48.9788E-03
            1522             115     48.6687E-03     48.9788E-03
            1504             116     46.6412E-03     47.2041E-03
            1486             116     46.6412E-03     47.2041E-03
            1486             117     44.7824E-03     45.1302E-03
            1468             117     44.7824E-03     45.1302E-03
            1468             118     42.6730E-03     42.9784E-03
            1450             118     42.6730E-03     42.9784E-03
            1450             119     40.4761E-03     40.7799E-03
            1432             119     40.4761E-03     40.7799E-03
            1414             120     37.8576E-03     37.8846E-03
            1432             120     37.8576E-03     37.8846E-03
            1396             121     34.9848E-03     34.1799E-03
            1414             121     34.9848E-03     34.1799E-03
            1396             122     35.4792E-03     36.4365E-03
            1378             122     35.4792E-03     36.4365E-03
            1378             123     37.5203E-03     37.9460E-03
            1360             123     37.5203E-03     37.9460E-03
            1360             124     35.8148E-03     35.7524E-03
            1342             124     35.8148E-03     35.7524E-03
            1324             125     33.7728E-03     34.4288E-03
            1342             125     33.7728E-03     34.4288E-03
            1324             126     32.2017E-03     32.3871E-03
            1306             126     32.2017E-03     32.3871E-03
            1306             127     30.4039E-03     30.7784E-03
            1288             127     30.4039E-03     30.7784E-03
            1270             128     28.7655E-03     28.9492E-03
            1288             128     28.7655E-03     28.9492E-03
            1252             129     26.9158E-03     27.0948E-03
            1270             129     26.9158E-03     27.0948E-03
            1252             130     25.0349E-03     25.1361E-03
            1234             130     25.0349E-03     25.1361E-03
            1216             131     22.7746E-03     22.7704E-03
            1234             131     22.7746E-03     22.7704E-03
            1198             132     20.3469E-03     19.6866E-03
            1216             132     20.3469E-03     19.6866E-03
            1180             133     20.9263E-03     21.4956E-03
            1198             133     20.9263E-03     21.4956E-03
            1180             134     22.5220E-03     22.9378E-03
            1162             134     22.5220E-03     22.9378E-03
            1144             135     20.9543E-03     20.8736E-03
            1162             135     20.9543E-03     20.8736E-03
            1126             136     19.1554E-03     19.5643E-03
            1144             136     19.1554E-03     19.5643E-03
            1108             137     17.7570E-03     17.8279E-03
            1126             137     17.7570E-03     17.8279E-03
            1090             138     16.2062E-03     16.4078E-03
            1108             138     16.2062E-03     16.4078E-03
            1090             139     14.8063E-03     14.8419E-03
            1072             139     14.8063E-03     14.8419E-03
            1054             140     13.2397E-03     13.2986E-03
            1072             140     13.2397E-03     13.2986E-03
            1036             141     11.6930E-03     11.6115E-03
            1054             141     11.6930E-03     11.6115E-03
            1018             142     9.83805E-03     9.77535E-03
            1036             142     9.83805E-03     9.77535E-03
            1000             143     7.85243E-03     7.39205E-03
            1018             143     7.85243E-03     7.39205E-03
            1000             144     8.16428E-03     8.44718E-03
             982             144     8.16428E-03     8.44718E-03
             982             145     8.97961E-03     9.35926E-03
             964             145     8.97961E-03     9.35926E-03
             964             146     7.50413E-03     7.36113E-03
             946             146     7.50413E-03     7.36113E-03
             928             147     5.86645E-03     6.01300E-03
             946             147     5.86645E-03     6.01300E-03
             910             148     4.57951E-03     4.41955E-03
             928             148     4.57951E-03     4.41955E-03
             892             149     3.12776E-03     3.05035E-03
             910             149     3.12776E-03     3.05035E-03
             892             150     1.86038E-03     2.20367E-03
             874             150     1.86038E-03     2.20367E-03
            4048             162     69.2051E-03     71.0939E-03
            4066             162     69.2051E-03     71.0939E-03
            4030             163     69.0966E-03     68.9789E-03
            4048             163     69.0966E-03     68.9789E-03
            4030             164     67.4333E-03     67.2117E-03
            4012             164     67.4333E-03     67.2117E-03
            3994             165     65.4673E-03     62.7147E-03
            4012             165     65.4673E-03     62.7147E-03
            3994             166     69.7068E-03     68.8881E-03
            3976             166     69.7068E-03     68.8881E-03
            3500             178     65.0248E-03     62.5235E-03
            3482             178     65.0248E-03     62.5235E-03
            3464             179     68.0784E-03     66.5802E-03
            3482             179     68.0784E-03     66.5802E-03
            3464             180     69.4020E-03     70.0719E-03
            3446             180     69.4020E-03     70.0719E-03
            3446             181     70.9144E-03     70.6174E-03
            3428             181     70.9144E-03     70.6174E-03
            3410             182     71.0573E-03     73.1023E-03
            3428             182     71.0573E-03     73.1023E-03
            6566             250     2.00164E-03     2.43685E-03
            6548             250     2.00164E-03     2.43685E-03
            6530             251     4.14105E-03     4.22838E-03
            6548             251     4.14105E-03     4.22838E-03
            6512             252     6.73770E-03     6.41334E-03
            6530             252     6.73770E-03     6.41334E-03
            6512             253     8.90218E-03     9.47565E-03
            6494             253     8.90218E-03     9.47565E-03
            6476             254     8.34396E-03     8.78363E-03
            6494             254     8.34396E-03     8.78363E-03
            6458             255     8.21013E-03     7.69306E-03
            6476             255     8.21013E-03     7.69306E-03
            6458             256     10.7323E-03     10.6177E-03
            6440             256     10.7323E-03     10.6177E-03
            6440             257     13.0854E-03     12.9368E-03
            6422             257     13.0854E-03     12.9368E-03
            6422             258     15.0625E-03     15.1131E-03
            6404             258     15.0625E-03     15.1131E-03
            6386             259     17.0760E-03     17.0936E-03
            6404             259     17.0760E-03     17.0936E-03
            6386             260     18.8819E-03     19.1156E-03
            6368             260     18.8819E-03     19.1156E-03
            6368             261     20.8934E-03     20.9647E-03
            6350             261     20.8934E-03     20.9647E-03
            6332             262     22.7134E-03     23.2130E-03
            6350             262     22.7134E-03     23.2130E-03
            6314             263     25.0645E-03     24.9393E-03
            6332             263     25.0645E-03     24.9393E-03
            6314             264     27.1090E-03     27.6822E-03
            6296             264     27.1090E-03     27.6822E-03
            6278             265     25.1072E-03     25.8369E-03
            6296             265     25.1072E-03     25.8369E-03
            6260             266     24.3145E-03     23.4649E-03
            6278             266     24.3145E-03     23.4649E-03
            6242             267     27.3463E-03     27.2751E-03
            6260             267     27.3463E-03     27.2751E-03
            6242             268     30.1335E-03     30.2638E-03
            6224             268     30.1335E-03     30.2638E-03
            6206             269     32.5521E-03     32.6597E-03
            6224             269     32.5521E-03     32.6597E-03
            6206             270     34.7617E-03     35.0665E-03
            6188             270     34.7617E-03     35.0665E-03
            6170             271     37.0070E-03     37.2365E-03
            6188             271     37.0070E-03     37.2365E-03
            6152             272     38.9770E-03     39.4906E-03
            6170             272     38.9770E-03     39.4906E-03
            6152             273     41.2242E-03     41.4602E-03
            6134             273     41.2242E-03     41.4602E-03
            6116             274     43.1609E-03     44.0194E-03
            6134             274     43.1609E-03     44.0194E-03
            6116             275     45.7235E-03     45.6178E-03
            6098             275     45.7235E-03     45.6178E-03
            6098             276     47.8280E-03     48.4021E-03
            6080             276     47.8280E-03     48.4021E-03
            6080             277     45.2128E-03     46.5049E-03
            6062             277     45.2128E-03     46.5049E-03
            6044             278     44.5731E-03     43.5438E-03
            6062             278     44.5731E-03     43.5438E-03
            6044             279     48.1087E-03     48.1241E-03
            6026             279     48.1087E-03     48.1241E-03
            6026             280     51.3385E-03     51.7344E-03
            6008             280     51.3385E-03     51.7344E-03
            5990             281     54.0574E-03     54.4437E-03
            6008             281     54.0574E-03     54.4437E-03
            5972             282     56.6493E-03     57.0964E-03
            5990             282     56.6493E-03     57.0964E-03
            5954             283     58.9338E-03     59.6459E-03
            5972             283     58.9338E-03     59.6459E-03
            5954             284     61.4321E-03     61.8259E-03
            5936             284     61.4321E-03     61.8259E-03
            5936             285     63.5314E-03     64.7026E-03
            5918             285     63.5314E-03     64.7026E-03
            5918             286     66.3259E-03     66.2362E-03
            5900             286     66.3259E-03     66.2362E-03
            5882             287     68.5225E-03     69.0639E-03
            5900             287     68.5225E-03     69.0639E-03
            5882             288     65.4095E-03     68.0512E-03
            5864             288     65.4095E-03     68.0512E-03
            2324             326     274.951E-06     275.731E-06
            2342             326     274.951E-06     275.731E-06
            2324             327     296.404E-06     250.080E-06
            2306             327     296.404E-06     250.080E-06
            2306             328     265.711E-06     264.344E-06
            2288             328     265.711E-06     264.344E-06
             857             329     1.46965E-03     1.67566E-03
            2287             329     1.46965E-03     1.67566E-03
            2288             329     1.46965E-03     1.67566E-03
             858             329     1.46965E-03     1.67566E-03
             859             330     1.60151E-03     1.61393E-03
            2287             330     1.60151E-03     1.61393E-03
            2286             330     1.60151E-03     1.61393E-03
             858             330     1.60151E-03     1.61393E-03
            2285             331     1.66111E-03     1.61078E-03
            2286             331     1.66111E-03     1.61078E-03
             860             331     1.66111E-03     1.61078E-03
             859             331     1.66111E-03     1.61078E-03
            2285             332     1.71663E-03     1.63847E-03
            2284             332     1.71663E-03     1.63847E-03
             861             332     1.71663E-03     1.63847E-03
             860             332     1.71663E-03     1.63847E-03
            2283             333     1.77552E-03     1.66864E-03
            2284             333     1.77552E-03     1.66864E-03
             862             333     1.77552E-03     1.66864E-03
             861             333     1.77552E-03     1.66864E-03
             863             334     1.83975E-03     1.71140E-03
             862             334     1.83975E-03     1.71140E-03
            2283             334     1.83975E-03     1.71140E-03
            2282             334     1.83975E-03     1.71140E-03
             864             335     1.90815E-03     1.76024E-03
             863             335     1.90815E-03     1.76024E-03
            2282             335     1.90815E-03     1.76024E-03
            2281             335     1.90815E-03     1.76024E-03
            2280             336     1.97999E-03     1.81338E-03
             864             336     1.97999E-03     1.81338E-03
            2281             336     1.97999E-03     1.81338E-03
             865             336     1.97999E-03     1.81338E-03
             866             337     2.05278E-03     1.87069E-03
            2279             337     2.05278E-03     1.87069E-03
            2280             337     2.05278E-03     1.87069E-03
             865             337     2.05278E-03     1.87069E-03
            2279             338     2.12279E-03     1.92423E-03
             866             338     2.12279E-03     1.92423E-03
            2278             338     2.12279E-03     1.92423E-03
             867             338     2.12279E-03     1.92423E-03
             868             339     2.18377E-03     1.97098E-03
            2277             339     2.18377E-03     1.97098E-03
             867             339     2.18377E-03     1.97098E-03
            2278             339     2.18377E-03     1.97098E-03
            2277             340     2.22718E-03     1.99848E-03
             869             340     2.22718E-03     1.99848E-03
            2276             340     2.22718E-03     1.99848E-03
             868             340     2.22718E-03     1.99848E-03
            2275             341     2.22841E-03     1.98310E-03
            2276             341     2.22841E-03     1.98310E-03
             869             341     2.22841E-03     1.98310E-03
             870             341     2.22841E-03     1.98310E-03
            2275             342     2.17945E-03     1.90820E-03
            2274             342     2.17945E-03     1.90820E-03
             871             342     2.17945E-03     1.90820E-03
             870             342     2.17945E-03     1.90820E-03
             872             343     1.99147E-03     1.69127E-03
            2274             343     1.99147E-03     1.69127E-03
             871             343     1.99147E-03     1.69127E-03
            2273             343     1.99147E-03     1.69127E-03
            2273             344     1.66771E-03     1.30507E-03
             873             344     1.66771E-03     1.30507E-03
             872             344     1.66771E-03     1.30507E-03
            2272             344     1.66771E-03     1.30507E-03
             874             345     1.17470E-03     1.16512E-03
            2272             345     1.17470E-03     1.16512E-03
             873             345     1.17470E-03     1.16512E-03
            2271             345     1.17470E-03     1.16512E-03
            3976             346     69.7423E-03     71.5031E-03
            1755             346     69.7423E-03     71.5031E-03
            1756             346     69.7423E-03     71.5031E-03
            3975             346     69.7423E-03     71.5031E-03
            3974             347     64.0556E-03     65.0008E-03
            3975             347     64.0556E-03     65.0008E-03
            1755             347     64.0556E-03     65.0008E-03
            1754             347     64.0556E-03     65.0008E-03
            1753             348     60.1192E-03     60.9239E-03
            3974             348     60.1192E-03     60.9239E-03
            1754             348     60.1192E-03     60.9239E-03
            3973             348     60.1192E-03     60.9239E-03
            3973             349     56.5510E-03     57.4057E-03
            3972             349     56.5510E-03     57.4057E-03
            1752             349     56.5510E-03     57.4057E-03
            1753             349     56.5510E-03     57.4057E-03
            3971             350     53.3310E-03     54.2246E-03
            3972             350     53.3310E-03     54.2246E-03
            1752             350     53.3310E-03     54.2246E-03
            1751             350     53.3310E-03     54.2246E-03
            1751             351     50.2454E-03     51.2215E-03
            3971             351     50.2454E-03     51.2215E-03
            3970             351     50.2454E-03     51.2215E-03
            1750             351     50.2454E-03     51.2215E-03
            1749             352     47.3044E-03     48.3214E-03
            3970             352     47.3044E-03     48.3214E-03
            1750             352     47.3044E-03     48.3214E-03
            3969             352     47.3044E-03     48.3214E-03
            3969             353     44.4363E-03     45.4976E-03
            3968             353     44.4363E-03     45.4976E-03
            1749             353     44.4363E-03     45.4976E-03
            1748             353     44.4363E-03     45.4976E-03
            1748             354     41.6555E-03     42.7299E-03
            3968             354     41.6555E-03     42.7299E-03
            1747             354     41.6555E-03     42.7299E-03
            3967             354     41.6555E-03     42.7299E-03
            1746             355     38.9389E-03     40.0193E-03
            1747             355     38.9389E-03     40.0193E-03
            3967             355     38.9389E-03     40.0193E-03
            3966             355     38.9389E-03     40.0193E-03
            3966             356     36.3024E-03     37.3662E-03
            1745             356     36.3024E-03     37.3662E-03
            1746             356     36.3024E-03     37.3662E-03
            3965             356     36.3024E-03     37.3662E-03
            3964             357     33.7468E-03     34.7789E-03
            3965             357     33.7468E-03     34.7789E-03
            1744             357     33.7468E-03     34.7789E-03
            1745             357     33.7468E-03     34.7789E-03
            1743             358     31.2900E-03     32.2661E-03
            3964             358     31.2900E-03     32.2661E-03
            1744             358     31.2900E-03     32.2661E-03
            3963             358     31.2900E-03     32.2661E-03
            1743             359     28.9510E-03     29.8403E-03
            1742             359     28.9510E-03     29.8403E-03
            3963             359     28.9510E-03     29.8403E-03
            3962             359     28.9510E-03     29.8403E-03
            3962             360     26.7589E-03     27.5172E-03
            1742             360     26.7589E-03     27.5172E-03
            1741             360     26.7589E-03     27.5172E-03
            3961             360     26.7589E-03     27.5172E-03
            1740             361     24.7729E-03     25.3412E-03
            3961             361     24.7729E-03     25.3412E-03
            1741             361     24.7729E-03     25.3412E-03
            3960             361     24.7729E-03     25.3412E-03
            3959             362     23.0960E-03     23.5091E-03
            3960             362     23.0960E-03     23.5091E-03
            1740             362     23.0960E-03     23.5091E-03
            1739             362     23.0960E-03     23.5091E-03
            1721             363     2.03914E-03     3.59979E-03
            1739             363     2.03914E-03     3.59979E-03
            1703             364     1.22291E-03     2.72512E-03
            1721             364     1.22291E-03     2.72512E-03
            1703             365     2.16670E-03     2.67038E-03
            1685             365     2.16670E-03     2.67038E-03
            1667             366     3.72573E-03     3.99991E-03
            1685             366     3.72573E-03     3.99991E-03
            1649             367     5.45781E-03     5.41192E-03
            1667             367     5.45781E-03     5.41192E-03
            1649             368     7.12366E-03     7.25185E-03
            1631             368     7.12366E-03     7.25185E-03
            1631             369     8.78742E-03     8.81854E-03
            1613             369     8.78742E-03     8.81854E-03
            1613             370     10.7392E-03     11.1196E-03
            1595             370     10.7392E-03     11.1196E-03
            1595             371     11.7855E-03     13.9119E-03
            1577             371     11.7855E-03     13.9119E-03
            1577             372     6.72216E-03     8.46098E-03
            1559             372     6.72216E-03     8.46098E-03
            1559             373     974.917E-06     2.07243E-03
            1541             373     974.917E-06     2.07243E-03
            1541             374     929.324E-06     1.85924E-03
            1523             374     929.324E-06     1.85924E-03
            1523             375     2.02597E-03     2.21892E-03
            1505             375     2.02597E-03     2.21892E-03
            1505             376     3.21642E-03     3.16899E-03
            1487             376     3.21642E-03     3.16899E-03
            1487             377     4.34630E-03     4.30024E-03
            1469             377     4.34630E-03     4.30024E-03
            1469             378     5.49996E-03     5.31914E-03
            1451             378     5.49996E-03     5.31914E-03
            1451             379     6.60618E-03     6.63335E-03
            1433             379     6.60618E-03     6.63335E-03
            1415             380     7.72709E-03     7.68415E-03
            1433             380     7.72709E-03     7.68415E-03
            1397             381     9.08103E-03     9.33187E-03
            1415             381     9.08103E-03     9.33187E-03
            1379             382     9.70691E-03     11.3995E-03
            1397             382     9.70691E-03     11.3995E-03
            1361             383     4.99583E-03     6.43365E-03
            1379             383     4.99583E-03     6.43365E-03
            1361             384     699.655E-06     1.06220E-03
            1343             384     699.655E-06     1.06220E-03
            1343             385     1.51469E-03     1.55168E-03
            1325             385     1.51469E-03     1.55168E-03
            1325             386     2.35453E-03     2.22936E-03
            1307             386     2.35453E-03     2.22936E-03
            1307             387     3.15382E-03     2.93344E-03
            1289             387     3.15382E-03     2.93344E-03
            1271             388     3.88318E-03     3.70384E-03
            1289             388     3.88318E-03     3.70384E-03
            1253             389     4.62222E-03     4.37693E-03
            1271             389     4.62222E-03     4.37693E-03
            1235             390     5.32858E-03     5.23702E-03
            1253             390     5.32858E-03     5.23702E-03
            1235             391     6.02906E-03     5.91372E-03
            1217             391     6.02906E-03     5.91372E-03
            1199             392     6.90102E-03     6.99718E-03
            1217             392     6.90102E-03     6.99718E-03
            1181             393     7.20722E-03     8.40930E-03
            1199             393     7.20722E-03     8.40930E-03
            1181             394     4.17826E-03     5.20835E-03
            1163             394     4.17826E-03     5.20835E-03
            1163             395     1.62221E-03     1.73689E-03
            1145             395     1.62221E-03     1.73689E-03
            1127             396     2.19340E-03     2.01314E-03
            1145             396     2.19340E-03     2.01314E-03
            1109             397     2.61727E-03     2.40247E-03
            1127             397     2.61727E-03     2.40247E-03
            1091             398     3.03946E-03     2.78380E-03
            1109             398     3.03946E-03     2.78380E-03
            1073             399     3.41191E-03     3.17451E-03
            1091             399     3.41191E-03     3.17451E-03
            1073             400     3.78196E-03     3.52066E-03
            1055             400     3.78196E-03     3.52066E-03
            1055             401     4.13451E-03     3.96715E-03
            1037             401     4.13451E-03     3.96715E-03
            1019             402     4.46452E-03     4.30566E-03
            1037             402     4.46452E-03     4.30566E-03
            1019             403     4.91077E-03     4.88519E-03
            1001             403     4.91077E-03     4.88519E-03
             983             404     4.94017E-03     5.71004E-03
            1001             404     4.94017E-03     5.71004E-03
             983             405     3.32728E-03     4.07597E-03
             965             405     3.32728E-03     4.07597E-03
             965             406     2.11574E-03     2.24854E-03
             947             406     2.11574E-03     2.24854E-03
             929             407     2.41866E-03     2.17027E-03
             947             407     2.41866E-03     2.17027E-03
             911             408     2.56076E-03     2.27727E-03
             929             408     2.56076E-03     2.27727E-03
             911             409     2.68612E-03     2.41457E-03
             893             409     2.68612E-03     2.41457E-03
             875             410     2.84648E-03     2.62398E-03
             893             410     2.84648E-03     2.62398E-03
             875             411     2.70932E-03     3.03415E-03
             857             411     2.70932E-03     3.03415E-03
            2342             497     265.233E-06     285.861E-06
            2341             497     265.233E-06     285.861E-06
            2340             498     283.009E-06     274.139E-06
            2341             498     283.009E-06     274.139E-06
            2340             499     285.861E-06     274.323E-06
            2339             499     285.861E-06     274.323E-06
            2339             500     287.160E-06     274.277E-06
            2338             500     287.160E-06     274.277E-06
            2337             501     290.307E-06     272.575E-06
            2338             501     290.307E-06     272.575E-06
            2337             502     292.899E-06     272.376E-06
            2336             502     292.899E-06     272.376E-06
            2336             503     295.690E-06     272.114E-06
            2335             503     295.690E-06     272.114E-06
            2334             504     298.896E-06     272.446E-06
            2335             504     298.896E-06     272.446E-06
            2334             505     301.687E-06     272.639E-06
            2333             505     301.687E-06     272.639E-06
            2332             506     305.339E-06     273.851E-06
            2333             506     305.339E-06     273.851E-06
            2331             507     307.707E-06     274.001E-06
            2332             507     307.707E-06     274.001E-06
            2331             508     312.141E-06     276.255E-06
            2330             508     312.141E-06     276.255E-06
            2330             509     312.786E-06     275.739E-06
            2329             509     312.786E-06     275.739E-06
            2328             510     319.877E-06     277.651E-06
            2329             510     319.877E-06     277.651E-06
            2327             511     308.555E-06     269.467E-06
            2328             511     308.555E-06     269.467E-06
            2327             512     279.983E-06     236.389E-06
            2326             512     279.983E-06     236.389E-06
            2326             513     179.240E-06     200.698E-06
            2325             513     179.240E-06     200.698E-06
            3977             548     39.3700E-03     60.8159E-03
            3959             548     39.3700E-03     60.8159E-03
            3977             549     48.8860E-03     70.6363E-03
            3995             549     48.8860E-03     70.6363E-03
            3995             550     63.3297E-03     55.5372E-03
            4013             550     63.3297E-03     55.5372E-03
            4031             551     77.9246E-03     65.8403E-03
            4013             551     77.9246E-03     65.8403E-03
            4031             552     89.0450E-03     109.833E-03
            4049             552     89.0450E-03     109.833E-03
            4050             570     62.4535E-03     104.471E-03
            3394             570     62.4535E-03     104.471E-03
            4049             570     62.4535E-03     104.471E-03
            3393             570     62.4535E-03     104.471E-03
            4051             571     31.3756E-03     63.1084E-03
            3395             571     31.3756E-03     63.1084E-03
            4050             571     31.3756E-03     63.1084E-03
            3394             571     31.3756E-03     63.1084E-03
            4051             572     28.2997E-03     56.1744E-03
            3395             572     28.2997E-03     56.1744E-03
            3396             572     28.2997E-03     56.1744E-03
            4052             572     28.2997E-03     56.1744E-03
            3396             573     29.1067E-03     54.9007E-03
            3397             573     29.1067E-03     54.9007E-03
            4052             573     29.1067E-03     54.9007E-03
            4053             573     29.1067E-03     54.9007E-03
            4054             574     31.5072E-03     55.7117E-03
            3397             574     31.5072E-03     55.7117E-03
            4053             574     31.5072E-03     55.7117E-03
            3398             574     31.5072E-03     55.7117E-03
            3398             575     34.0959E-03     56.8278E-03
            3399             575     34.0959E-03     56.8278E-03
            4054             575     34.0959E-03     56.8278E-03
            4055             575     34.0959E-03     56.8278E-03
            3400             576     36.5429E-03     57.8725E-03
            4055             576     36.5429E-03     57.8725E-03
            4056             576     36.5429E-03     57.8725E-03
            3399             576     36.5429E-03     57.8725E-03
            4056             577     39.0489E-03     58.8859E-03
            3401             577     39.0489E-03     58.8859E-03
            3400             577     39.0489E-03     58.8859E-03
            4057             577     39.0489E-03     58.8859E-03
            3402             578     41.5080E-03     59.7964E-03
            4057             578     41.5080E-03     59.7964E-03
            3401             578     41.5080E-03     59.7964E-03
            4058             578     41.5080E-03     59.7964E-03
            3402             579     43.9428E-03     60.6595E-03
            4059             579     43.9428E-03     60.6595E-03
            3403             579     43.9428E-03     60.6595E-03
            4058             579     43.9428E-03     60.6595E-03
            3404             580     46.3659E-03     61.4342E-03
            3403             580     46.3659E-03     61.4342E-03
            4060             580     46.3659E-03     61.4342E-03
            4059             580     46.3659E-03     61.4342E-03
            4061             581     48.6663E-03     62.1163E-03
            3404             581     48.6663E-03     62.1163E-03
            3405             581     48.6663E-03     62.1163E-03
            4060             581     48.6663E-03     62.1163E-03
            3405             582     51.0041E-03     62.6775E-03
            4062             582     51.0041E-03     62.6775E-03
            4061             582     51.0041E-03     62.6775E-03
            3406             582     51.0041E-03     62.6775E-03
            3407             583     53.1272E-03     63.1124E-03
            4063             583     53.1272E-03     63.1124E-03
            4062             583     53.1272E-03     63.1124E-03
            3406             583     53.1272E-03     63.1124E-03
            3408             584     55.6563E-03     63.6365E-03
            4063             584     55.6563E-03     63.6365E-03
            3407             584     55.6563E-03     63.6365E-03
            4064             584     55.6563E-03     63.6365E-03
            3409             585     58.0366E-03     64.4450E-03
            4065             585     58.0366E-03     64.4450E-03
            4064             585     58.0366E-03     64.4450E-03
            3408             585     58.0366E-03     64.4450E-03
            3409             586     63.6633E-03     70.1804E-03
            4066             586     63.6633E-03     70.1804E-03
            3410             586     63.6633E-03     70.1804E-03
            4065             586     63.6633E-03     70.1804E-03
            3500             587     62.2697E-03     60.9506E-03
            5864             587     62.2697E-03     60.9506E-03
            5863             587     62.2697E-03     60.9506E-03
            3499             587     62.2697E-03     60.9506E-03
            5863             588     60.6305E-03     58.5297E-03
            5862             588     60.6305E-03     58.5297E-03
            3499             588     60.6305E-03     58.5297E-03
            3498             588     60.6305E-03     58.5297E-03
            3498             589     58.4723E-03     55.6973E-03
            3497             589     58.4723E-03     55.6973E-03
            5861             589     58.4723E-03     55.6973E-03
            5862             589     58.4723E-03     55.6973E-03
            5861             590     56.1333E-03     52.6543E-03
            3496             590     56.1333E-03     52.6543E-03
            5860             590     56.1333E-03     52.6543E-03
            3497             590     56.1333E-03     52.6543E-03
            3495             591     53.7423E-03     49.4829E-03
            3496             591     53.7423E-03     49.4829E-03
            5860             591     53.7423E-03     49.4829E-03
            5859             591     53.7423E-03     49.4829E-03
            3495             592     51.3169E-03     46.2743E-03
            5859             592     51.3169E-03     46.2743E-03
            5858             592     51.3169E-03     46.2743E-03
            3494             592     51.3169E-03     46.2743E-03
            5857             593     48.8822E-03     43.0215E-03
            3493             593     48.8822E-03     43.0215E-03
            5858             593     48.8822E-03     43.0215E-03
            3494             593     48.8822E-03     43.0215E-03
            3493             594     46.4636E-03     39.7948E-03
            5857             594     46.4636E-03     39.7948E-03
            5856             594     46.4636E-03     39.7948E-03
            3492             594     46.4636E-03     39.7948E-03
            5856             595     44.0015E-03     36.5085E-03
            5855             595     44.0015E-03     36.5085E-03
            3492             595     44.0015E-03     36.5085E-03
            3491             595     44.0015E-03     36.5085E-03
            5855             596     41.5838E-03     33.2714E-03
            3490             596     41.5838E-03     33.2714E-03
            3491             596     41.5838E-03     33.2714E-03
            5854             596     41.5838E-03     33.2714E-03
            5854             597     39.0571E-03     29.9331E-03
            3489             597     39.0571E-03     29.9331E-03
            5853             597     39.0571E-03     29.9331E-03
            3490             597     39.0571E-03     29.9331E-03
            3489             598     36.5690E-03     26.5774E-03
            5852             598     36.5690E-03     26.5774E-03
            5853             598     36.5690E-03     26.5774E-03
            3488             598     36.5690E-03     26.5774E-03
            5851             599     33.7609E-03     22.9801E-03
            5852             599     33.7609E-03     22.9801E-03
            3488             599     33.7609E-03     22.9801E-03
            3487             599     33.7609E-03     22.9801E-03
            3487             600     30.4386E-03     18.8792E-03
            3486             600     30.4386E-03     18.8792E-03
            5850             600     30.4386E-03     18.8792E-03
            5851             600     30.4386E-03     18.8792E-03
            5850             601     26.1722E-03     14.8033E-03
            5849             601     26.1722E-03     14.8033E-03
            3485             601     26.1722E-03     14.8033E-03
            3486             601     26.1722E-03     14.8033E-03
            5848             602     19.8263E-03     13.7922E-03
            3485             602     19.8263E-03     13.7922E-03
            5849             602     19.8263E-03     13.7922E-03
            3484             602     19.8263E-03     13.7922E-03
            3484             603     19.1999E-03     31.3834E-03
            5847             603     19.1999E-03     31.3834E-03
            5848             603     19.1999E-03     31.3834E-03
            3483             603     19.1999E-03     31.3834E-03
            3465             604     56.1379E-03     77.4423E-03
            3483             604     56.1379E-03     77.4423E-03
            3465             605     67.3305E-03     57.2583E-03
            3447             605     67.3305E-03     57.2583E-03
            3429             606     66.7524E-03     60.8936E-03
            3447             606     66.7524E-03     60.8936E-03
            3411             607     83.8724E-03     77.1855E-03
            3429             607     83.8724E-03     77.1855E-03
            3393             608     96.4983E-03     114.453E-03
            3411             608     96.4983E-03     114.453E-03
            5865             692     1.59714E-03     2.47339E-03
            5847             692     1.59714E-03     2.47339E-03
            5883             693     1.35474E-03     2.74844E-03
            5865             693     1.35474E-03     2.74844E-03
            5901             694     1.11877E-03     2.34593E-03
            5883             694     1.11877E-03     2.34593E-03
            5919             695     2.34369E-03     2.65440E-03
            5901             695     2.34369E-03     2.65440E-03
            5919             696     3.82777E-03     3.80717E-03
            5937             696     3.82777E-03     3.80717E-03
            5937             697     5.24983E-03     5.21238E-03
            5955             697     5.24983E-03     5.21238E-03
            5973             698     6.70738E-03     6.49610E-03
            5955             698     6.70738E-03     6.49610E-03
            5973             699     8.10097E-03     8.15153E-03
            5991             699     8.10097E-03     8.15153E-03
            6009             700     9.51924E-03     9.47543E-03
            5991             700     9.51924E-03     9.47543E-03
            6027             701     11.2106E-03     11.5563E-03
            6009             701     11.2106E-03     11.5563E-03
            6027             702     11.9990E-03     14.1304E-03
            6045             702     11.9990E-03     14.1304E-03
            6045             703     6.18175E-03     7.96972E-03
            6063             703     6.18175E-03     7.96972E-03
            6081             704     863.825E-06     1.32299E-03
            6063             704     863.825E-06     1.32299E-03
            6099             705     1.82817E-03     1.90296E-03
            6081             705     1.82817E-03     1.90296E-03
            6117             706     2.85670E-03     2.69709E-03
            6099             706     2.85670E-03     2.69709E-03
            6117             707     3.77435E-03     3.56048E-03
            6135             707     3.77435E-03     3.56048E-03
            6153             708     4.67037E-03     4.38480E-03
            6135             708     4.67037E-03     4.38480E-03
            6153             709     5.48055E-03     5.26155E-03
            6171             709     5.48055E-03     5.26155E-03
            6189             710     6.31711E-03     6.03031E-03
            6171             710     6.31711E-03     6.03031E-03
            6207             711     7.11742E-03     7.02879E-03
            6189             711     7.11742E-03     7.02879E-03
            6225             712     7.92447E-03     7.80188E-03
            6207             712     7.92447E-03     7.80188E-03
            6243             713     8.95328E-03     9.10729E-03
            6225             713     8.95328E-03     9.10729E-03
            6243             714     9.26465E-03     10.8332E-03
            6261             714     9.26465E-03     10.8332E-03
            6261             715     5.50397E-03     6.85832E-03
            6279             715     5.50397E-03     6.85832E-03
            6279             716     2.35678E-03     2.53858E-03
            6297             716     2.35678E-03     2.53858E-03
            6297             717     3.04422E-03     2.80698E-03
            6315             717     3.04422E-03     2.80698E-03
            6333             718     3.52544E-03     3.23316E-03
            6315             718     3.52544E-03     3.23316E-03
            6333             719     4.01200E-03     3.67148E-03
            6351             719     4.01200E-03     3.67148E-03
            6351             720     4.43893E-03     4.11273E-03
            6369             720     4.43893E-03     4.11273E-03
            6369             721     4.86184E-03     4.51033E-03
            6387             721     4.86184E-03     4.51033E-03
            6405             722     5.26233E-03     5.02644E-03
            6387             722     5.26233E-03     5.02644E-03
            6423             723     5.63288E-03     5.41106E-03
            6405             723     5.63288E-03     5.41106E-03
            6423             724     6.13927E-03     6.09284E-03
            6441             724     6.13927E-03     6.09284E-03
            6459             725     6.12071E-03     7.07466E-03
            6441             725     6.12071E-03     7.07466E-03
            6477             726     4.29824E-03     5.18663E-03
            6459             726     4.29824E-03     5.18663E-03
            6495             727     3.02945E-03     3.13196E-03
            6477             727     3.02945E-03     3.13196E-03
            6495             728     3.39682E-03     2.91871E-03
            6513             728     3.39682E-03     2.91871E-03
            6531             729     3.56334E-03     3.07865E-03
            6513             729     3.56334E-03     3.07865E-03
            6531             730     3.34535E-03     3.63031E-03
            6549             730     3.34535E-03     3.63031E-03
            5067             748     1.76007E-03     1.96742E-03
            6550             748     1.76007E-03     1.96742E-03
            6549             748     1.76007E-03     1.96742E-03
            5068             748     1.76007E-03     1.96742E-03
            5068             749     1.91445E-03     1.90742E-03
            6551             749     1.91445E-03     1.90742E-03
            6550             749     1.91445E-03     1.90742E-03
            5069             749     1.91445E-03     1.90742E-03
            6551             750     1.98396E-03     1.89062E-03
            6552             750     1.98396E-03     1.89062E-03
            5070             750     1.98396E-03     1.89062E-03
            5069             750     1.98396E-03     1.89062E-03
            6553             751     2.05148E-03     1.91929E-03
            5071             751     2.05148E-03     1.91929E-03
            5070             751     2.05148E-03     1.91929E-03
            6552             751     2.05148E-03     1.91929E-03
            5072             752     2.11818E-03     1.94464E-03
            6553             752     2.11818E-03     1.94464E-03
            5071             752     2.11818E-03     1.94464E-03
            6554             752     2.11818E-03     1.94464E-03
            5072             753     2.19344E-03     1.98138E-03
            6554             753     2.19344E-03     1.98138E-03
            5073             753     2.19344E-03     1.98138E-03
            6555             753     2.19344E-03     1.98138E-03
            5073             754     2.27453E-03     2.02781E-03
            6556             754     2.27453E-03     2.02781E-03
            6555             754     2.27453E-03     2.02781E-03
            5074             754     2.27453E-03     2.02781E-03
            6556             755     2.36162E-03     2.08141E-03
            6557             755     2.36162E-03     2.08141E-03
            5074             755     2.36162E-03     2.08141E-03
            5075             755     2.36162E-03     2.08141E-03
            6558             756     2.45270E-03     2.14544E-03
            5075             756     2.45270E-03     2.14544E-03
            6557             756     2.45270E-03     2.14544E-03
            5076             756     2.45270E-03     2.14544E-03
            5076             757     2.54752E-03     2.21116E-03
            6558             757     2.54752E-03     2.21116E-03
            6559             757     2.54752E-03     2.21116E-03
            5077             757     2.54752E-03     2.21116E-03
            5077             758     2.64299E-03     2.28550E-03
            5078             758     2.64299E-03     2.28550E-03
            6559             758     2.64299E-03     2.28550E-03
            6560             758     2.64299E-03     2.28550E-03
            5078             759     2.73416E-03     2.34978E-03
            5079             759     2.73416E-03     2.34978E-03
            6560             759     2.73416E-03     2.34978E-03
            6561             759     2.73416E-03     2.34978E-03
            6561             760     2.81190E-03     2.40451E-03
            5079             760     2.81190E-03     2.40451E-03
            6562             760     2.81190E-03     2.40451E-03
            5080             760     2.81190E-03     2.40451E-03
            5080             761     2.84354E-03     2.41652E-03
            5081             761     2.84354E-03     2.41652E-03
            6563             761     2.84354E-03     2.41652E-03
            6562             761     2.84354E-03     2.41652E-03
            5082             762     2.71915E-03     2.26737E-03
            6563             762     2.71915E-03     2.26737E-03
            5081             762     2.71915E-03     2.26737E-03
            6564             762     2.71915E-03     2.26737E-03
            6565             763     2.42560E-03     1.90487E-03
            5083             763     2.42560E-03     1.90487E-03
            5082             763     2.42560E-03     1.90487E-03
            6564             763     2.42560E-03     1.90487E-03
            6566             764     1.53843E-03     1.48735E-03
            6565             764     1.53843E-03     1.48735E-03
            5084             764     1.53843E-03     1.48735E-03
            5083             764     1.53843E-03     1.48735E-03
            5084             765     572.569E-06     602.467E-06
            5102             765     572.569E-06     602.467E-06
            5120             766     426.628E-06     421.158E-06
            5102             766     426.628E-06     421.158E-06
            5120             767     277.204E-06     279.645E-06
            5138             767     277.204E-06     279.645E-06
            5156             768     154.056E-06     137.597E-06
            5138             768     154.056E-06     137.597E-06
            5174             769     96.2626E-06     150.545E-06
            5156             769     96.2626E-06     150.545E-06
            5173             770     161.242E-06     181.783E-06
            5174             770     161.242E-06     181.783E-06
            5172             771     235.216E-06     185.307E-06
            5173             771     235.216E-06     185.307E-06
            5172             772     294.836E-06     251.946E-06
            5171             772     294.836E-06     251.946E-06
            5170             773     332.530E-06     291.313E-06
            5171             773     332.530E-06     291.313E-06
            5169             774     345.131E-06     308.487E-06
            5170             774     345.131E-06     308.487E-06
            5168             775     351.126E-06     315.333E-06
            5169             775     351.126E-06     315.333E-06
            5168             776     348.597E-06     315.617E-06
            5167             776     348.597E-06     315.617E-06
            5167             777     345.677E-06     314.653E-06
            5166             777     345.677E-06     314.653E-06
            5166             778     340.329E-06     311.607E-06
            5165             778     340.329E-06     311.607E-06
            5164             779     335.491E-06     309.228E-06
            5165             779     335.491E-06     309.228E-06
            5163             780     330.098E-06     306.332E-06
            5164             780     330.098E-06     306.332E-06
            5162             781     325.100E-06     304.446E-06
            5163             781     325.100E-06     304.446E-06
            5162             782     320.426E-06     302.338E-06
            5161             782     320.426E-06     302.338E-06
            5161             783     315.566E-06     301.527E-06
            5160             783     315.566E-06     301.527E-06
            5159             784     310.642E-06     300.804E-06
            5160             784     310.642E-06     300.804E-06
            5159             785     304.738E-06     303.698E-06
            5158             785     304.738E-06     303.698E-06
            5157             786     284.429E-06     317.194E-06
            5158             786     284.429E-06     317.194E-06
            5157             787     290.143E-06     312.655E-06
            5139             787     290.143E-06     312.655E-06
            5121             788     305.308E-06     279.228E-06
            5139             788     305.308E-06     279.228E-06
            5103             789     293.707E-06     258.452E-06
            5121             789     293.707E-06     258.452E-06
            5085             790     286.352E-06     258.619E-06
            5103             790     286.352E-06     258.619E-06
            5085             791     254.996E-06     269.744E-06
            5067             791     254.996E-06     269.744E-06
             876            1518     2.74474E-03     2.98741E-03
             858            1518     2.74474E-03     2.98741E-03
             875            1518     2.74474E-03     2.98741E-03
             857            1518     2.74474E-03     2.98741E-03
             876            1519     2.84430E-03     2.90915E-03
             877            1519     2.84430E-03     2.90915E-03
             859            1519     2.84430E-03     2.90915E-03
             858            1519     2.84430E-03     2.90915E-03
             878            1520     2.96743E-03     2.89216E-03
             877            1520     2.96743E-03     2.89216E-03
             859            1520     2.96743E-03     2.89216E-03
             860            1520     2.96743E-03     2.89216E-03
             879            1521     3.07950E-03     2.93423E-03
             860            1521     3.07950E-03     2.93423E-03
             878            1521     3.07950E-03     2.93423E-03
             861            1521     3.07950E-03     2.93423E-03
             879            1522     3.19758E-03     3.00243E-03
             862            1522     3.19758E-03     3.00243E-03
             861            1522     3.19758E-03     3.00243E-03
             880            1522     3.19758E-03     3.00243E-03
             880            1523     3.32807E-03     3.09281E-03
             863            1523     3.32807E-03     3.09281E-03
             881            1523     3.32807E-03     3.09281E-03
             862            1523     3.32807E-03     3.09281E-03
             882            1524     3.46902E-03     3.19807E-03
             881            1524     3.46902E-03     3.19807E-03
             864            1524     3.46902E-03     3.19807E-03
             863            1524     3.46902E-03     3.19807E-03
             864            1525     3.62009E-03     3.31725E-03
             865            1525     3.62009E-03     3.31725E-03
             883            1525     3.62009E-03     3.31725E-03
             882            1525     3.62009E-03     3.31725E-03
             866            1526     3.77649E-03     3.44486E-03
             865            1526     3.77649E-03     3.44486E-03
             884            1526     3.77649E-03     3.44486E-03
             883            1526     3.77649E-03     3.44486E-03
             866            1527     3.93465E-03     3.57545E-03
             867            1527     3.93465E-03     3.57545E-03
             884            1527     3.93465E-03     3.57545E-03
             885            1527     3.93465E-03     3.57545E-03
             867            1528     4.08302E-03     3.69969E-03
             886            1528     4.08302E-03     3.69969E-03
             885            1528     4.08302E-03     3.69969E-03
             868            1528     4.08302E-03     3.69969E-03
             868            1529     4.20923E-03     3.79774E-03
             887            1529     4.20923E-03     3.79774E-03
             869            1529     4.20923E-03     3.79774E-03
             886            1529     4.20923E-03     3.79774E-03
             887            1530     4.27558E-03     3.84070E-03
             888            1530     4.27558E-03     3.84070E-03
             869            1530     4.27558E-03     3.84070E-03
             870            1530     4.27558E-03     3.84070E-03
             889            1531     4.22326E-03     3.75787E-03
             870            1531     4.22326E-03     3.75787E-03
             871            1531     4.22326E-03     3.75787E-03
             888            1531     4.22326E-03     3.75787E-03
             890            1532     3.95854E-03     3.45118E-03
             871            1532     3.95854E-03     3.45118E-03
             889            1532     3.95854E-03     3.45118E-03
             872            1532     3.95854E-03     3.45118E-03
             873            1533     3.23007E-03     2.71097E-03
             891            1533     3.23007E-03     2.71097E-03
             872            1533     3.23007E-03     2.71097E-03
             890            1533     3.23007E-03     2.71097E-03
             892            1534     2.28163E-03     2.19788E-03
             874            1534     2.28163E-03     2.19788E-03
             891            1534     2.28163E-03     2.19788E-03
             873            1534     2.28163E-03     2.19788E-03
             875            1535     2.78635E-03     2.69003E-03
             876            1535     2.78635E-03     2.69003E-03
             894            1535     2.78635E-03     2.69003E-03
             893            1535     2.78635E-03     2.69003E-03
             876            1536     2.73344E-03     2.75755E-03
             894            1536     2.73344E-03     2.75755E-03
             895            1536     2.73344E-03     2.75755E-03
             877            1536     2.73344E-03     2.75755E-03
             896            1537     2.79276E-03     2.76620E-03
             877            1537     2.79276E-03     2.76620E-03
             895            1537     2.79276E-03     2.76620E-03
             878            1537     2.79276E-03     2.76620E-03
             897            1538     2.89581E-03     2.81243E-03
             878            1538     2.89581E-03     2.81243E-03
             896            1538     2.89581E-03     2.81243E-03
             879            1538     2.89581E-03     2.81243E-03
             898            1539     3.00775E-03     2.89798E-03
             897            1539     3.00775E-03     2.89798E-03
             879            1539     3.00775E-03     2.89798E-03
             880            1539     3.00775E-03     2.89798E-03
             881            1540     3.14053E-03     3.00431E-03
             899            1540     3.14053E-03     3.00431E-03
             898            1540     3.14053E-03     3.00431E-03
             880            1540     3.14053E-03     3.00431E-03
             899            1541     3.28978E-03     3.13345E-03
             881            1541     3.28978E-03     3.13345E-03
             882            1541     3.28978E-03     3.13345E-03
             900            1541     3.28978E-03     3.13345E-03
             900            1542     3.45459E-03     3.28044E-03
             883            1542     3.45459E-03     3.28044E-03
             882            1542     3.45459E-03     3.28044E-03
             901            1542     3.45459E-03     3.28044E-03
             884            1543     3.63388E-03     3.44413E-03
             902            1543     3.63388E-03     3.44413E-03
             883            1543     3.63388E-03     3.44413E-03
             901            1543     3.63388E-03     3.44413E-03
             903            1544     3.82492E-03     3.62140E-03
             902            1544     3.82492E-03     3.62140E-03
             885            1544     3.82492E-03     3.62140E-03
             884            1544     3.82492E-03     3.62140E-03
             904            1545     4.02588E-03     3.80937E-03
             885            1545     4.02588E-03     3.80937E-03
             886            1545     4.02588E-03     3.80937E-03
             903            1545     4.02588E-03     3.80937E-03
             905            1546     4.22088E-03     3.99369E-03
             886            1546     4.22088E-03     3.99369E-03
             887            1546     4.22088E-03     3.99369E-03
             904            1546     4.22088E-03     3.99369E-03
             887            1547     4.39590E-03     4.15694E-03
             905            1547     4.39590E-03     4.15694E-03
             906            1547     4.39590E-03     4.15694E-03
             888            1547     4.39590E-03     4.15694E-03
             889            1548     4.45919E-03     4.22599E-03
             906            1548     4.45919E-03     4.22599E-03
             907            1548     4.45919E-03     4.22599E-03
             888            1548     4.45919E-03     4.22599E-03
             890            1549     4.30349E-03     4.09473E-03
             908            1549     4.30349E-03     4.09473E-03
             889            1549     4.30349E-03     4.09473E-03
             907            1549     4.30349E-03     4.09473E-03
             909            1550     3.62125E-03     3.50611E-03
             890            1550     3.62125E-03     3.50611E-03
             891            1550     3.62125E-03     3.50611E-03
             908            1550     3.62125E-03     3.50611E-03
             910            1551     3.10195E-03     3.04623E-03
             891            1551     3.10195E-03     3.04623E-03
             909            1551     3.10195E-03     3.04623E-03
             892            1551     3.10195E-03     3.04623E-03
             893            1552     2.68000E-03     2.44749E-03
             894            1552     2.68000E-03     2.44749E-03
             912            1552     2.68000E-03     2.44749E-03
             911            1552     2.68000E-03     2.44749E-03
             894            1553     2.65718E-03     2.53493E-03
             912            1553     2.65718E-03     2.53493E-03
             913            1553     2.65718E-03     2.53493E-03
             895            1553     2.65718E-03     2.53493E-03
             914            1554     2.65575E-03     2.62743E-03
             896            1554     2.65575E-03     2.62743E-03
             895            1554     2.65575E-03     2.62743E-03
             913            1554     2.65575E-03     2.62743E-03
             915            1555     2.71856E-03     2.70747E-03
             914            1555     2.71856E-03     2.70747E-03
             896            1555     2.71856E-03     2.70747E-03
             897            1555     2.71856E-03     2.70747E-03
             898            1556     2.82583E-03     2.80656E-03
             897            1556     2.82583E-03     2.80656E-03
             915            1556     2.82583E-03     2.80656E-03
             916            1556     2.82583E-03     2.80656E-03
             898            1557     2.95785E-03     2.93263E-03
             899            1557     2.95785E-03     2.93263E-03
             916            1557     2.95785E-03     2.93263E-03
             917            1557     2.95785E-03     2.93263E-03
             899            1558     3.11332E-03     3.08265E-03
             900            1558     3.11332E-03     3.08265E-03
             918            1558     3.11332E-03     3.08265E-03
             917            1558     3.11332E-03     3.08265E-03
             901            1559     3.28875E-03     3.25434E-03
             900            1559     3.28875E-03     3.25434E-03
             918            1559     3.28875E-03     3.25434E-03
             919            1559     3.28875E-03     3.25434E-03
             902            1560     3.48412E-03     3.44660E-03
             901            1560     3.48412E-03     3.44660E-03
             919            1560     3.48412E-03     3.44660E-03
             920            1560     3.48412E-03     3.44660E-03
             903            1561     3.69818E-03     3.65844E-03
             921            1561     3.69818E-03     3.65844E-03
             902            1561     3.69818E-03     3.65844E-03
             920            1561     3.69818E-03     3.65844E-03
             903            1562     3.92844E-03     3.88675E-03
             921            1562     3.92844E-03     3.88675E-03
             922            1562     3.92844E-03     3.88675E-03
             904            1562     3.92844E-03     3.88675E-03
             922            1563     4.17178E-03     4.12979E-03
             923            1563     4.17178E-03     4.12979E-03
             905            1563     4.17178E-03     4.12979E-03
             904            1563     4.17178E-03     4.12979E-03
             906            1564     4.39606E-03     4.35908E-03
             924            1564     4.39606E-03     4.35908E-03
             923            1564     4.39606E-03     4.35908E-03
             905            1564     4.39606E-03     4.35908E-03
             907            1565     4.58317E-03     4.55061E-03
             925            1565     4.58317E-03     4.55061E-03
             906            1565     4.58317E-03     4.55061E-03
             924            1565     4.58317E-03     4.55061E-03
             926            1566     4.53383E-03     4.56715E-03
             908            1566     4.53383E-03     4.56715E-03
             925            1566     4.53383E-03     4.56715E-03
             907            1566     4.53383E-03     4.56715E-03
             908            1567     4.20595E-03     4.30730E-03
             926            1567     4.20595E-03     4.30730E-03
             909            1567     4.20595E-03     4.30730E-03
             927            1567     4.20595E-03     4.30730E-03
             909            1568     4.29687E-03     4.26886E-03
             927            1568     4.29687E-03     4.26886E-03
             928            1568     4.29687E-03     4.26886E-03
             910            1568     4.29687E-03     4.26886E-03
             912            1569     2.54113E-03     2.29974E-03
             911            1569     2.54113E-03     2.29974E-03
             930            1569     2.54113E-03     2.29974E-03
             929            1569     2.54113E-03     2.29974E-03
             912            1570     2.50663E-03     2.38418E-03
             930            1570     2.50663E-03     2.38418E-03
             913            1570     2.50663E-03     2.38418E-03
             931            1570     2.50663E-03     2.38418E-03
             932            1571     2.49887E-03     2.50214E-03
             931            1571     2.49887E-03     2.50214E-03
             914            1571     2.49887E-03     2.50214E-03
             913            1571     2.49887E-03     2.50214E-03
             932            1572     2.54567E-03     2.60772E-03
             915            1572     2.54567E-03     2.60772E-03
             933            1572     2.54567E-03     2.60772E-03
             914            1572     2.54567E-03     2.60772E-03
             933            1573     2.64459E-03     2.72427E-03
             916            1573     2.64459E-03     2.72427E-03
             934            1573     2.64459E-03     2.72427E-03
             915            1573     2.64459E-03     2.72427E-03
             917            1574     2.77536E-03     2.86933E-03
             934            1574     2.77536E-03     2.86933E-03
             916            1574     2.77536E-03     2.86933E-03
             935            1574     2.77536E-03     2.86933E-03
             935            1575     2.93208E-03     3.03674E-03
             918            1575     2.93208E-03     3.03674E-03
             917            1575     2.93208E-03     3.03674E-03
             936            1575     2.93208E-03     3.03674E-03
             936            1576     3.11304E-03     3.22690E-03
             919            1576     3.11304E-03     3.22690E-03
             918            1576     3.11304E-03     3.22690E-03
             937            1576     3.11304E-03     3.22690E-03
             919            1577     3.31410E-03     3.43584E-03
             938            1577     3.31410E-03     3.43584E-03
             920            1577     3.31410E-03     3.43584E-03
             937            1577     3.31410E-03     3.43584E-03
             920            1578     3.53562E-03     3.66374E-03
             921            1578     3.53562E-03     3.66374E-03
             939            1578     3.53562E-03     3.66374E-03
             938            1578     3.53562E-03     3.66374E-03
             939            1579     3.77358E-03     3.90884E-03
             922            1579     3.77358E-03     3.90884E-03
             940            1579     3.77358E-03     3.90884E-03
             921            1579     3.77358E-03     3.90884E-03
             922            1580     4.02652E-03     4.16733E-03
             941            1580     4.02652E-03     4.16733E-03
             940            1580     4.02652E-03     4.16733E-03
             923            1580     4.02652E-03     4.16733E-03
             923            1581     4.28460E-03     4.43665E-03
             924            1581     4.28460E-03     4.43665E-03
             942            1581     4.28460E-03     4.43665E-03
             941            1581     4.28460E-03     4.43665E-03
             943            1582     4.52131E-03     4.68596E-03
             924            1582     4.52131E-03     4.68596E-03
             925            1582     4.52131E-03     4.68596E-03
             942            1582     4.52131E-03     4.68596E-03
             926            1583     4.75821E-03     4.91714E-03
             925            1583     4.75821E-03     4.91714E-03
             944            1583     4.75821E-03     4.91714E-03
             943            1583     4.75821E-03     4.91714E-03
             944            1584     5.00003E-03     5.11605E-03
             945            1584     5.00003E-03     5.11605E-03
             926            1584     5.00003E-03     5.11605E-03
             927            1584     5.00003E-03     5.11605E-03
             928            1585     5.49063E-03     5.60498E-03
             945            1585     5.49063E-03     5.60498E-03
             946            1585     5.49063E-03     5.60498E-03
             927            1585     5.49063E-03     5.60498E-03
             948            1586     2.36337E-03     2.22931E-03
             947            1586     2.36337E-03     2.22931E-03
             929            1586     2.36337E-03     2.22931E-03
             930            1586     2.36337E-03     2.22931E-03
             949            1587     2.29455E-03     2.32526E-03
             931            1587     2.29455E-03     2.32526E-03
             930            1587     2.29455E-03     2.32526E-03
             948            1587     2.29455E-03     2.32526E-03
             949            1588     2.30605E-03     2.40222E-03
             932            1588     2.30605E-03     2.40222E-03
             950            1588     2.30605E-03     2.40222E-03
             931            1588     2.30605E-03     2.40222E-03
             950            1589     2.36798E-03     2.50888E-03
             933            1589     2.36798E-03     2.50888E-03
             932            1589     2.36798E-03     2.50888E-03
             951            1589     2.36798E-03     2.50888E-03
             934            1590     2.45907E-03     2.64848E-03
             952            1590     2.45907E-03     2.64848E-03
             933            1590     2.45907E-03     2.64848E-03
             951            1590     2.45907E-03     2.64848E-03
             935            1591     2.58603E-03     2.80788E-03
             952            1591     2.58603E-03     2.80788E-03
             934            1591     2.58603E-03     2.80788E-03
             953            1591     2.58603E-03     2.80788E-03
             936            1592     2.74232E-03     2.99154E-03
             954            1592     2.74232E-03     2.99154E-03
             935            1592     2.74232E-03     2.99154E-03
             953            1592     2.74232E-03     2.99154E-03
             937            1593     2.92192E-03     3.19221E-03
             954            1593     2.92192E-03     3.19221E-03
             955            1593     2.92192E-03     3.19221E-03
             936            1593     2.92192E-03     3.19221E-03
             956            1594     3.12239E-03     3.41002E-03
             955            1594     3.12239E-03     3.41002E-03
             938            1594     3.12239E-03     3.41002E-03
             937            1594     3.12239E-03     3.41002E-03
             938            1595     3.33822E-03     3.63941E-03
             957            1595     3.33822E-03     3.63941E-03
             939            1595     3.33822E-03     3.63941E-03
             956            1595     3.33822E-03     3.63941E-03
             939            1596     3.56956E-03     3.88254E-03
             957            1596     3.56956E-03     3.88254E-03
             958            1596     3.56956E-03     3.88254E-03
             940            1596     3.56956E-03     3.88254E-03
             941            1597     3.80939E-03     4.13470E-03
             940            1597     3.80939E-03     4.13470E-03
             959            1597     3.80939E-03     4.13470E-03
             958            1597     3.80939E-03     4.13470E-03
             941            1598     4.07162E-03     4.40663E-03
             959            1598     4.07162E-03     4.40663E-03
             960            1598     4.07162E-03     4.40663E-03
             942            1598     4.07162E-03     4.40663E-03
             942            1599     4.35193E-03     4.70394E-03
             960            1599     4.35193E-03     4.70394E-03
             943            1599     4.35193E-03     4.70394E-03
             961            1599     4.35193E-03     4.70394E-03
             943            1600     4.76188E-03     5.08629E-03
             944            1600     4.76188E-03     5.08629E-03
             962            1600     4.76188E-03     5.08629E-03
             961            1600     4.76188E-03     5.08629E-03
             945            1601     5.59172E-03     5.78663E-03
             963            1601     5.59172E-03     5.78663E-03
             962            1601     5.59172E-03     5.78663E-03
             944            1601     5.59172E-03     5.78663E-03
             946            1602     6.82686E-03     6.80758E-03
             963            1602     6.82686E-03     6.80758E-03
             964            1602     6.82686E-03     6.80758E-03
             945            1602     6.82686E-03     6.80758E-03
             948            1603     2.09772E-03     2.23718E-03
             966            1603     2.09772E-03     2.23718E-03
             965            1603     2.09772E-03     2.23718E-03
             947            1603     2.09772E-03     2.23718E-03
             948            1604     2.08775E-03     2.23673E-03
             949            1604     2.08775E-03     2.23673E-03
             967            1604     2.08775E-03     2.23673E-03
             966            1604     2.08775E-03     2.23673E-03
             950            1605     2.11905E-03     2.29895E-03
             968            1605     2.11905E-03     2.29895E-03
             967            1605     2.11905E-03     2.29895E-03
             949            1605     2.11905E-03     2.29895E-03
             950            1606     2.17556E-03     2.41998E-03
             968            1606     2.17556E-03     2.41998E-03
             951            1606     2.17556E-03     2.41998E-03
             969            1606     2.17556E-03     2.41998E-03
             970            1607     2.26374E-03     2.57246E-03
             952            1607     2.26374E-03     2.57246E-03
             969            1607     2.26374E-03     2.57246E-03
             951            1607     2.26374E-03     2.57246E-03
             953            1608     2.38683E-03     2.74938E-03
             971            1608     2.38683E-03     2.74938E-03
             970            1608     2.38683E-03     2.74938E-03
             952            1608     2.38683E-03     2.74938E-03
             954            1609     2.53954E-03     2.94347E-03
             972            1609     2.53954E-03     2.94347E-03
             971            1609     2.53954E-03     2.94347E-03
             953            1609     2.53954E-03     2.94347E-03
             955            1610     2.71670E-03     3.15395E-03
             972            1610     2.71670E-03     3.15395E-03
             954            1610     2.71670E-03     3.15395E-03
             973            1610     2.71670E-03     3.15395E-03
             973            1611     2.91257E-03     3.37411E-03
             956            1611     2.91257E-03     3.37411E-03
             974            1611     2.91257E-03     3.37411E-03
             955            1611     2.91257E-03     3.37411E-03
             975            1612     3.12215E-03     3.60444E-03
             974            1612     3.12215E-03     3.60444E-03
             956            1612     3.12215E-03     3.60444E-03
             957            1612     3.12215E-03     3.60444E-03
             957            1613     3.34022E-03     3.83767E-03
             975            1613     3.34022E-03     3.83767E-03
             976            1613     3.34022E-03     3.83767E-03
             958            1613     3.34022E-03     3.83767E-03
             976            1614     3.57210E-03     4.08394E-03
             959            1614     3.57210E-03     4.08394E-03
             958            1614     3.57210E-03     4.08394E-03
             977            1614     3.57210E-03     4.08394E-03
             959            1615     3.81604E-03     4.34202E-03
             960            1615     3.81604E-03     4.34202E-03
             977            1615     3.81604E-03     4.34202E-03
             978            1615     3.81604E-03     4.34202E-03
             960            1616     4.13975E-03     4.67511E-03
             979            1616     4.13975E-03     4.67511E-03
             978            1616     4.13975E-03     4.67511E-03
             961            1616     4.13975E-03     4.67511E-03
             979            1617     4.59170E-03     5.14692E-03
             980            1617     4.59170E-03     5.14692E-03
             962            1617     4.59170E-03     5.14692E-03
             961            1617     4.59170E-03     5.14692E-03
             963            1618     5.53921E-03     6.09799E-03
             981            1618     5.53921E-03     6.09799E-03
             962            1618     5.53921E-03     6.09799E-03
             980            1618     5.53921E-03     6.09799E-03
             964            1619     7.60717E-03     8.07264E-03
             963            1619     7.60717E-03     8.07264E-03
             981            1619     7.60717E-03     8.07264E-03
             982            1619     7.60717E-03     8.07264E-03
             966            1620     3.53773E-03     4.00724E-03
             984            1620     3.53773E-03     4.00724E-03
             965            1620     3.53773E-03     4.00724E-03
             983            1620     3.53773E-03     4.00724E-03
             966            1621     3.82006E-03     3.92322E-03
             985            1621     3.82006E-03     3.92322E-03
             967            1621     3.82006E-03     3.92322E-03
             984            1621     3.82006E-03     3.92322E-03
             967            1622     3.98954E-03     4.02094E-03
             985            1622     3.98954E-03     4.02094E-03
             968            1622     3.98954E-03     4.02094E-03
             986            1622     3.98954E-03     4.02094E-03
             969            1623     4.18954E-03     4.23268E-03
             968            1623     4.18954E-03     4.23268E-03
             987            1623     4.18954E-03     4.23268E-03
             986            1623     4.18954E-03     4.23268E-03
             988            1624     4.42540E-03     4.47827E-03
             970            1624     4.42540E-03     4.47827E-03
             969            1624     4.42540E-03     4.47827E-03
             987            1624     4.42540E-03     4.47827E-03
             989            1625     4.69873E-03     4.76786E-03
             988            1625     4.69873E-03     4.76786E-03
             970            1625     4.69873E-03     4.76786E-03
             971            1625     4.69873E-03     4.76786E-03
             972            1626     4.99780E-03     5.07549E-03
             989            1626     4.99780E-03     5.07549E-03
             990            1626     4.99780E-03     5.07549E-03
             971            1626     4.99780E-03     5.07549E-03
             972            1627     5.31552E-03     5.39745E-03
             973            1627     5.31552E-03     5.39745E-03
             990            1627     5.31552E-03     5.39745E-03
             991            1627     5.31552E-03     5.39745E-03
             974            1628     5.63822E-03     5.71817E-03
             991            1628     5.63822E-03     5.71817E-03
             992            1628     5.63822E-03     5.71817E-03
             973            1628     5.63822E-03     5.71817E-03
             975            1629     5.95622E-03     6.03014E-03
             974            1629     5.95622E-03     6.03014E-03
             992            1629     5.95622E-03     6.03014E-03
             993            1629     5.95622E-03     6.03014E-03
             994            1630     6.25416E-03     6.31475E-03
             975            1630     6.25416E-03     6.31475E-03
             976            1630     6.25416E-03     6.31475E-03
             993            1630     6.25416E-03     6.31475E-03
             995            1631     6.52461E-03     6.56689E-03
             977            1631     6.52461E-03     6.56689E-03
             994            1631     6.52461E-03     6.56689E-03
             976            1631     6.52461E-03     6.56689E-03
             995            1632     6.75164E-03     6.76527E-03
             978            1632     6.75164E-03     6.76527E-03
             996            1632     6.75164E-03     6.76527E-03
             977            1632     6.75164E-03     6.76527E-03
             997            1633     6.94465E-03     6.92417E-03
             979            1633     6.94465E-03     6.92417E-03
             996            1633     6.94465E-03     6.92417E-03
             978            1633     6.94465E-03     6.92417E-03
             997            1634     7.11542E-03     7.05191E-03
             998            1634     7.11542E-03     7.05191E-03
             980            1634     7.11542E-03     7.05191E-03
             979            1634     7.11542E-03     7.05191E-03
             980            1635     7.29381E-03     7.22671E-03
             981            1635     7.29381E-03     7.22671E-03
             999            1635     7.29381E-03     7.22671E-03
             998            1635     7.29381E-03     7.22671E-03
             982            1636     7.77901E-03     7.89865E-03
            1000            1636     7.77901E-03     7.89865E-03
             999            1636     7.77901E-03     7.89865E-03
             981            1636     7.77901E-03     7.89865E-03
             983            1637     5.04755E-03     5.63692E-03
             984            1637     5.04755E-03     5.63692E-03
            1002            1637     5.04755E-03     5.63692E-03
            1001            1637     5.04755E-03     5.63692E-03
            1002            1638     5.33678E-03     5.55590E-03
             985            1638     5.33678E-03     5.55590E-03
            1003            1638     5.33678E-03     5.55590E-03
             984            1638     5.33678E-03     5.55590E-03
            1003            1639     5.70965E-03     5.66316E-03
             986            1639     5.70965E-03     5.66316E-03
            1004            1639     5.70965E-03     5.66316E-03
             985            1639     5.70965E-03     5.66316E-03
             987            1640     6.09889E-03     5.94306E-03
             986            1640     6.09889E-03     5.94306E-03
            1005            1640     6.09889E-03     5.94306E-03
            1004            1640     6.09889E-03     5.94306E-03
             988            1641     6.52514E-03     6.30813E-03
             987            1641     6.52514E-03     6.30813E-03
            1005            1641     6.52514E-03     6.30813E-03
            1006            1641     6.52514E-03     6.30813E-03
            1007            1642     6.99238E-03     6.73393E-03
             989            1642     6.99238E-03     6.73393E-03
            1006            1642     6.99238E-03     6.73393E-03
             988            1642     6.99238E-03     6.73393E-03
             990            1643     7.48488E-03     7.19742E-03
            1007            1643     7.48488E-03     7.19742E-03
            1008            1643     7.48488E-03     7.19742E-03
             989            1643     7.48488E-03     7.19742E-03
             991            1644     7.99420E-03     7.67868E-03
            1009            1644     7.99420E-03     7.67868E-03
            1008            1644     7.99420E-03     7.67868E-03
             990            1644     7.99420E-03     7.67868E-03
             991            1645     8.50191E-03     8.16119E-03
             992            1645     8.50191E-03     8.16119E-03
            1010            1645     8.50191E-03     8.16119E-03
            1009            1645     8.50191E-03     8.16119E-03
             992            1646     8.99287E-03     8.62258E-03
            1011            1646     8.99287E-03     8.62258E-03
             993            1646     8.99287E-03     8.62258E-03
            1010            1646     8.99287E-03     8.62258E-03
            1011            1647     9.44458E-03     9.04333E-03
             994            1647     9.44458E-03     9.04333E-03
            1012            1647     9.44458E-03     9.04333E-03
             993            1647     9.44458E-03     9.04333E-03
             994            1648     9.82811E-03     9.38970E-03
            1012            1648     9.82811E-03     9.38970E-03
             995            1648     9.82811E-03     9.38970E-03
            1013            1648     9.82811E-03     9.38970E-03
            1013            1649     10.1112E-03     9.62951E-03
             996            1649     10.1112E-03     9.62951E-03
            1014            1649     10.1112E-03     9.62951E-03
             995            1649     10.1112E-03     9.62951E-03
             996            1650     10.2269E-03     9.70216E-03
            1015            1650     10.2269E-03     9.70216E-03
            1014            1650     10.2269E-03     9.70216E-03
             997            1650     10.2269E-03     9.70216E-03
            1015            1651     10.1117E-03     9.54104E-03
             997            1651     10.1117E-03     9.54104E-03
            1016            1651     10.1117E-03     9.54104E-03
             998            1651     10.1117E-03     9.54104E-03
             998            1652     9.54354E-03     8.97430E-03
            1017            1652     9.54354E-03     8.97430E-03
            1016            1652     9.54354E-03     8.97430E-03
             999            1652     9.54354E-03     8.97430E-03
             999            1653     8.47339E-03     7.97066E-03
            1018            1653     8.47339E-03     7.97066E-03
            1017            1653     8.47339E-03     7.97066E-03
            1000            1653     8.47339E-03     7.97066E-03
            1002            1654     4.85524E-03     5.02780E-03
            1019            1654     4.85524E-03     5.02780E-03
            1001            1654     4.85524E-03     5.02780E-03
            1020            1654     4.85524E-03     5.02780E-03
            1020            1655     4.92679E-03     5.21984E-03
            1003            1655     4.92679E-03     5.21984E-03
            1021            1655     4.92679E-03     5.21984E-03
            1002            1655     4.92679E-03     5.21984E-03
            1021            1656     5.27376E-03     5.38063E-03
            1022            1656     5.27376E-03     5.38063E-03
            1003            1656     5.27376E-03     5.38063E-03
            1004            1656     5.27376E-03     5.38063E-03
            1022            1657     5.72724E-03     5.68360E-03
            1005            1657     5.72724E-03     5.68360E-03
            1023            1657     5.72724E-03     5.68360E-03
            1004            1657     5.72724E-03     5.68360E-03
            1006            1658     6.22540E-03     6.10677E-03
            1023            1658     6.22540E-03     6.10677E-03
            1024            1658     6.22540E-03     6.10677E-03
            1005            1658     6.22540E-03     6.10677E-03
            1006            1659     6.77152E-03     6.60439E-03
            1025            1659     6.77152E-03     6.60439E-03
            1007            1659     6.77152E-03     6.60439E-03
            1024            1659     6.77152E-03     6.60439E-03
            1007            1660     7.35122E-03     7.15595E-03
            1025            1660     7.35122E-03     7.15595E-03
            1026            1660     7.35122E-03     7.15595E-03
            1008            1660     7.35122E-03     7.15595E-03
            1026            1661     7.95368E-03     7.73866E-03
            1009            1661     7.95368E-03     7.73866E-03
            1027            1661     7.95368E-03     7.73866E-03
            1008            1661     7.95368E-03     7.73866E-03
            1009            1662     8.56651E-03     8.33534E-03
            1028            1662     8.56651E-03     8.33534E-03
            1027            1662     8.56651E-03     8.33534E-03
            1010            1662     8.56651E-03     8.33534E-03
            1028            1663     9.17069E-03     8.92739E-03
            1029            1663     9.17069E-03     8.92739E-03
            1011            1663     9.17069E-03     8.92739E-03
            1010            1663     9.17069E-03     8.92739E-03
            1030            1664     9.74574E-03     9.49102E-03
            1011            1664     9.74574E-03     9.49102E-03
            1012            1664     9.74574E-03     9.49102E-03
            1029            1664     9.74574E-03     9.49102E-03
            1013            1665     10.2577E-03     9.99761E-03
            1031            1665     10.2577E-03     9.99761E-03
            1012            1665     10.2577E-03     9.99761E-03
            1030            1665     10.2577E-03     9.99761E-03
            1014            1666     10.6589E-03     10.4035E-03
            1032            1666     10.6589E-03     10.4035E-03
            1013            1666     10.6589E-03     10.4035E-03
            1031            1666     10.6589E-03     10.4035E-03
            1014            1667     10.8796E-03     10.6464E-03
            1032            1667     10.8796E-03     10.6464E-03
            1033            1667     10.8796E-03     10.6464E-03
            1015            1667     10.8796E-03     10.6464E-03
            1033            1668     10.8144E-03     10.6469E-03
            1016            1668     10.8144E-03     10.6469E-03
            1034            1668     10.8144E-03     10.6469E-03
            1015            1668     10.8144E-03     10.6469E-03
            1034            1669     10.2861E-03     10.2413E-03
            1035            1669     10.2861E-03     10.2413E-03
            1017            1669     10.2861E-03     10.2413E-03
            1016            1669     10.2861E-03     10.2413E-03
            1035            1670     9.85655E-03     9.84156E-03
            1018            1670     9.85655E-03     9.84156E-03
            1036            1670     9.85655E-03     9.84156E-03
            1017            1670     9.85655E-03     9.84156E-03
            1038            1671     4.51862E-03     4.43455E-03
            1020            1671     4.51862E-03     4.43455E-03
            1019            1671     4.51862E-03     4.43455E-03
            1037            1671     4.51862E-03     4.43455E-03
            1039            1672     4.66157E-03     4.73691E-03
            1038            1672     4.66157E-03     4.73691E-03
            1020            1672     4.66157E-03     4.73691E-03
            1021            1672     4.66157E-03     4.73691E-03
            1040            1673     4.94858E-03     5.07169E-03
            1021            1673     4.94858E-03     5.07169E-03
            1022            1673     4.94858E-03     5.07169E-03
            1039            1673     4.94858E-03     5.07169E-03
            1022            1674     5.41312E-03     5.45382E-03
            1040            1674     5.41312E-03     5.45382E-03
            1041            1674     5.41312E-03     5.45382E-03
            1023            1674     5.41312E-03     5.45382E-03
            1023            1675     5.96941E-03     5.94425E-03
            1024            1675     5.96941E-03     5.94425E-03
            1041            1675     5.96941E-03     5.94425E-03
            1042            1675     5.96941E-03     5.94425E-03
            1043            1676     6.57978E-03     6.51632E-03
            1025            1676     6.57978E-03     6.51632E-03
            1042            1676     6.57978E-03     6.51632E-03
            1024            1676     6.57978E-03     6.51632E-03
            1025            1677     7.23367E-03     7.14613E-03
            1026            1677     7.23367E-03     7.14613E-03
            1044            1677     7.23367E-03     7.14613E-03
            1043            1677     7.23367E-03     7.14613E-03
            1045            1678     7.91590E-03     7.81616E-03
            1026            1678     7.91590E-03     7.81616E-03
            1044            1678     7.91590E-03     7.81616E-03
            1027            1678     7.91590E-03     7.81616E-03
            1028            1679     8.61268E-03     8.50790E-03
            1046            1679     8.61268E-03     8.50790E-03
            1027            1679     8.61268E-03     8.50790E-03
            1045            1679     8.61268E-03     8.50790E-03
            1029            1680     9.31023E-03     9.20477E-03
            1047            1680     9.31023E-03     9.20477E-03
            1028            1680     9.31023E-03     9.20477E-03
            1046            1680     9.31023E-03     9.20477E-03
            1030            1681     9.98051E-03     9.88387E-03
            1029            1681     9.98051E-03     9.88387E-03
            1048            1681     9.98051E-03     9.88387E-03
            1047            1681     9.98051E-03     9.88387E-03
            1031            1682     10.5948E-03     10.5143E-03
            1030            1682     10.5948E-03     10.5143E-03
            1049            1682     10.5948E-03     10.5143E-03
            1048            1682     10.5948E-03     10.5143E-03
            1049            1683     11.0949E-03     11.0497E-03
            1032            1683     11.0949E-03     11.0497E-03
            1050            1683     11.0949E-03     11.0497E-03
            1031            1683     11.0949E-03     11.0497E-03
            1032            1684     11.4171E-03     11.4306E-03
            1051            1684     11.4171E-03     11.4306E-03
            1033            1684     11.4171E-03     11.4306E-03
            1050            1684     11.4171E-03     11.4306E-03
            1051            1685     11.4631E-03     11.5612E-03
            1052            1685     11.4631E-03     11.5612E-03
            1034            1685     11.4631E-03     11.5612E-03
            1033            1685     11.4631E-03     11.5612E-03
            1034            1686     11.3033E-03     11.4617E-03
            1053            1686     11.3033E-03     11.4617E-03
            1052            1686     11.3033E-03     11.4617E-03
            1035            1686     11.3033E-03     11.4617E-03
            1053            1687     11.4530E-03     11.4938E-03
            1035            1687     11.4530E-03     11.4938E-03
            1036            1687     11.4530E-03     11.4938E-03
            1054            1687     11.4530E-03     11.4938E-03
            1038            1688     4.16923E-03     4.04963E-03
            1056            1688     4.16923E-03     4.04963E-03
            1055            1688     4.16923E-03     4.04963E-03
            1037            1688     4.16923E-03     4.04963E-03
            1057            1689     4.33697E-03     4.31452E-03
            1056            1689     4.33697E-03     4.31452E-03
            1039            1689     4.33697E-03     4.31452E-03
            1038            1689     4.33697E-03     4.31452E-03
            1057            1690     4.66995E-03     4.73114E-03
            1058            1690     4.66995E-03     4.73114E-03
            1039            1690     4.66995E-03     4.73114E-03
            1040            1690     4.66995E-03     4.73114E-03
            1041            1691     5.14127E-03     5.22496E-03
            1040            1691     5.14127E-03     5.22496E-03
            1058            1691     5.14127E-03     5.22496E-03
            1059            1691     5.14127E-03     5.22496E-03
            1042            1692     5.73114E-03     5.78912E-03
            1059            1692     5.73114E-03     5.78912E-03
            1060            1692     5.73114E-03     5.78912E-03
            1041            1692     5.73114E-03     5.78912E-03
            1043            1693     6.39208E-03     6.42943E-03
            1060            1693     6.39208E-03     6.42943E-03
            1042            1693     6.39208E-03     6.42943E-03
            1061            1693     6.39208E-03     6.42943E-03
            1044            1694     7.10025E-03     7.12579E-03
            1043            1694     7.10025E-03     7.12579E-03
            1062            1694     7.10025E-03     7.12579E-03
            1061            1694     7.10025E-03     7.12579E-03
            1063            1695     7.84106E-03     7.86255E-03
            1044            1695     7.84106E-03     7.86255E-03
            1045            1695     7.84106E-03     7.86255E-03
            1062            1695     7.84106E-03     7.86255E-03
            1063            1696     8.60245E-03     8.62658E-03
            1045            1696     8.60245E-03     8.62658E-03
            1046            1696     8.60245E-03     8.62658E-03
            1064            1696     8.60245E-03     8.62658E-03
            1046            1697     9.36584E-03     9.40075E-03
            1047            1697     9.36584E-03     9.40075E-03
            1064            1697     9.36584E-03     9.40075E-03
            1065            1697     9.36584E-03     9.40075E-03
            1047            1698     10.1170E-03     10.1679E-03
            1048            1698     10.1170E-03     10.1679E-03
            1065            1698     10.1170E-03     10.1679E-03
            1066            1698     10.1170E-03     10.1679E-03
            1049            1699     10.8148E-03     10.8973E-03
            1048            1699     10.8148E-03     10.8973E-03
            1067            1699     10.8148E-03     10.8973E-03
            1066            1699     10.8148E-03     10.8973E-03
            1049            1700     11.4255E-03     11.5479E-03
            1067            1700     11.4255E-03     11.5479E-03
            1050            1700     11.4255E-03     11.5479E-03
            1068            1700     11.4255E-03     11.5479E-03
            1051            1701     11.8830E-03     12.0614E-03
            1050            1701     11.8830E-03     12.0614E-03
            1068            1701     11.8830E-03     12.0614E-03
            1069            1701     11.8830E-03     12.0614E-03
            1051            1702     12.1677E-03     12.3960E-03
            1052            1702     12.1677E-03     12.3960E-03
            1070            1702     12.1677E-03     12.3960E-03
            1069            1702     12.1677E-03     12.3960E-03
            1052            1703     12.4328E-03     12.6228E-03
            1053            1703     12.4328E-03     12.6228E-03
            1070            1703     12.4328E-03     12.6228E-03
            1071            1703     12.4328E-03     12.6228E-03
            1053            1704     12.9117E-03     13.0125E-03
            1054            1704     12.9117E-03     13.0125E-03
            1072            1704     12.9117E-03     13.0125E-03
            1071            1704     12.9117E-03     13.0125E-03
            1056            1705     3.82798E-03     3.64636E-03
            1073            1705     3.82798E-03     3.64636E-03
            1074            1705     3.82798E-03     3.64636E-03
            1055            1705     3.82798E-03     3.64636E-03
            1056            1706     4.00973E-03     3.96309E-03
            1075            1706     4.00973E-03     3.96309E-03
            1074            1706     4.00973E-03     3.96309E-03
            1057            1706     4.00973E-03     3.96309E-03
            1057            1707     4.36910E-03     4.41678E-03
            1076            1707     4.36910E-03     4.41678E-03
            1058            1707     4.36910E-03     4.41678E-03
            1075            1707     4.36910E-03     4.41678E-03
            1059            1708     4.87591E-03     4.98396E-03
            1076            1708     4.87591E-03     4.98396E-03
            1077            1708     4.87591E-03     4.98396E-03
            1058            1708     4.87591E-03     4.98396E-03
            1078            1709     5.49076E-03     5.62215E-03
            1077            1709     5.49076E-03     5.62215E-03
            1060            1709     5.49076E-03     5.62215E-03
            1059            1709     5.49076E-03     5.62215E-03
            1061            1710     6.18500E-03     6.31943E-03
            1060            1710     6.18500E-03     6.31943E-03
            1078            1710     6.18500E-03     6.31943E-03
            1079            1710     6.18500E-03     6.31943E-03
            1080            1711     6.92987E-03     7.06658E-03
            1079            1711     6.92987E-03     7.06658E-03
            1061            1711     6.92987E-03     7.06658E-03
            1062            1711     6.92987E-03     7.06658E-03
            1063            1712     7.71030E-03     7.85161E-03
            1062            1712     7.71030E-03     7.85161E-03
            1080            1712     7.71030E-03     7.85161E-03
            1081            1712     7.71030E-03     7.85161E-03
            1082            1713     8.51238E-03     8.66329E-03
            1064            1713     8.51238E-03     8.66329E-03
            1081            1713     8.51238E-03     8.66329E-03
            1063            1713     8.51238E-03     8.66329E-03
            1065            1714     9.32800E-03     9.49312E-03
            1064            1714     9.32800E-03     9.49312E-03
            1083            1714     9.32800E-03     9.49312E-03
            1082            1714     9.32800E-03     9.49312E-03
            1065            1715     10.1358E-03     10.3239E-03
            1083            1715     10.1358E-03     10.3239E-03
            1084            1715     10.1358E-03     10.3239E-03
            1066            1715     10.1358E-03     10.3239E-03
            1084            1716     10.9276E-03     11.1397E-03
            1066            1716     10.9276E-03     11.1397E-03
            1067            1716     10.9276E-03     11.1397E-03
            1085            1716     10.9276E-03     11.1397E-03
            1085            1717     11.6576E-03     11.9083E-03
            1067            1717     11.6576E-03     11.9083E-03
            1086            1717     11.6576E-03     11.9083E-03
            1068            1717     11.6576E-03     11.9083E-03
            1069            1718     12.3103E-03     12.5885E-03
            1068            1718     12.3103E-03     12.5885E-03
            1086            1718     12.3103E-03     12.5885E-03
            1087            1718     12.3103E-03     12.5885E-03
            1070            1719     12.9017E-03     13.1733E-03
            1087            1719     12.9017E-03     13.1733E-03
            1088            1719     12.9017E-03     13.1733E-03
            1069            1719     12.9017E-03     13.1733E-03
            1088            1720     13.4915E-03     13.7313E-03
            1071            1720     13.4915E-03     13.7313E-03
            1070            1720     13.4915E-03     13.7313E-03
            1089            1720     13.4915E-03     13.7313E-03
            1072            1721     14.3073E-03     14.4313E-03
            1071            1721     14.3073E-03     14.4313E-03
            1089            1721     14.3073E-03     14.4313E-03
            1090            1721     14.3073E-03     14.4313E-03
            1074            1722     3.46419E-03     3.28040E-03
            1091            1722     3.46419E-03     3.28040E-03
            1073            1722     3.46419E-03     3.28040E-03
            1092            1722     3.46419E-03     3.28040E-03
            1075            1723     3.66715E-03     3.61501E-03
            1074            1723     3.66715E-03     3.61501E-03
            1093            1723     3.66715E-03     3.61501E-03
            1092            1723     3.66715E-03     3.61501E-03
            1075            1724     4.05234E-03     4.12673E-03
            1076            1724     4.05234E-03     4.12673E-03
            1093            1724     4.05234E-03     4.12673E-03
            1094            1724     4.05234E-03     4.12673E-03
            1095            1725     4.58773E-03     4.74234E-03
            1077            1725     4.58773E-03     4.74234E-03
            1094            1725     4.58773E-03     4.74234E-03
            1076            1725     4.58773E-03     4.74234E-03
            1077            1726     5.22988E-03     5.43547E-03
            1078            1726     5.22988E-03     5.43547E-03
            1095            1726     5.22988E-03     5.43547E-03
            1096            1726     5.22988E-03     5.43547E-03
            1079            1727     5.94562E-03     6.17722E-03
            1097            1727     5.94562E-03     6.17722E-03
            1096            1727     5.94562E-03     6.17722E-03
            1078            1727     5.94562E-03     6.17722E-03
            1097            1728     6.71337E-03     6.95883E-03
            1080            1728     6.71337E-03     6.95883E-03
            1098            1728     6.71337E-03     6.95883E-03
            1079            1728     6.71337E-03     6.95883E-03
            1099            1729     7.51545E-03     7.77298E-03
            1081            1729     7.51545E-03     7.77298E-03
            1098            1729     7.51545E-03     7.77298E-03
            1080            1729     7.51545E-03     7.77298E-03
            1099            1730     8.34334E-03     8.61440E-03
            1082            1730     8.34334E-03     8.61440E-03
            1100            1730     8.34334E-03     8.61440E-03
            1081            1730     8.34334E-03     8.61440E-03
            1083            1731     9.18861E-03     9.47565E-03
            1101            1731     9.18861E-03     9.47565E-03
            1100            1731     9.18861E-03     9.47565E-03
            1082            1731     9.18861E-03     9.47565E-03
            1102            1732     10.0504E-03     10.3558E-03
            1084            1732     10.0504E-03     10.3558E-03
            1083            1732     10.0504E-03     10.3558E-03
            1101            1732     10.0504E-03     10.3558E-03
            1084            1733     10.9146E-03     11.2421E-03
            1103            1733     10.9146E-03     11.2421E-03
            1085            1733     10.9146E-03     11.2421E-03
            1102            1733     10.9146E-03     11.2421E-03
            1085            1734     11.7978E-03     12.1335E-03
            1103            1734     11.7978E-03     12.1335E-03
            1086            1734     11.7978E-03     12.1335E-03
            1104            1734     11.7978E-03     12.1335E-03
            1104            1735     12.6749E-03     13.0186E-03
            1105            1735     12.6749E-03     13.0186E-03
            1087            1735     12.6749E-03     13.0186E-03
            1086            1735     12.6749E-03     13.0186E-03
            1087            1736     13.5641E-03     13.8852E-03
            1088            1736     13.5641E-03     13.8852E-03
            1105            1736     13.5641E-03     13.8852E-03
            1106            1736     13.5641E-03     13.8852E-03
            1088            1737     14.5321E-03     14.7696E-03
            1106            1737     14.5321E-03     14.7696E-03
            1089            1737     14.5321E-03     14.7696E-03
            1107            1737     14.5321E-03     14.7696E-03
            1090            1738     15.6198E-03     15.8143E-03
            1107            1738     15.6198E-03     15.8143E-03
            1089            1738     15.6198E-03     15.8143E-03
            1108            1738     15.6198E-03     15.8143E-03
            1092            1739     3.08491E-03     2.91822E-03
            1109            1739     3.08491E-03     2.91822E-03
            1110            1739     3.08491E-03     2.91822E-03
            1091            1739     3.08491E-03     2.91822E-03
            1111            1740     3.29598E-03     3.28619E-03
            1093            1740     3.29598E-03     3.28619E-03
            1092            1740     3.29598E-03     3.28619E-03
            1110            1740     3.29598E-03     3.28619E-03
            1093            1741     3.71208E-03     3.83826E-03
            1094            1741     3.71208E-03     3.83826E-03
            1111            1741     3.71208E-03     3.83826E-03
            1112            1741     3.71208E-03     3.83826E-03
            1113            1742     4.27194E-03     4.50705E-03
            1094            1742     4.27194E-03     4.50705E-03
            1095            1742     4.27194E-03     4.50705E-03
            1112            1742     4.27194E-03     4.50705E-03
            1114            1743     4.93691E-03     5.23395E-03
            1095            1743     4.93691E-03     5.23395E-03
            1113            1743     4.93691E-03     5.23395E-03
            1096            1743     4.93691E-03     5.23395E-03
            1096            1744     5.67127E-03     6.00430E-03
            1097            1744     5.67127E-03     6.00430E-03
            1114            1744     5.67127E-03     6.00430E-03
            1115            1744     5.67127E-03     6.00430E-03
            1116            1745     6.45072E-03     6.80608E-03
            1097            1745     6.45072E-03     6.80608E-03
            1115            1745     6.45072E-03     6.80608E-03
            1098            1745     6.45072E-03     6.80608E-03
            1117            1746     7.26283E-03     7.63424E-03
            1099            1746     7.26283E-03     7.63424E-03
            1098            1746     7.26283E-03     7.63424E-03
            1116            1746     7.26283E-03     7.63424E-03
            1099            1747     8.10140E-03     8.48635E-03
            1100            1747     8.10140E-03     8.48635E-03
            1117            1747     8.10140E-03     8.48635E-03
            1118            1747     8.10140E-03     8.48635E-03
            1101            1748     8.96444E-03     9.36460E-03
            1118            1748     8.96444E-03     9.36460E-03
            1100            1748     8.96444E-03     9.36460E-03
            1119            1748     8.96444E-03     9.36460E-03
            1102            1749     9.85677E-03     10.2696E-03
            1120            1749     9.85677E-03     10.2696E-03
            1101            1749     9.85677E-03     10.2696E-03
            1119            1749     9.85677E-03     10.2696E-03
            1120            1750     10.7934E-03     11.2164E-03
            1103            1750     10.7934E-03     11.2164E-03
            1102            1750     10.7934E-03     11.2164E-03
            1121            1750     10.7934E-03     11.2164E-03
            1103            1751     11.7864E-03     12.2106E-03
            1104            1751     11.7864E-03     12.2106E-03
            1121            1751     11.7864E-03     12.2106E-03
            1122            1751     11.7864E-03     12.2106E-03
            1105            1752     12.9127E-03     13.2970E-03
            1123            1752     12.9127E-03     13.2970E-03
            1122            1752     12.9127E-03     13.2970E-03
            1104            1752     12.9127E-03     13.2970E-03
            1124            1753     14.1450E-03     14.4907E-03
            1105            1753     14.1450E-03     14.4907E-03
            1106            1753     14.1450E-03     14.4907E-03
            1123            1753     14.1450E-03     14.4907E-03
            1125            1754     15.4691E-03     15.7766E-03
            1106            1754     15.4691E-03     15.7766E-03
            1107            1754     15.4691E-03     15.7766E-03
            1124            1754     15.4691E-03     15.7766E-03
            1108            1755     16.9659E-03     17.1386E-03
            1126            1755     16.9659E-03     17.1386E-03
            1107            1755     16.9659E-03     17.1386E-03
            1125            1755     16.9659E-03     17.1386E-03
            1109            1756     2.67550E-03     2.54368E-03
            1110            1756     2.67550E-03     2.54368E-03
            1127            1756     2.67550E-03     2.54368E-03
            1128            1756     2.67550E-03     2.54368E-03
            1129            1757     2.90145E-03     2.96501E-03
            1110            1757     2.90145E-03     2.96501E-03
            1111            1757     2.90145E-03     2.96501E-03
            1128            1757     2.90145E-03     2.96501E-03
            1112            1758     3.33355E-03     3.57638E-03
            1130            1758     3.33355E-03     3.57638E-03
            1129            1758     3.33355E-03     3.57638E-03
            1111            1758     3.33355E-03     3.57638E-03
            1131            1759     3.92716E-03     4.27426E-03
            1112            1759     3.92716E-03     4.27426E-03
            1130            1759     3.92716E-03     4.27426E-03
            1113            1759     3.92716E-03     4.27426E-03
            1132            1760     4.61740E-03     5.02611E-03
            1113            1760     4.61740E-03     5.02611E-03
            1114            1760     4.61740E-03     5.02611E-03
            1131            1760     4.61740E-03     5.02611E-03
            1133            1761     5.36561E-03     5.81212E-03
            1114            1761     5.36561E-03     5.81212E-03
            1132            1761     5.36561E-03     5.81212E-03
            1115            1761     5.36561E-03     5.81212E-03
            1134            1762     6.15199E-03     6.62189E-03
            1115            1762     6.15199E-03     6.62189E-03
            1133            1762     6.15199E-03     6.62189E-03
            1116            1762     6.15199E-03     6.62189E-03
            1116            1763     6.96713E-03     7.45207E-03
            1134            1763     6.96713E-03     7.45207E-03
            1117            1763     6.96713E-03     7.45207E-03
            1135            1763     6.96713E-03     7.45207E-03
            1135            1764     7.80561E-03     8.30288E-03
            1117            1764     7.80561E-03     8.30288E-03
            1118            1764     7.80561E-03     8.30288E-03
            1136            1764     7.80561E-03     8.30288E-03
            1118            1765     8.67475E-03     9.17988E-03
            1137            1765     8.67475E-03     9.17988E-03
            1136            1765     8.67475E-03     9.17988E-03
            1119            1765     8.67475E-03     9.17988E-03
            1138            1766     9.58115E-03     10.0957E-03
            1120            1766     9.58115E-03     10.0957E-03
            1119            1766     9.58115E-03     10.0957E-03
            1137            1766     9.58115E-03     10.0957E-03
            1138            1767     10.5554E-03     11.0686E-03
            1139            1767     10.5554E-03     11.0686E-03
            1120            1767     10.5554E-03     11.0686E-03
            1121            1767     10.5554E-03     11.0686E-03
            1122            1768     11.6375E-03     12.1441E-03
            1139            1768     11.6375E-03     12.1441E-03
            1121            1768     11.6375E-03     12.1441E-03
            1140            1768     11.6375E-03     12.1441E-03
            1141            1769     12.8892E-03     13.3632E-03
            1140            1769     12.8892E-03     13.3632E-03
            1122            1769     12.8892E-03     13.3632E-03
            1123            1769     12.8892E-03     13.3632E-03
            1141            1770     14.5043E-03     14.8656E-03
            1123            1770     14.5043E-03     14.8656E-03
            1142            1770     14.5043E-03     14.8656E-03
            1124            1770     14.5043E-03     14.8656E-03
            1143            1771     16.3692E-03     16.6378E-03
            1142            1771     16.3692E-03     16.6378E-03
            1124            1771     16.3692E-03     16.6378E-03
            1125            1771     16.3692E-03     16.6378E-03
            1143            1772     18.2294E-03     18.5600E-03
            1144            1772     18.2294E-03     18.5600E-03
            1125            1772     18.2294E-03     18.5600E-03
            1126            1772     18.2294E-03     18.5600E-03
            1146            1773     2.22169E-03     2.20663E-03
            1145            1773     2.22169E-03     2.20663E-03
            1128            1773     2.22169E-03     2.20663E-03
            1127            1773     2.22169E-03     2.20663E-03
            1146            1774     2.44125E-03     2.69483E-03
            1147            1774     2.44125E-03     2.69483E-03
            1128            1774     2.44125E-03     2.69483E-03
            1129            1774     2.44125E-03     2.69483E-03
            1129            1775     2.92719E-03     3.33385E-03
            1148            1775     2.92719E-03     3.33385E-03
            1147            1775     2.92719E-03     3.33385E-03
            1130            1775     2.92719E-03     3.33385E-03
            1148            1776     3.56457E-03     4.05312E-03
            1130            1776     3.56457E-03     4.05312E-03
            1131            1776     3.56457E-03     4.05312E-03
            1149            1776     3.56457E-03     4.05312E-03
            1131            1777     4.28042E-03     4.82204E-03
            1150            1777     4.28042E-03     4.82204E-03
            1132            1777     4.28042E-03     4.82204E-03
            1149            1777     4.28042E-03     4.82204E-03
            1150            1778     5.04213E-03     5.61597E-03
            1132            1778     5.04213E-03     5.61597E-03
            1133            1778     5.04213E-03     5.61597E-03
            1151            1778     5.04213E-03     5.61597E-03
            1152            1779     5.83441E-03     6.42700E-03
            1133            1779     5.83441E-03     6.42700E-03
            1151            1779     5.83441E-03     6.42700E-03
            1134            1779     5.83441E-03     6.42700E-03
            1153            1780     6.64782E-03     7.25140E-03
            1134            1780     6.64782E-03     7.25140E-03
            1135            1780     6.64782E-03     7.25140E-03
            1152            1780     6.64782E-03     7.25140E-03
            1154            1781     7.48522E-03     8.09346E-03
            1135            1781     7.48522E-03     8.09346E-03
            1153            1781     7.48522E-03     8.09346E-03
            1136            1781     7.48522E-03     8.09346E-03
            1154            1782     8.34833E-03     8.95874E-03
            1137            1782     8.34833E-03     8.95874E-03
            1155            1782     8.34833E-03     8.95874E-03
            1136            1782     8.34833E-03     8.95874E-03
            1155            1783     9.26040E-03     9.86714E-03
            1138            1783     9.26040E-03     9.86714E-03
            1137            1783     9.26040E-03     9.86714E-03
            1156            1783     9.26040E-03     9.86714E-03
            1138            1784     10.2391E-03     10.8436E-03
            1156            1784     10.2391E-03     10.8436E-03
            1139            1784     10.2391E-03     10.8436E-03
            1157            1784     10.2391E-03     10.8436E-03
            1158            1785     11.3533E-03     11.9413E-03
            1139            1785     11.3533E-03     11.9413E-03
            1140            1785     11.3533E-03     11.9413E-03
            1157            1785     11.3533E-03     11.9413E-03
            1140            1786     12.6683E-03     13.2424E-03
            1159            1786     12.6683E-03     13.2424E-03
            1158            1786     12.6683E-03     13.2424E-03
            1141            1786     12.6683E-03     13.2424E-03
            1141            1787     14.3536E-03     14.8714E-03
            1159            1787     14.3536E-03     14.8714E-03
            1160            1787     14.3536E-03     14.8714E-03
            1142            1787     14.3536E-03     14.8714E-03
            1161            1788     16.8433E-03     17.1512E-03
            1142            1788     16.8433E-03     17.1512E-03
            1160            1788     16.8433E-03     17.1512E-03
            1143            1788     16.8433E-03     17.1512E-03
            1143            1789     19.6523E-03     19.6917E-03
            1161            1789     19.6523E-03     19.6917E-03
            1162            1789     19.6523E-03     19.6917E-03
            1144            1789     19.6523E-03     19.6917E-03
            1164            1790     1.67149E-03     1.94293E-03
            1145            1790     1.67149E-03     1.94293E-03
            1163            1790     1.67149E-03     1.94293E-03
            1146            1790     1.67149E-03     1.94293E-03
            1164            1791     1.95770E-03     2.44885E-03
            1147            1791     1.95770E-03     2.44885E-03
            1146            1791     1.95770E-03     2.44885E-03
            1165            1791     1.95770E-03     2.44885E-03
            1147            1792     2.51707E-03     3.10778E-03
            1148            1792     2.51707E-03     3.10778E-03
            1166            1792     2.51707E-03     3.10778E-03
            1165            1792     2.51707E-03     3.10778E-03
            1167            1793     3.19998E-03     3.85401E-03
            1166            1793     3.19998E-03     3.85401E-03
            1149            1793     3.19998E-03     3.85401E-03
            1148            1793     3.19998E-03     3.85401E-03
            1149            1794     3.94203E-03     4.63544E-03
            1168            1794     3.94203E-03     4.63544E-03
            1167            1794     3.94203E-03     4.63544E-03
            1150            1794     3.94203E-03     4.63544E-03
            1150            1795     4.71884E-03     5.43452E-03
            1168            1795     4.71884E-03     5.43452E-03
            1151            1795     4.71884E-03     5.43452E-03
            1169            1795     4.71884E-03     5.43452E-03
            1151            1796     5.51572E-03     6.24303E-03
            1152            1796     5.51572E-03     6.24303E-03
            1169            1796     5.51572E-03     6.24303E-03
            1170            1796     5.51572E-03     6.24303E-03
            1153            1797     6.33138E-03     7.06137E-03
            1171            1797     6.33138E-03     7.06137E-03
            1170            1797     6.33138E-03     7.06137E-03
            1152            1797     6.33138E-03     7.06137E-03
            1153            1798     7.16505E-03     7.89017E-03
            1171            1798     7.16505E-03     7.89017E-03
            1172            1798     7.16505E-03     7.89017E-03
            1154            1798     7.16505E-03     7.89017E-03
            1173            1799     8.02888E-03     8.74389E-03
            1155            1799     8.02888E-03     8.74389E-03
            1154            1799     8.02888E-03     8.74389E-03
            1172            1799     8.02888E-03     8.74389E-03
            1155            1800     8.93294E-03     9.63259E-03
            1174            1800     8.93294E-03     9.63259E-03
            1156            1800     8.93294E-03     9.63259E-03
            1173            1800     8.93294E-03     9.63259E-03
            1156            1801     9.91726E-03     10.5988E-03
            1157            1801     9.91726E-03     10.5988E-03
            1174            1801     9.91726E-03     10.5988E-03
            1175            1801     9.91726E-03     10.5988E-03
            1176            1802     11.0099E-03     11.6762E-03
            1158            1802     11.0099E-03     11.6762E-03
            1175            1802     11.0099E-03     11.6762E-03
            1157            1802     11.0099E-03     11.6762E-03
            1159            1803     12.3294E-03     12.9848E-03
            1176            1803     12.3294E-03     12.9848E-03
            1177            1803     12.3294E-03     12.9848E-03
            1158            1803     12.3294E-03     12.9848E-03
            1178            1804     13.9457E-03     14.6217E-03
            1177            1804     13.9457E-03     14.6217E-03
            1159            1804     13.9457E-03     14.6217E-03
            1160            1804     13.9457E-03     14.6217E-03
            1160            1805     16.3218E-03     17.0399E-03
            1161            1805     16.3218E-03     17.0399E-03
            1178            1805     16.3218E-03     17.0399E-03
            1179            1805     16.3218E-03     17.0399E-03
            1161            1806     20.1773E-03     20.7537E-03
            1179            1806     20.1773E-03     20.7537E-03
            1162            1806     20.1773E-03     20.7537E-03
            1180            1806     20.1773E-03     20.7537E-03
            1164            1807     4.52857E-03     5.23736E-03
            1163            1807     4.52857E-03     5.23736E-03
            1181            1807     4.52857E-03     5.23736E-03
            1182            1807     4.52857E-03     5.23736E-03
            1165            1808     5.16352E-03     5.47175E-03
            1164            1808     5.16352E-03     5.47175E-03
            1182            1808     5.16352E-03     5.47175E-03
            1183            1808     5.16352E-03     5.47175E-03
            1165            1809     5.80907E-03     6.05322E-03
            1183            1809     5.80907E-03     6.05322E-03
            1166            1809     5.80907E-03     6.05322E-03
            1184            1809     5.80907E-03     6.05322E-03
            1185            1810     6.56722E-03     6.81975E-03
            1166            1810     6.56722E-03     6.81975E-03
            1167            1810     6.56722E-03     6.81975E-03
            1184            1810     6.56722E-03     6.81975E-03
            1186            1811     7.40617E-03     7.65906E-03
            1185            1811     7.40617E-03     7.65906E-03
            1167            1811     7.40617E-03     7.65906E-03
            1168            1811     7.40617E-03     7.65906E-03
            1168            1812     8.29957E-03     8.55713E-03
            1186            1812     8.29957E-03     8.55713E-03
            1169            1812     8.29957E-03     8.55713E-03
            1187            1812     8.29957E-03     8.55713E-03
            1188            1813     9.23258E-03     9.48322E-03
            1170            1813     9.23258E-03     9.48322E-03
            1169            1813     9.23258E-03     9.48322E-03
            1187            1813     9.23258E-03     9.48322E-03
            1171            1814     10.1873E-03     10.4261E-03
            1188            1814     10.1873E-03     10.4261E-03
            1189            1814     10.1873E-03     10.4261E-03
            1170            1814     10.1873E-03     10.4261E-03
            1171            1815     11.1560E-03     11.3709E-03
            1172            1815     11.1560E-03     11.3709E-03
            1189            1815     11.1560E-03     11.3709E-03
            1190            1815     11.1560E-03     11.3709E-03
            1172            1816     12.1271E-03     12.3133E-03
            1173            1816     12.1271E-03     12.3133E-03
            1191            1816     12.1271E-03     12.3133E-03
            1190            1816     12.1271E-03     12.3133E-03
            1173            1817     13.1006E-03     13.2410E-03
            1174            1817     13.1006E-03     13.2410E-03
            1192            1817     13.1006E-03     13.2410E-03
            1191            1817     13.1006E-03     13.2410E-03
            1192            1818     14.0695E-03     14.1629E-03
            1193            1818     14.0695E-03     14.1629E-03
            1175            1818     14.0695E-03     14.1629E-03
            1174            1818     14.0695E-03     14.1629E-03
            1193            1819     15.0495E-03     15.0729E-03
            1175            1819     15.0495E-03     15.0729E-03
            1194            1819     15.0495E-03     15.0729E-03
            1176            1819     15.0495E-03     15.0729E-03
            1176            1820     16.0357E-03     16.0044E-03
            1177            1820     16.0357E-03     16.0044E-03
            1195            1820     16.0357E-03     16.0044E-03
            1194            1820     16.0357E-03     16.0044E-03
            1177            1821     17.0948E-03     16.9995E-03
            1178            1821     17.0948E-03     16.9995E-03
            1195            1821     17.0948E-03     16.9995E-03
            1196            1821     17.0948E-03     16.9995E-03
            1197            1822     18.2071E-03     18.1355E-03
            1178            1822     18.2071E-03     18.1355E-03
            1196            1822     18.2071E-03     18.1355E-03
            1179            1822     18.2071E-03     18.1355E-03
            1197            1823     19.8321E-03     20.1256E-03
            1180            1823     19.8321E-03     20.1256E-03
            1179            1823     19.8321E-03     20.1256E-03
            1198            1823     19.8321E-03     20.1256E-03
            1200            1824     7.44002E-03     8.33689E-03
            1181            1824     7.44002E-03     8.33689E-03
            1182            1824     7.44002E-03     8.33689E-03
            1199            1824     7.44002E-03     8.33689E-03
            1182            1825     8.05515E-03     8.38069E-03
            1183            1825     8.05515E-03     8.38069E-03
            1201            1825     8.05515E-03     8.38069E-03
            1200            1825     8.05515E-03     8.38069E-03
            1183            1826     8.87037E-03     8.84126E-03
            1201            1826     8.87037E-03     8.84126E-03
            1184            1826     8.87037E-03     8.84126E-03
            1202            1826     8.87037E-03     8.84126E-03
            1184            1827     9.77417E-03     9.62837E-03
            1202            1827     9.77417E-03     9.62837E-03
            1203            1827     9.77417E-03     9.62837E-03
            1185            1827     9.77417E-03     9.62837E-03
            1204            1828     10.7746E-03     10.5804E-03
            1185            1828     10.7746E-03     10.5804E-03
            1203            1828     10.7746E-03     10.5804E-03
            1186            1828     10.7746E-03     10.5804E-03
            1187            1829     11.8633E-03     11.6416E-03
            1204            1829     11.8633E-03     11.6416E-03
            1186            1829     11.8633E-03     11.6416E-03
            1205            1829     11.8633E-03     11.6416E-03
            1187            1830     13.0060E-03     12.7671E-03
            1188            1830     13.0060E-03     12.7671E-03
            1206            1830     13.0060E-03     12.7671E-03
            1205            1830     13.0060E-03     12.7671E-03
            1207            1831     14.1861E-03     13.9243E-03
            1188            1831     14.1861E-03     13.9243E-03
            1189            1831     14.1861E-03     13.9243E-03
            1206            1831     14.1861E-03     13.9243E-03
            1189            1832     15.3746E-03     15.0887E-03
            1190            1832     15.3746E-03     15.0887E-03
            1208            1832     15.3746E-03     15.0887E-03
            1207            1832     15.3746E-03     15.0887E-03
            1209            1833     16.5531E-03     16.2315E-03
            1190            1833     16.5531E-03     16.2315E-03
            1208            1833     16.5531E-03     16.2315E-03
            1191            1833     16.5531E-03     16.2315E-03
            1192            1834     17.6920E-03     17.3297E-03
            1191            1834     17.6920E-03     17.3297E-03
            1209            1834     17.6920E-03     17.3297E-03
            1210            1834     17.6920E-03     17.3297E-03
            1210            1835     18.7625E-03     18.3474E-03
            1193            1835     18.7625E-03     18.3474E-03
            1192            1835     18.7625E-03     18.3474E-03
            1211            1835     18.7625E-03     18.3474E-03
            1193            1836     19.7256E-03     19.2499E-03
            1211            1836     19.7256E-03     19.2499E-03
            1212            1836     19.7256E-03     19.2499E-03
            1194            1836     19.7256E-03     19.2499E-03
            1213            1837     20.5223E-03     19.9857E-03
            1195            1837     20.5223E-03     19.9857E-03
            1194            1837     20.5223E-03     19.9857E-03
            1212            1837     20.5223E-03     19.9857E-03
            1196            1838     21.0769E-03     20.4845E-03
            1213            1838     21.0769E-03     20.4845E-03
            1214            1838     21.0769E-03     20.4845E-03
            1195            1838     21.0769E-03     20.4845E-03
            1197            1839     21.2130E-03     20.6251E-03
            1196            1839     21.2130E-03     20.6251E-03
            1215            1839     21.2130E-03     20.6251E-03
            1214            1839     21.2130E-03     20.6251E-03
            1198            1840     20.7464E-03     20.1342E-03
            1216            1840     20.7464E-03     20.1342E-03
            1197            1840     20.7464E-03     20.1342E-03
            1215            1840     20.7464E-03     20.1342E-03
            1218            1841     6.89400E-03     7.28079E-03
            1199            1841     6.89400E-03     7.28079E-03
            1217            1841     6.89400E-03     7.28079E-03
            1200            1841     6.89400E-03     7.28079E-03
            1200            1842     7.23190E-03     7.76465E-03
            1201            1842     7.23190E-03     7.76465E-03
            1218            1842     7.23190E-03     7.76465E-03
            1219            1842     7.23190E-03     7.76465E-03
            1219            1843     8.08587E-03     8.32492E-03
            1202            1843     8.08587E-03     8.32492E-03
            1220            1843     8.08587E-03     8.32492E-03
            1201            1843     8.08587E-03     8.32492E-03
            1221            1844     9.14483E-03     9.18492E-03
            1202            1844     9.14483E-03     9.18492E-03
            1203            1844     9.14483E-03     9.18492E-03
            1220            1844     9.14483E-03     9.18492E-03
            1204            1845     10.3011E-03     10.2564E-03
            1221            1845     10.3011E-03     10.2564E-03
            1203            1845     10.3011E-03     10.2564E-03
            1222            1845     10.3011E-03     10.2564E-03
            1205            1846     11.5420E-03     11.4514E-03
            1223            1846     11.5420E-03     11.4514E-03
            1204            1846     11.5420E-03     11.4514E-03
            1222            1846     11.5420E-03     11.4514E-03
            1224            1847     12.8400E-03     12.7273E-03
            1205            1847     12.8400E-03     12.7273E-03
            1206            1847     12.8400E-03     12.7273E-03
            1223            1847     12.8400E-03     12.7273E-03
            1206            1848     14.1751E-03     14.0488E-03
            1224            1848     14.1751E-03     14.0488E-03
            1207            1848     14.1751E-03     14.0488E-03
            1225            1848     14.1751E-03     14.0488E-03
            1207            1849     15.5306E-03     15.3914E-03
            1208            1849     15.5306E-03     15.3914E-03
            1226            1849     15.5306E-03     15.3914E-03
            1225            1849     15.5306E-03     15.3914E-03
            1208            1850     16.8814E-03     16.7338E-03
            1209            1850     16.8814E-03     16.7338E-03
            1226            1850     16.8814E-03     16.7338E-03
            1227            1850     16.8814E-03     16.7338E-03
            1210            1851     18.2066E-03     18.0485E-03
            1228            1851     18.2066E-03     18.0485E-03
            1209            1851     18.2066E-03     18.0485E-03
            1227            1851     18.2066E-03     18.0485E-03
            1229            1852     19.4670E-03     19.3084E-03
            1228            1852     19.4670E-03     19.3084E-03
            1211            1852     19.4670E-03     19.3084E-03
            1210            1852     19.4670E-03     19.3084E-03
            1229            1853     20.6164E-03     20.4681E-03
            1211            1853     20.6164E-03     20.4681E-03
            1230            1853     20.6164E-03     20.4681E-03
            1212            1853     20.6164E-03     20.4681E-03
            1212            1854     21.5855E-03     21.4728E-03
            1230            1854     21.5855E-03     21.4728E-03
            1231            1854     21.5855E-03     21.4728E-03
            1213            1854     21.5855E-03     21.4728E-03
            1232            1855     22.2697E-03     22.2434E-03
            1213            1855     22.2697E-03     22.2434E-03
            1231            1855     22.2697E-03     22.2434E-03
            1214            1855     22.2697E-03     22.2434E-03
            1215            1856     22.5359E-03     22.6187E-03
            1232            1856     22.5359E-03     22.6187E-03
            1233            1856     22.5359E-03     22.6187E-03
            1214            1856     22.5359E-03     22.6187E-03
            1234            1857     22.6573E-03     22.7264E-03
            1216            1857     22.6573E-03     22.7264E-03
            1233            1857     22.6573E-03     22.7264E-03
            1215            1857     22.6573E-03     22.7264E-03
            1235            1858     6.18763E-03     6.22158E-03
            1217            1858     6.18763E-03     6.22158E-03
            1236            1858     6.18763E-03     6.22158E-03
            1218            1858     6.18763E-03     6.22158E-03
            1236            1859     6.65280E-03     6.94874E-03
            1219            1859     6.65280E-03     6.94874E-03
            1218            1859     6.65280E-03     6.94874E-03
            1237            1859     6.65280E-03     6.94874E-03
            1238            1860     7.47632E-03     7.81074E-03
            1219            1860     7.47632E-03     7.81074E-03
            1237            1860     7.47632E-03     7.81074E-03
            1220            1860     7.47632E-03     7.81074E-03
            1238            1861     8.61746E-03     8.81533E-03
            1239            1861     8.61746E-03     8.81533E-03
            1221            1861     8.61746E-03     8.81533E-03
            1220            1861     8.61746E-03     8.81533E-03
            1221            1862     9.90438E-03     10.0132E-03
            1240            1862     9.90438E-03     10.0132E-03
            1222            1862     9.90438E-03     10.0132E-03
            1239            1862     9.90438E-03     10.0132E-03
            1222            1863     11.2735E-03     11.3352E-03
            1240            1863     11.2735E-03     11.3352E-03
            1223            1863     11.2735E-03     11.3352E-03
            1241            1863     11.2735E-03     11.3352E-03
            1223            1864     12.7018E-03     12.7401E-03
            1224            1864     12.7018E-03     12.7401E-03
            1242            1864     12.7018E-03     12.7401E-03
            1241            1864     12.7018E-03     12.7401E-03
            1224            1865     14.1686E-03     14.1985E-03
            1242            1865     14.1686E-03     14.1985E-03
            1225            1865     14.1686E-03     14.1985E-03
            1243            1865     14.1686E-03     14.1985E-03
            1244            1866     15.6562E-03     15.6882E-03
            1225            1866     15.6562E-03     15.6882E-03
            1226            1866     15.6562E-03     15.6882E-03
            1243            1866     15.6562E-03     15.6882E-03
            1226            1867     17.1504E-03     17.1894E-03
            1244            1867     17.1504E-03     17.1894E-03
            1227            1867     17.1504E-03     17.1894E-03
            1245            1867     17.1504E-03     17.1894E-03
            1228            1868     18.6207E-03     18.6807E-03
            1227            1868     18.6207E-03     18.6807E-03
            1245            1868     18.6207E-03     18.6807E-03
            1246            1868     18.6207E-03     18.6807E-03
            1246            1869     20.0383E-03     20.1284E-03
            1247            1869     20.0383E-03     20.1284E-03
            1229            1869     20.0383E-03     20.1284E-03
            1228            1869     20.0383E-03     20.1284E-03
            1248            1870     21.3469E-03     21.4898E-03
            1247            1870     21.3469E-03     21.4898E-03
            1229            1870     21.3469E-03     21.4898E-03
            1230            1870     21.3469E-03     21.4898E-03
            1231            1871     22.4739E-03     22.6997E-03
            1230            1871     22.4739E-03     22.6997E-03
            1249            1871     22.4739E-03     22.6997E-03
            1248            1871     22.4739E-03     22.6997E-03
            1249            1872     23.3447E-03     23.6564E-03
            1231            1872     23.3447E-03     23.6564E-03
            1250            1872     23.3447E-03     23.6564E-03
            1232            1872     23.3447E-03     23.6564E-03
            1251            1873     23.9422E-03     24.3145E-03
            1232            1873     23.9422E-03     24.3145E-03
            1233            1873     23.9422E-03     24.3145E-03
            1250            1873     23.9422E-03     24.3145E-03
            1233            1874     24.6106E-03     24.8540E-03
            1252            1874     24.6106E-03     24.8540E-03
            1234            1874     24.6106E-03     24.8540E-03
            1251            1874     24.6106E-03     24.8540E-03
            1236            1875     5.48274E-03     5.48844E-03
            1254            1875     5.48274E-03     5.48844E-03
            1235            1875     5.48274E-03     5.48844E-03
            1253            1875     5.48274E-03     5.48844E-03
            1237            1876     6.03149E-03     6.21721E-03
            1254            1876     6.03149E-03     6.21721E-03
            1255            1876     6.03149E-03     6.21721E-03
            1236            1876     6.03149E-03     6.21721E-03
            1237            1877     6.96778E-03     7.27019E-03
            1255            1877     6.96778E-03     7.27019E-03
            1238            1877     6.96778E-03     7.27019E-03
            1256            1877     6.96778E-03     7.27019E-03
            1238            1878     8.16861E-03     8.47139E-03
            1239            1878     8.16861E-03     8.47139E-03
            1257            1878     8.16861E-03     8.47139E-03
            1256            1878     8.16861E-03     8.47139E-03
            1239            1879     9.54795E-03     9.79444E-03
            1258            1879     9.54795E-03     9.79444E-03
            1257            1879     9.54795E-03     9.79444E-03
            1240            1879     9.54795E-03     9.79444E-03
            1258            1880     11.0169E-03     11.2295E-03
            1241            1880     11.0169E-03     11.2295E-03
            1259            1880     11.0169E-03     11.2295E-03
            1240            1880     11.0169E-03     11.2295E-03
            1242            1881     12.5427E-03     12.7380E-03
            1259            1881     12.5427E-03     12.7380E-03
            1241            1881     12.5427E-03     12.7380E-03
            1260            1881     12.5427E-03     12.7380E-03
            1261            1882     14.1061E-03     14.3001E-03
            1260            1882     14.1061E-03     14.3001E-03
            1243            1882     14.1061E-03     14.3001E-03
            1242            1882     14.1061E-03     14.3001E-03
            1262            1883     15.6951E-03     15.8987E-03
            1261            1883     15.6951E-03     15.8987E-03
            1244            1883     15.6951E-03     15.8987E-03
            1243            1883     15.6951E-03     15.8987E-03
            1263            1884     17.2912E-03     17.5178E-03
            1244            1884     17.2912E-03     17.5178E-03
            1245            1884     17.2912E-03     17.5178E-03
            1262            1884     17.2912E-03     17.5178E-03
            1264            1885     18.8824E-03     19.1397E-03
            1245            1885     18.8824E-03     19.1397E-03
            1263            1885     18.8824E-03     19.1397E-03
            1246            1885     18.8824E-03     19.1397E-03
            1265            1886     20.4288E-03     20.7362E-03
            1246            1886     20.4288E-03     20.7362E-03
            1264            1886     20.4288E-03     20.7362E-03
            1247            1886     20.4288E-03     20.7362E-03
            1266            1887     21.8931E-03     22.2613E-03
            1265            1887     21.8931E-03     22.2613E-03
            1247            1887     21.8931E-03     22.2613E-03
            1248            1887     21.8931E-03     22.2613E-03
            1248            1888     23.2150E-03     23.6485E-03
            1266            1888     23.2150E-03     23.6485E-03
            1249            1888     23.2150E-03     23.6485E-03
            1267            1888     23.2150E-03     23.6485E-03
            1250            1889     24.3360E-03     24.8274E-03
            1249            1889     24.3360E-03     24.8274E-03
            1267            1889     24.3360E-03     24.8274E-03
            1268            1889     24.3360E-03     24.8274E-03
            1250            1890     25.3484E-03     25.7842E-03
            1268            1890     25.3484E-03     25.7842E-03
            1251            1890     25.3484E-03     25.7842E-03
            1269            1890     25.3484E-03     25.7842E-03
            1270            1891     26.3808E-03     26.6526E-03
            1251            1891     26.3808E-03     26.6526E-03
            1252            1891     26.3808E-03     26.6526E-03
            1269            1891     26.3808E-03     26.6526E-03
            1271            1892     4.80874E-03     4.73891E-03
            1272            1892     4.80874E-03     4.73891E-03
            1254            1892     4.80874E-03     4.73891E-03
            1253            1892     4.80874E-03     4.73891E-03
            1273            1893     5.42691E-03     5.61600E-03
            1254            1893     5.42691E-03     5.61600E-03
            1272            1893     5.42691E-03     5.61600E-03
            1255            1893     5.42691E-03     5.61600E-03
            1274            1894     6.46143E-03     6.77437E-03
            1255            1894     6.46143E-03     6.77437E-03
            1273            1894     6.46143E-03     6.77437E-03
            1256            1894     6.46143E-03     6.77437E-03
            1274            1895     7.75622E-03     8.12184E-03
            1257            1895     7.75622E-03     8.12184E-03
            1256            1895     7.75622E-03     8.12184E-03
            1275            1895     7.75622E-03     8.12184E-03
            1275            1896     9.20113E-03     9.56795E-03
            1276            1896     9.20113E-03     9.56795E-03
            1258            1896     9.20113E-03     9.56795E-03
            1257            1896     9.20113E-03     9.56795E-03
            1258            1897     10.7398E-03     11.0910E-03
            1276            1897     10.7398E-03     11.0910E-03
            1277            1897     10.7398E-03     11.0910E-03
            1259            1897     10.7398E-03     11.0910E-03
            1259            1898     12.3306E-03     12.6773E-03
            1260            1898     12.3306E-03     12.6773E-03
            1277            1898     12.3306E-03     12.6773E-03
            1278            1898     12.3306E-03     12.6773E-03
            1278            1899     13.9587E-03     14.3103E-03
            1279            1899     13.9587E-03     14.3103E-03
            1260            1899     13.9587E-03     14.3103E-03
            1261            1899     13.9587E-03     14.3103E-03
            1280            1900     15.6112E-03     15.9795E-03
            1279            1900     15.6112E-03     15.9795E-03
            1261            1900     15.6112E-03     15.9795E-03
            1262            1900     15.6112E-03     15.9795E-03
            1262            1901     17.2837E-03     17.6780E-03
            1280            1901     17.2837E-03     17.6780E-03
            1281            1901     17.2837E-03     17.6780E-03
            1263            1901     17.2837E-03     17.6780E-03
            1282            1902     18.9578E-03     19.3910E-03
            1281            1902     18.9578E-03     19.3910E-03
            1264            1902     18.9578E-03     19.3910E-03
            1263            1902     18.9578E-03     19.3910E-03
            1283            1903     20.6299E-03     21.1042E-03
            1264            1903     20.6299E-03     21.1042E-03
            1282            1903     20.6299E-03     21.1042E-03
            1265            1903     20.6299E-03     21.1042E-03
            1283            1904     22.2550E-03     22.7826E-03
            1284            1904     22.2550E-03     22.7826E-03
            1266            1904     22.2550E-03     22.7826E-03
            1265            1904     22.2550E-03     22.7826E-03
            1285            1905     23.8041E-03     24.3685E-03
            1284            1905     23.8041E-03     24.3685E-03
            1267            1905     23.8041E-03     24.3685E-03
            1266            1905     23.8041E-03     24.3685E-03
            1268            1906     25.2619E-03     25.8104E-03
            1285            1906     25.2619E-03     25.8104E-03
            1286            1906     25.2619E-03     25.8104E-03
            1267            1906     25.2619E-03     25.8104E-03
            1269            1907     26.6178E-03     27.1031E-03
            1287            1907     26.6178E-03     27.1031E-03
            1268            1907     26.6178E-03     27.1031E-03
            1286            1907     26.6178E-03     27.1031E-03
            1287            1908     28.0232E-03     28.3339E-03
            1269            1908     28.0232E-03     28.3339E-03
            1288            1908     28.0232E-03     28.3339E-03
            1270            1908     28.0232E-03     28.3339E-03
            1272            1909     4.10984E-03     4.06404E-03
            1271            1909     4.10984E-03     4.06404E-03
            1289            1909     4.10984E-03     4.06404E-03
            1290            1909     4.10984E-03     4.06404E-03
            1272            1910     4.82806E-03     5.03346E-03
            1273            1910     4.82806E-03     5.03346E-03
            1290            1910     4.82806E-03     5.03346E-03
            1291            1910     4.82806E-03     5.03346E-03
            1274            1911     5.96233E-03     6.33422E-03
            1292            1911     5.96233E-03     6.33422E-03
            1291            1911     5.96233E-03     6.33422E-03
            1273            1911     5.96233E-03     6.33422E-03
            1274            1912     7.33698E-03     7.77859E-03
            1292            1912     7.33698E-03     7.77859E-03
            1275            1912     7.33698E-03     7.77859E-03
            1293            1912     7.33698E-03     7.77859E-03
            1294            1913     8.84318E-03     9.31472E-03
            1275            1913     8.84318E-03     9.31472E-03
            1293            1913     8.84318E-03     9.31472E-03
            1276            1913     8.84318E-03     9.31472E-03
            1277            1914     10.4237E-03     10.9048E-03
            1295            1914     10.4237E-03     10.9048E-03
            1276            1914     10.4237E-03     10.9048E-03
            1294            1914     10.4237E-03     10.9048E-03
            1295            1915     12.0527E-03     12.5396E-03
            1277            1915     12.0527E-03     12.5396E-03
            1296            1915     12.0527E-03     12.5396E-03
            1278            1915     12.0527E-03     12.5396E-03
            1296            1916     13.7137E-03     14.2120E-03
            1278            1916     13.7137E-03     14.2120E-03
            1297            1916     13.7137E-03     14.2120E-03
            1279            1916     13.7137E-03     14.2120E-03
            1279            1917     15.4021E-03     15.9196E-03
            1280            1917     15.4021E-03     15.9196E-03
            1297            1917     15.4021E-03     15.9196E-03
            1298            1917     15.4021E-03     15.9196E-03
            1298            1918     17.1139E-03     17.6575E-03
            1280            1918     17.1139E-03     17.6575E-03
            1281            1918     17.1139E-03     17.6575E-03
            1299            1918     17.1139E-03     17.6575E-03
            1282            1919     18.8549E-03     19.4305E-03
            1299            1919     18.8549E-03     19.4305E-03
            1300            1919     18.8549E-03     19.4305E-03
            1281            1919     18.8549E-03     19.4305E-03
            1300            1920     20.6149E-03     21.2275E-03
            1282            1920     20.6149E-03     21.2275E-03
            1283            1920     20.6149E-03     21.2275E-03
            1301            1920     20.6149E-03     21.2275E-03
            1284            1921     22.4206E-03     23.0495E-03
            1283            1921     22.4206E-03     23.0495E-03
            1302            1921     22.4206E-03     23.0495E-03
            1301            1921     22.4206E-03     23.0495E-03
            1284            1922     24.2296E-03     24.8715E-03
            1303            1922     24.2296E-03     24.8715E-03
            1285            1922     24.2296E-03     24.8715E-03
            1302            1922     24.2296E-03     24.8715E-03
            1304            1923     26.0273E-03     26.6337E-03
            1285            1923     26.0273E-03     26.6337E-03
            1303            1923     26.0273E-03     26.6337E-03
            1286            1923     26.0273E-03     26.6337E-03
            1286            1924     27.8162E-03     28.2986E-03
            1304            1924     27.8162E-03     28.2986E-03
            1287            1924     27.8162E-03     28.2986E-03
            1305            1924     27.8162E-03     28.2986E-03
            1288            1925     29.5478E-03     29.9390E-03
            1287            1925     29.5478E-03     29.9390E-03
            1305            1925     29.5478E-03     29.9390E-03
            1306            1925     29.5478E-03     29.9390E-03
            1307            1926     3.41141E-03     3.39634E-03
            1308            1926     3.41141E-03     3.39634E-03
            1290            1926     3.41141E-03     3.39634E-03
            1289            1926     3.41141E-03     3.39634E-03
            1308            1927     4.22077E-03     4.51205E-03
            1309            1927     4.22077E-03     4.51205E-03
            1290            1927     4.22077E-03     4.51205E-03
            1291            1927     4.22077E-03     4.51205E-03
            1309            1928     5.46408E-03     5.91745E-03
            1291            1928     5.46408E-03     5.91745E-03
            1292            1928     5.46408E-03     5.91745E-03
            1310            1928     5.46408E-03     5.91745E-03
            1292            1929     6.91054E-03     7.45154E-03
            1310            1929     6.91054E-03     7.45154E-03
            1311            1929     6.91054E-03     7.45154E-03
            1293            1929     6.91054E-03     7.45154E-03
            1312            1930     8.46025E-03     9.04245E-03
            1294            1930     8.46025E-03     9.04245E-03
            1293            1930     8.46025E-03     9.04245E-03
            1311            1930     8.46025E-03     9.04245E-03
            1295            1931     10.0666E-03     10.6729E-03
            1313            1931     10.0666E-03     10.6729E-03
            1312            1931     10.0666E-03     10.6729E-03
            1294            1931     10.0666E-03     10.6729E-03
            1296            1932     11.7096E-03     12.3299E-03
            1314            1932     11.7096E-03     12.3299E-03
            1295            1932     11.7096E-03     12.3299E-03
            1313            1932     11.7096E-03     12.3299E-03
            1297            1933     13.3795E-03     14.0146E-03
            1314            1933     13.3795E-03     14.0146E-03
            1315            1933     13.3795E-03     14.0146E-03
            1296            1933     13.3795E-03     14.0146E-03
            1316            1934     15.0759E-03     15.7268E-03
            1315            1934     15.0759E-03     15.7268E-03
            1297            1934     15.0759E-03     15.7268E-03
            1298            1934     15.0759E-03     15.7268E-03
            1317            1935     16.8019E-03     17.4755E-03
            1316            1935     16.8019E-03     17.4755E-03
            1299            1935     16.8019E-03     17.4755E-03
            1298            1935     16.8019E-03     17.4755E-03
            1318            1936     18.5694E-03     19.2646E-03
            1317            1936     18.5694E-03     19.2646E-03
            1300            1936     18.5694E-03     19.2646E-03
            1299            1936     18.5694E-03     19.2646E-03
            1319            1937     20.4041E-03     21.1195E-03
            1300            1937     20.4041E-03     21.1195E-03
            1318            1937     20.4041E-03     21.1195E-03
            1301            1937     20.4041E-03     21.1195E-03
            1302            1938     22.3202E-03     23.0464E-03
            1301            1938     22.3202E-03     23.0464E-03
            1319            1938     22.3202E-03     23.0464E-03
            1320            1938     22.3202E-03     23.0464E-03
            1321            1939     24.4178E-03     25.0942E-03
            1320            1939     24.4178E-03     25.0942E-03
            1302            1939     24.4178E-03     25.0942E-03
            1303            1939     24.4178E-03     25.0942E-03
            1321            1940     26.6226E-03     27.2522E-03
            1303            1940     26.6226E-03     27.2522E-03
            1322            1940     26.6226E-03     27.2522E-03
            1304            1940     26.6226E-03     27.2522E-03
            1304            1941     28.8451E-03     29.4159E-03
            1323            1941     28.8451E-03     29.4159E-03
            1305            1941     28.8451E-03     29.4159E-03
            1322            1941     28.8451E-03     29.4159E-03
            1305            1942     31.0908E-03     31.4402E-03
            1324            1942     31.0908E-03     31.4402E-03
            1323            1942     31.0908E-03     31.4402E-03
            1306            1942     31.0908E-03     31.4402E-03
            1325            1943     2.67834E-03     2.77061E-03
            1308            1943     2.67834E-03     2.77061E-03
            1326            1943     2.67834E-03     2.77061E-03
            1307            1943     2.67834E-03     2.77061E-03
            1309            1944     3.62314E-03     4.04181E-03
            1308            1944     3.62314E-03     4.04181E-03
            1327            1944     3.62314E-03     4.04181E-03
            1326            1944     3.62314E-03     4.04181E-03
            1328            1945     4.97537E-03     5.55201E-03
            1309            1945     4.97537E-03     5.55201E-03
            1310            1945     4.97537E-03     5.55201E-03
            1327            1945     4.97537E-03     5.55201E-03
            1329            1946     6.48482E-03     7.14507E-03
            1311            1946     6.48482E-03     7.14507E-03
            1310            1946     6.48482E-03     7.14507E-03
            1328            1946     6.48482E-03     7.14507E-03
            1330            1947     8.06156E-03     8.77260E-03
            1311            1947     8.06156E-03     8.77260E-03
            1312            1947     8.06156E-03     8.77260E-03
            1329            1947     8.06156E-03     8.77260E-03
            1330            1948     9.67779E-03     10.4145E-03
            1313            1948     9.67779E-03     10.4145E-03
            1331            1948     9.67779E-03     10.4145E-03
            1312            1948     9.67779E-03     10.4145E-03
            1331            1949     11.3171E-03     12.0715E-03
            1332            1949     11.3171E-03     12.0715E-03
            1313            1949     11.3171E-03     12.0715E-03
            1314            1949     11.3171E-03     12.0715E-03
            1332            1950     12.9782E-03     13.7429E-03
            1314            1950     12.9782E-03     13.7429E-03
            1333            1950     12.9782E-03     13.7429E-03
            1315            1950     12.9782E-03     13.7429E-03
            1316            1951     14.6597E-03     15.4361E-03
            1333            1951     14.6597E-03     15.4361E-03
            1315            1951     14.6597E-03     15.4361E-03
            1334            1951     14.6597E-03     15.4361E-03
            1317            1952     16.3763E-03     17.1605E-03
            1335            1952     16.3763E-03     17.1605E-03
            1316            1952     16.3763E-03     17.1605E-03
            1334            1952     16.3763E-03     17.1605E-03
            1317            1953     18.1400E-03     18.9377E-03
            1318            1953     18.1400E-03     18.9377E-03
            1335            1953     18.1400E-03     18.9377E-03
            1336            1953     18.1400E-03     18.9377E-03
            1337            1954     19.9922E-03     20.7917E-03
            1318            1954     19.9922E-03     20.7917E-03
            1319            1954     19.9922E-03     20.7917E-03
            1336            1954     19.9922E-03     20.7917E-03
            1319            1955     21.9882E-03     22.7845E-03
            1338            1955     21.9882E-03     22.7845E-03
            1337            1955     21.9882E-03     22.7845E-03
            1320            1955     21.9882E-03     22.7845E-03
            1338            1956     24.1964E-03     24.9616E-03
            1339            1956     24.1964E-03     24.9616E-03
            1321            1956     24.1964E-03     24.9616E-03
            1320            1956     24.1964E-03     24.9616E-03
            1339            1957     26.8678E-03     27.4862E-03
            1321            1957     26.8678E-03     27.4862E-03
            1340            1957     26.8678E-03     27.4862E-03
            1322            1957     26.8678E-03     27.4862E-03
            1323            1958     29.7795E-03     30.2785E-03
            1322            1958     29.7795E-03     30.2785E-03
            1340            1958     29.7795E-03     30.2785E-03
            1341            1958     29.7795E-03     30.2785E-03
            1323            1959     32.4839E-03     33.0546E-03
            1324            1959     32.4839E-03     33.0546E-03
            1341            1959     32.4839E-03     33.0546E-03
            1342            1959     32.4839E-03     33.0546E-03
            1326            1960     1.94427E-03     2.21573E-03
            1343            1960     1.94427E-03     2.21573E-03
            1344            1960     1.94427E-03     2.21573E-03
            1325            1960     1.94427E-03     2.21573E-03
            1344            1961     3.07122E-03     3.66335E-03
            1326            1961     3.07122E-03     3.66335E-03
            1327            1961     3.07122E-03     3.66335E-03
            1345            1961     3.07122E-03     3.66335E-03
            1345            1962     4.53047E-03     5.26452E-03
            1346            1962     4.53047E-03     5.26452E-03
            1328            1962     4.53047E-03     5.26452E-03
            1327            1962     4.53047E-03     5.26452E-03
            1328            1963     6.08010E-03     6.89485E-03
            1347            1963     6.08010E-03     6.89485E-03
            1346            1963     6.08010E-03     6.89485E-03
            1329            1963     6.08010E-03     6.89485E-03
            1329            1964     7.67086E-03     8.52824E-03
            1330            1964     7.67086E-03     8.52824E-03
            1347            1964     7.67086E-03     8.52824E-03
            1348            1964     7.67086E-03     8.52824E-03
            1349            1965     9.27964E-03     10.1632E-03
            1331            1965     9.27964E-03     10.1632E-03
            1330            1965     9.27964E-03     10.1632E-03
            1348            1965     9.27964E-03     10.1632E-03
            1331            1966     10.9040E-03     11.7987E-03
            1350            1966     10.9040E-03     11.7987E-03
            1349            1966     10.9040E-03     11.7987E-03
            1332            1966     10.9040E-03     11.7987E-03
            1351            1967     12.5398E-03     13.4387E-03
            1333            1967     12.5398E-03     13.4387E-03
            1332            1967     12.5398E-03     13.4387E-03
            1350            1967     12.5398E-03     13.4387E-03
            1352            1968     14.1968E-03     15.0921E-03
            1333            1968     14.1968E-03     15.0921E-03
            1334            1968     14.1968E-03     15.0921E-03
            1351            1968     14.1968E-03     15.0921E-03
            1353            1969     15.8797E-03     16.7703E-03
            1352            1969     15.8797E-03     16.7703E-03
            1334            1969     15.8797E-03     16.7703E-03
            1335            1969     15.8797E-03     16.7703E-03
            1335            1970     17.6213E-03     18.4993E-03
            1353            1970     17.6213E-03     18.4993E-03
            1336            1970     17.6213E-03     18.4993E-03
            1354            1970     17.6213E-03     18.4993E-03
            1355            1971     19.4434E-03     20.3141E-03
            1354            1971     19.4434E-03     20.3141E-03
            1336            1971     19.4434E-03     20.3141E-03
            1337            1971     19.4434E-03     20.3141E-03
            1355            1972     21.4345E-03     22.2808E-03
            1338            1972     21.4345E-03     22.2808E-03
            1356            1972     21.4345E-03     22.2808E-03
            1337            1972     21.4345E-03     22.2808E-03
            1338            1973     23.6764E-03     24.5065E-03
            1339            1973     23.6764E-03     24.5065E-03
            1356            1973     23.6764E-03     24.5065E-03
            1357            1973     23.6764E-03     24.5065E-03
            1357            1974     26.3767E-03     27.1421E-03
            1339            1974     26.3767E-03     27.1421E-03
            1358            1974     26.3767E-03     27.1421E-03
            1340            1974     26.3767E-03     27.1421E-03
            1359            1975     30.0978E-03     30.5839E-03
            1358            1975     30.0978E-03     30.5839E-03
            1340            1975     30.0978E-03     30.5839E-03
            1341            1975     30.0978E-03     30.5839E-03
            1359            1976     34.0539E-03     34.1656E-03
            1341            1976     34.0539E-03     34.1656E-03
            1342            1976     34.0539E-03     34.1656E-03
            1360            1976     34.0539E-03     34.1656E-03
            1362            1977     1.30749E-03     1.85267E-03
            1361            1977     1.30749E-03     1.85267E-03
            1344            1977     1.30749E-03     1.85267E-03
            1343            1977     1.30749E-03     1.85267E-03
            1362            1978     2.65860E-03     3.46820E-03
            1363            1978     2.65860E-03     3.46820E-03
            1344            1978     2.65860E-03     3.46820E-03
            1345            1978     2.65860E-03     3.46820E-03
            1364            1979     4.17907E-03     5.10676E-03
            1345            1979     4.17907E-03     5.10676E-03
            1346            1979     4.17907E-03     5.10676E-03
            1363            1979     4.17907E-03     5.10676E-03
            1364            1980     5.74331E-03     6.73353E-03
            1346            1980     5.74331E-03     6.73353E-03
            1347            1980     5.74331E-03     6.73353E-03
            1365            1980     5.74331E-03     6.73353E-03
            1366            1981     7.32039E-03     8.34943E-03
            1365            1981     7.32039E-03     8.34943E-03
            1348            1981     7.32039E-03     8.34943E-03
            1347            1981     7.32039E-03     8.34943E-03
            1348            1982     8.90855E-03     9.95579E-03
            1367            1982     8.90855E-03     9.95579E-03
            1349            1982     8.90855E-03     9.95579E-03
            1366            1982     8.90855E-03     9.95579E-03
            1368            1983     10.5024E-03     11.5539E-03
            1349            1983     10.5024E-03     11.5539E-03
            1367            1983     10.5024E-03     11.5539E-03
            1350            1983     10.5024E-03     11.5539E-03
            1368            1984     12.1078E-03     13.1505E-03
            1350            1984     12.1078E-03     13.1505E-03
            1369            1984     12.1078E-03     13.1505E-03
            1351            1984     12.1078E-03     13.1505E-03
            1352            1985     13.7266E-03     14.7498E-03
            1369            1985     13.7266E-03     14.7498E-03
            1370            1985     13.7266E-03     14.7498E-03
            1351            1985     13.7266E-03     14.7498E-03
            1371            1986     15.3772E-03     16.3713E-03
            1352            1986     15.3772E-03     16.3713E-03
            1370            1986     15.3772E-03     16.3713E-03
            1353            1986     15.3772E-03     16.3713E-03
            1353            1987     17.0713E-03     18.0281E-03
            1371            1987     17.0713E-03     18.0281E-03
            1354            1987     17.0713E-03     18.0281E-03
            1372            1987     17.0713E-03     18.0281E-03
            1354            1988     18.8609E-03     19.7738E-03
            1372            1988     18.8609E-03     19.7738E-03
            1373            1988     18.8609E-03     19.7738E-03
            1355            1988     18.8609E-03     19.7738E-03
            1355            1989     20.7763E-03     21.6481E-03
            1356            1989     20.7763E-03     21.6481E-03
            1373            1989     20.7763E-03     21.6481E-03
            1374            1989     20.7763E-03     21.6481E-03
            1375            1990     22.9704E-03     23.8067E-03
            1356            1990     22.9704E-03     23.8067E-03
            1374            1990     22.9704E-03     23.8067E-03
            1357            1990     22.9704E-03     23.8067E-03
            1376            1991     25.5186E-03     26.3636E-03
            1358            1991     25.5186E-03     26.3636E-03
            1357            1991     25.5186E-03     26.3636E-03
            1375            1991     25.5186E-03     26.3636E-03
            1358            1992     29.0311E-03     29.9225E-03
            1377            1992     29.0311E-03     29.9225E-03
            1376            1992     29.0311E-03     29.9225E-03
            1359            1992     29.0311E-03     29.9225E-03
            1359            1993     34.3658E-03     35.0340E-03
            1360            1993     34.3658E-03     35.0340E-03
            1377            1993     34.3658E-03     35.0340E-03
            1378            1993     34.3658E-03     35.0340E-03
            1380            1994     5.78363E-03     6.79211E-03
            1362            1994     5.78363E-03     6.79211E-03
            1361            1994     5.78363E-03     6.79211E-03
            1379            1994     5.78363E-03     6.79211E-03
            1363            1995     7.21380E-03     7.69868E-03
            1362            1995     7.21380E-03     7.69868E-03
            1380            1995     7.21380E-03     7.69868E-03
            1381            1995     7.21380E-03     7.69868E-03
            1364            1996     8.57024E-03     8.98112E-03
            1381            1996     8.57024E-03     8.98112E-03
            1363            1996     8.57024E-03     8.98112E-03
            1382            1996     8.57024E-03     8.98112E-03
            1365            1997     10.0335E-03     10.4708E-03
            1383            1997     10.0335E-03     10.4708E-03
            1364            1997     10.0335E-03     10.4708E-03
            1382            1997     10.0335E-03     10.4708E-03
            1366            1998     11.5928E-03     12.0474E-03
            1384            1998     11.5928E-03     12.0474E-03
            1383            1998     11.5928E-03     12.0474E-03
            1365            1998     11.5928E-03     12.0474E-03
            1366            1999     13.2195E-03     13.6881E-03
            1385            1999     13.2195E-03     13.6881E-03
            1384            1999     13.2195E-03     13.6881E-03
            1367            1999     13.2195E-03     13.6881E-03
            1367            2000     14.8975E-03     15.3606E-03
            1386            2000     14.8975E-03     15.3606E-03
            1385            2000     14.8975E-03     15.3606E-03
            1368            2000     14.8975E-03     15.3606E-03
            1387            2001     16.6012E-03     17.0474E-03
            1369            2001     16.6012E-03     17.0474E-03
            1386            2001     16.6012E-03     17.0474E-03
            1368            2001     16.6012E-03     17.0474E-03
            1388            2002     18.3243E-03     18.7324E-03
            1370            2002     18.3243E-03     18.7324E-03
            1369            2002     18.3243E-03     18.7324E-03
            1387            2002     18.3243E-03     18.7324E-03
            1389            2003     20.0482E-03     20.4096E-03
            1388            2003     20.0482E-03     20.4096E-03
            1370            2003     20.0482E-03     20.4096E-03
            1371            2003     20.0482E-03     20.4096E-03
            1372            2004     21.7800E-03     22.0647E-03
            1390            2004     21.7800E-03     22.0647E-03
            1371            2004     21.7800E-03     22.0647E-03
            1389            2004     21.7800E-03     22.0647E-03
            1391            2005     23.5041E-03     23.7110E-03
            1373            2005     23.5041E-03     23.7110E-03
            1372            2005     23.5041E-03     23.7110E-03
            1390            2005     23.5041E-03     23.7110E-03
            1391            2006     25.2539E-03     25.3433E-03
            1392            2006     25.2539E-03     25.3433E-03
            1373            2006     25.2539E-03     25.3433E-03
            1374            2006     25.2539E-03     25.3433E-03
            1392            2007     27.0124E-03     27.0105E-03
            1393            2007     27.0124E-03     27.0105E-03
            1374            2007     27.0124E-03     27.0105E-03
            1375            2007     27.0124E-03     27.0105E-03
            1375            2008     28.8944E-03     28.7858E-03
            1393            2008     28.8944E-03     28.7858E-03
            1376            2008     28.8944E-03     28.7858E-03
            1394            2008     28.8944E-03     28.7858E-03
            1376            2009     30.8667E-03     30.7875E-03
            1377            2009     30.8667E-03     30.7875E-03
            1395            2009     30.8667E-03     30.7875E-03
            1394            2009     30.8667E-03     30.7875E-03
            1395            2010     33.6400E-03     34.1512E-03
            1396            2010     33.6400E-03     34.1512E-03
            1377            2010     33.6400E-03     34.1512E-03
            1378            2010     33.6400E-03     34.1512E-03
            1398            2011     10.0962E-03     11.3481E-03
            1380            2011     10.0962E-03     11.3481E-03
            1379            2011     10.0962E-03     11.3481E-03
            1397            2011     10.0962E-03     11.3481E-03
            1380            2012     11.1131E-03     11.5829E-03
            1399            2012     11.1131E-03     11.5829E-03
            1398            2012     11.1131E-03     11.5829E-03
            1381            2012     11.1131E-03     11.5829E-03
            1382            2013     12.4665E-03     12.4980E-03
            1381            2013     12.4665E-03     12.4980E-03
            1399            2013     12.4665E-03     12.4980E-03
            1400            2013     12.4665E-03     12.4980E-03
            1400            2014     13.9878E-03     13.9028E-03
            1382            2014     13.9878E-03     13.9028E-03
            1401            2014     13.9878E-03     13.9028E-03
            1383            2014     13.9878E-03     13.9028E-03
            1384            2015     15.6661E-03     15.5490E-03
            1383            2015     15.6661E-03     15.5490E-03
            1401            2015     15.6661E-03     15.5490E-03
            1402            2015     15.6661E-03     15.5490E-03
            1402            2016     17.4779E-03     17.3475E-03
            1385            2016     17.4779E-03     17.3475E-03
            1403            2016     17.4779E-03     17.3475E-03
            1384            2016     17.4779E-03     17.3475E-03
            1403            2017     19.3699E-03     19.2317E-03
            1385            2017     19.3699E-03     19.2317E-03
            1386            2017     19.3699E-03     19.2317E-03
            1404            2017     19.3699E-03     19.2317E-03
            1386            2018     21.3172E-03     21.1576E-03
            1404            2018     21.3172E-03     21.1576E-03
            1387            2018     21.3172E-03     21.1576E-03
            1405            2018     21.3172E-03     21.1576E-03
            1405            2019     23.2804E-03     23.0932E-03
            1406            2019     23.2804E-03     23.0932E-03
            1387            2019     23.2804E-03     23.0932E-03
            1388            2019     23.2804E-03     23.0932E-03
            1406            2020     25.2383E-03     25.0043E-03
            1407            2020     25.2383E-03     25.0043E-03
            1389            2020     25.2383E-03     25.0043E-03
            1388            2020     25.2383E-03     25.0043E-03
            1407            2021     27.1543E-03     26.8640E-03
            1389            2021     27.1543E-03     26.8640E-03
            1390            2021     27.1543E-03     26.8640E-03
            1408            2021     27.1543E-03     26.8640E-03
            1390            2022     29.0006E-03     28.6355E-03
            1408            2022     29.0006E-03     28.6355E-03
            1391            2022     29.0006E-03     28.6355E-03
            1409            2022     29.0006E-03     28.6355E-03
            1392            2023     30.7313E-03     30.2813E-03
            1409            2023     30.7313E-03     30.2813E-03
            1410            2023     30.7313E-03     30.2813E-03
            1391            2023     30.7313E-03     30.2813E-03
            1411            2024     32.2981E-03     31.7630E-03
            1410            2024     32.2981E-03     31.7630E-03
            1393            2024     32.2981E-03     31.7630E-03
            1392            2024     32.2981E-03     31.7630E-03
            1394            2025     33.6138E-03     33.0080E-03
            1412            2025     33.6138E-03     33.0080E-03
            1393            2025     33.6138E-03     33.0080E-03
            1411            2025     33.6138E-03     33.0080E-03
            1394            2026     34.5624E-03     33.9683E-03
            1395            2026     34.5624E-03     33.9683E-03
            1412            2026     34.5624E-03     33.9683E-03
            1413            2026     34.5624E-03     33.9683E-03
            1395            2027     34.9630E-03     34.2782E-03
            1413            2027     34.9630E-03     34.2782E-03
            1396            2027     34.9630E-03     34.2782E-03
            1414            2027     34.9630E-03     34.2782E-03
            1397            2028     9.15089E-03     9.79812E-03
            1416            2028     9.15089E-03     9.79812E-03
            1398            2028     9.15089E-03     9.79812E-03
            1415            2028     9.15089E-03     9.79812E-03
            1417            2029     9.84112E-03     10.6671E-03
            1416            2029     9.84112E-03     10.6671E-03
            1398            2029     9.84112E-03     10.6671E-03
            1399            2029     9.84112E-03     10.6671E-03
            1400            2030     11.3197E-03     11.7395E-03
            1417            2030     11.3197E-03     11.7395E-03
            1399            2030     11.3197E-03     11.7395E-03
            1418            2030     11.3197E-03     11.7395E-03
            1418            2031     13.1017E-03     13.2758E-03
            1419            2031     13.1017E-03     13.2758E-03
            1400            2031     13.1017E-03     13.2758E-03
            1401            2031     13.1017E-03     13.2758E-03
            1419            2032     15.0284E-03     15.1083E-03
            1401            2032     15.0284E-03     15.1083E-03
            1402            2032     15.0284E-03     15.1083E-03
            1420            2032     15.0284E-03     15.1083E-03
            1420            2033     17.0712E-03     17.1064E-03
            1402            2033     17.0712E-03     17.1064E-03
            1421            2033     17.0712E-03     17.1064E-03
            1403            2033     17.0712E-03     17.1064E-03
            1404            2034     19.1909E-03     19.2074E-03
            1422            2034     19.1909E-03     19.2074E-03
            1403            2034     19.1909E-03     19.2074E-03
            1421            2034     19.1909E-03     19.2074E-03
            1404            2035     21.3595E-03     21.3655E-03
            1422            2035     21.3595E-03     21.3655E-03
            1405            2035     21.3595E-03     21.3655E-03
            1423            2035     21.3595E-03     21.3655E-03
            1423            2036     23.5569E-03     23.5504E-03
            1406            2036     23.5569E-03     23.5504E-03
            1424            2036     23.5569E-03     23.5504E-03
            1405            2036     23.5569E-03     23.5504E-03
            1425            2037     25.7525E-03     25.7381E-03
            1424            2037     25.7525E-03     25.7381E-03
            1406            2037     25.7525E-03     25.7381E-03
            1407            2037     25.7525E-03     25.7381E-03
            1426            2038     27.9253E-03     27.8985E-03
            1425            2038     27.9253E-03     27.8985E-03
            1407            2038     27.9253E-03     27.8985E-03
            1408            2038     27.9253E-03     27.8985E-03
            1408            2039     30.0309E-03     30.0055E-03
            1409            2039     30.0309E-03     30.0055E-03
            1427            2039     30.0309E-03     30.0055E-03
            1426            2039     30.0309E-03     30.0055E-03
            1409            2040     32.0257E-03     32.0131E-03
            1428            2040     32.0257E-03     32.0131E-03
            1410            2040     32.0257E-03     32.0131E-03
            1427            2040     32.0257E-03     32.0131E-03
            1428            2041     33.8392E-03     33.8739E-03
            1429            2041     33.8392E-03     33.8739E-03
            1410            2041     33.8392E-03     33.8739E-03
            1411            2041     33.8392E-03     33.8739E-03
            1429            2042     35.3711E-03     35.5113E-03
            1411            2042     35.3711E-03     35.5113E-03
            1412            2042     35.3711E-03     35.5113E-03
            1430            2042     35.3711E-03     35.5113E-03
            1412            2043     36.5498E-03     36.7788E-03
            1430            2043     36.5498E-03     36.7788E-03
            1413            2043     36.5498E-03     36.7788E-03
            1431            2043     36.5498E-03     36.7788E-03
            1413            2044     37.4462E-03     37.5927E-03
            1414            2044     37.4462E-03     37.5927E-03
            1431            2044     37.4462E-03     37.5927E-03
            1432            2044     37.4462E-03     37.5927E-03
            1416            2045     8.03229E-03     8.22827E-03
            1415            2045     8.03229E-03     8.22827E-03
            1433            2045     8.03229E-03     8.22827E-03
            1434            2045     8.03229E-03     8.22827E-03
            1416            2046     8.92890E-03     9.50384E-03
            1434            2046     8.92890E-03     9.50384E-03
            1417            2046     8.92890E-03     9.50384E-03
            1435            2046     8.92890E-03     9.50384E-03
            1435            2047     10.4246E-03     11.0236E-03
            1417            2047     10.4246E-03     11.0236E-03
            1418            2047     10.4246E-03     11.0236E-03
            1436            2047     10.4246E-03     11.0236E-03
            1419            2048     12.3724E-03     12.7756E-03
            1436            2048     12.3724E-03     12.7756E-03
            1437            2048     12.3724E-03     12.7756E-03
            1418            2048     12.3724E-03     12.7756E-03
            1438            2049     14.5074E-03     14.7966E-03
            1437            2049     14.5074E-03     14.7966E-03
            1420            2049     14.5074E-03     14.7966E-03
            1419            2049     14.5074E-03     14.7966E-03
            1420            2050     16.7452E-03     16.9762E-03
            1439            2050     16.7452E-03     16.9762E-03
            1421            2050     16.7452E-03     16.9762E-03
            1438            2050     16.7452E-03     16.9762E-03
            1421            2051     19.0539E-03     19.2598E-03
            1439            2051     19.0539E-03     19.2598E-03
            1422            2051     19.0539E-03     19.2598E-03
            1440            2051     19.0539E-03     19.2598E-03
            1422            2052     21.4093E-03     21.6085E-03
            1440            2052     21.4093E-03     21.6085E-03
            1441            2052     21.4093E-03     21.6085E-03
            1423            2052     21.4093E-03     21.6085E-03
            1423            2053     23.7909E-03     23.9978E-03
            1424            2053     23.7909E-03     23.9978E-03
            1441            2053     23.7909E-03     23.9978E-03
            1442            2053     23.7909E-03     23.9978E-03
            1424            2054     26.1849E-03     26.4053E-03
            1443            2054     26.1849E-03     26.4053E-03
            1425            2054     26.1849E-03     26.4053E-03
            1442            2054     26.1849E-03     26.4053E-03
            1426            2055     28.5577E-03     28.8107E-03
            1443            2055     28.5577E-03     28.8107E-03
            1425            2055     28.5577E-03     28.8107E-03
            1444            2055     28.5577E-03     28.8107E-03
            1445            2056     30.8810E-03     31.1773E-03
            1444            2056     30.8810E-03     31.1773E-03
            1426            2056     30.8810E-03     31.1773E-03
            1427            2056     30.8810E-03     31.1773E-03
            1446            2057     33.0983E-03     33.4653E-03
            1427            2057     33.0983E-03     33.4653E-03
            1428            2057     33.0983E-03     33.4653E-03
            1445            2057     33.0983E-03     33.4653E-03
            1447            2058     35.1275E-03     35.6012E-03
            1428            2058     35.1275E-03     35.6012E-03
            1429            2058     35.1275E-03     35.6012E-03
            1446            2058     35.1275E-03     35.6012E-03
            1429            2059     36.9211E-03     37.4793E-03
            1447            2059     36.9211E-03     37.4793E-03
            1448            2059     36.9211E-03     37.4793E-03
            1430            2059     36.9211E-03     37.4793E-03
            1430            2060     38.3799E-03     38.9956E-03
            1449            2060     38.3799E-03     38.9956E-03
            1448            2060     38.3799E-03     38.9956E-03
            1431            2060     38.3799E-03     38.9956E-03
            1432            2061     39.7446E-03     40.2141E-03
            1449            2061     39.7446E-03     40.2141E-03
            1450            2061     39.7446E-03     40.2141E-03
            1431            2061     39.7446E-03     40.2141E-03
            1451            2062     6.93562E-03     7.12177E-03
            1434            2062     6.93562E-03     7.12177E-03
            1452            2062     6.93562E-03     7.12177E-03
            1433            2062     6.93562E-03     7.12177E-03
            1452            2063     8.00306E-03     8.46040E-03
            1434            2063     8.00306E-03     8.46040E-03
            1435            2063     8.00306E-03     8.46040E-03
            1453            2063     8.00306E-03     8.46040E-03
            1453            2064     9.69849E-03     10.2961E-03
            1454            2064     9.69849E-03     10.2961E-03
            1435            2064     9.69849E-03     10.2961E-03
            1436            2064     9.69849E-03     10.2961E-03
            1437            2065     11.7656E-03     12.3327E-03
            1454            2065     11.7656E-03     12.3327E-03
            1436            2065     11.7656E-03     12.3327E-03
            1455            2065     11.7656E-03     12.3327E-03
            1437            2066     14.0536E-03     14.5293E-03
            1455            2066     14.0536E-03     14.5293E-03
            1456            2066     14.0536E-03     14.5293E-03
            1438            2066     14.0536E-03     14.5293E-03
            1438            2067     16.4404E-03     16.8667E-03
            1439            2067     16.4404E-03     16.8667E-03
            1456            2067     16.4404E-03     16.8667E-03
            1457            2067     16.4404E-03     16.8667E-03
            1439            2068     18.8902E-03     19.2920E-03
            1440            2068     18.8902E-03     19.2920E-03
            1458            2068     18.8902E-03     19.2920E-03
            1457            2068     18.8902E-03     19.2920E-03
            1459            2069     21.3814E-03     21.7836E-03
            1441            2069     21.3814E-03     21.7836E-03
            1458            2069     21.3814E-03     21.7836E-03
            1440            2069     21.3814E-03     21.7836E-03
            1460            2070     23.9036E-03     24.3219E-03
            1441            2070     23.9036E-03     24.3219E-03
            1459            2070     23.9036E-03     24.3219E-03
            1442            2070     23.9036E-03     24.3219E-03
            1442            2071     26.4380E-03     26.8918E-03
            1443            2071     26.4380E-03     26.8918E-03
            1461            2071     26.4380E-03     26.8918E-03
            1460            2071     26.4380E-03     26.8918E-03
            1461            2072     28.9746E-03     29.4747E-03
            1444            2072     28.9746E-03     29.4747E-03
            1462            2072     28.9746E-03     29.4747E-03
            1443            2072     28.9746E-03     29.4747E-03
            1444            2073     31.4731E-03     32.0437E-03
            1445            2073     31.4731E-03     32.0437E-03
            1463            2073     31.4731E-03     32.0437E-03
            1462            2073     31.4731E-03     32.0437E-03
            1464            2074     33.8909E-03     34.5449E-03
            1445            2074     33.8909E-03     34.5449E-03
            1446            2074     33.8909E-03     34.5449E-03
            1463            2074     33.8909E-03     34.5449E-03
            1447            2075     36.1722E-03     36.9013E-03
            1446            2075     36.1722E-03     36.9013E-03
            1464            2075     36.1722E-03     36.9013E-03
            1465            2075     36.1722E-03     36.9013E-03
            1448            2076     38.2169E-03     39.0122E-03
            1465            2076     38.2169E-03     39.0122E-03
            1447            2076     38.2169E-03     39.0122E-03
            1466            2076     38.2169E-03     39.0122E-03
            1467            2077     40.0766E-03     40.7923E-03
            1448            2077     40.0766E-03     40.7923E-03
            1449            2077     40.0766E-03     40.7923E-03
            1466            2077     40.0766E-03     40.7923E-03
            1468            2078     41.8260E-03     42.2857E-03
            1450            2078     41.8260E-03     42.2857E-03
            1449            2078     41.8260E-03     42.2857E-03
            1467            2078     41.8260E-03     42.2857E-03
            1451            2079     5.90205E-03     6.01052E-03
            1470            2079     5.90205E-03     6.01052E-03
            1452            2079     5.90205E-03     6.01052E-03
            1469            2079     5.90205E-03     6.01052E-03
            1470            2080     7.12780E-03     7.62655E-03
            1471            2080     7.12780E-03     7.62655E-03
            1452            2080     7.12780E-03     7.62655E-03
            1453            2080     7.12780E-03     7.62655E-03
            1454            2081     9.01070E-03     9.64236E-03
            1453            2081     9.01070E-03     9.64236E-03
            1472            2081     9.01070E-03     9.64236E-03
            1471            2081     9.01070E-03     9.64236E-03
            1472            2082     11.2322E-03     11.8949E-03
            1455            2082     11.2322E-03     11.8949E-03
            1454            2082     11.2322E-03     11.8949E-03
            1473            2082     11.2322E-03     11.8949E-03
            1455            2083     13.6231E-03     14.2594E-03
            1456            2083     13.6231E-03     14.2594E-03
            1474            2083     13.6231E-03     14.2594E-03
            1473            2083     13.6231E-03     14.2594E-03
            1474            2084     16.1130E-03     16.7127E-03
            1456            2084     16.1130E-03     16.7127E-03
            1457            2084     16.1130E-03     16.7127E-03
            1475            2084     16.1130E-03     16.7127E-03
            1458            2085     18.6541E-03     19.2414E-03
            1457            2085     18.6541E-03     19.2414E-03
            1476            2085     18.6541E-03     19.2414E-03
            1475            2085     18.6541E-03     19.2414E-03
            1459            2086     21.2342E-03     21.8268E-03
            1477            2086     21.2342E-03     21.8268E-03
            1476            2086     21.2342E-03     21.8268E-03
            1458            2086     21.2342E-03     21.8268E-03
            1460            2087     23.8424E-03     24.4595E-03
            1477            2087     23.8424E-03     24.4595E-03
            1459            2087     23.8424E-03     24.4595E-03
            1478            2087     23.8424E-03     24.4595E-03
            1479            2088     26.4777E-03     27.1340E-03
            1478            2088     26.4777E-03     27.1340E-03
            1460            2088     26.4777E-03     27.1340E-03
            1461            2088     26.4777E-03     27.1340E-03
            1479            2089     29.1232E-03     29.8370E-03
            1480            2089     29.1232E-03     29.8370E-03
            1461            2089     29.1232E-03     29.8370E-03
            1462            2089     29.1232E-03     29.8370E-03
            1481            2090     31.7785E-03     32.5533E-03
            1462            2090     31.7785E-03     32.5533E-03
            1480            2090     31.7785E-03     32.5533E-03
            1463            2090     31.7785E-03     32.5533E-03
            1481            2091     34.3966E-03     35.2426E-03
            1463            2091     34.3966E-03     35.2426E-03
            1482            2091     34.3966E-03     35.2426E-03
            1464            2091     34.3966E-03     35.2426E-03
            1482            2092     36.9318E-03     37.8262E-03
            1464            2092     36.9318E-03     37.8262E-03
            1483            2092     36.9318E-03     37.8262E-03
            1465            2092     36.9318E-03     37.8262E-03
            1465            2093     39.3421E-03     40.2090E-03
            1483            2093     39.3421E-03     40.2090E-03
            1466            2093     39.3421E-03     40.2090E-03
            1484            2093     39.3421E-03     40.2090E-03
            1467            2094     41.5643E-03     42.3275E-03
            1484            2094     41.5643E-03     42.3275E-03
            1485            2094     41.5643E-03     42.3275E-03
            1466            2094     41.5643E-03     42.3275E-03
            1485            2095     43.7064E-03     44.2249E-03
            1467            2095     43.7064E-03     44.2249E-03
            1468            2095     43.7064E-03     44.2249E-03
            1486            2095     43.7064E-03     44.2249E-03
            1487            2096     4.85108E-03     5.03637E-03
            1488            2096     4.85108E-03     5.03637E-03
            1469            2096     4.85108E-03     5.03637E-03
            1470            2096     4.85108E-03     5.03637E-03
            1488            2097     6.29880E-03     6.84849E-03
            1470            2097     6.29880E-03     6.84849E-03
            1489            2097     6.29880E-03     6.84849E-03
            1471            2097     6.29880E-03     6.84849E-03
            1489            2098     8.36822E-03     9.08705E-03
            1471            2098     8.36822E-03     9.08705E-03
            1490            2098     8.36822E-03     9.08705E-03
            1472            2098     8.36822E-03     9.08705E-03
            1490            2099     10.7142E-03     11.4749E-03
            1473            2099     10.7142E-03     11.4749E-03
            1472            2099     10.7142E-03     11.4749E-03
            1491            2099     10.7142E-03     11.4749E-03
            1473            2100     13.1916E-03     13.9550E-03
            1474            2100     13.1916E-03     13.9550E-03
            1491            2100     13.1916E-03     13.9550E-03
            1492            2100     13.1916E-03     13.9550E-03
            1475            2101     15.7374E-03     16.4917E-03
            1492            2101     15.7374E-03     16.4917E-03
            1493            2101     15.7374E-03     16.4917E-03
            1474            2101     15.7374E-03     16.4917E-03
            1476            2102     18.3270E-03     19.0795E-03
            1494            2102     18.3270E-03     19.0795E-03
            1493            2102     18.3270E-03     19.0795E-03
            1475            2102     18.3270E-03     19.0795E-03
            1494            2103     20.9482E-03     21.7121E-03
            1476            2103     20.9482E-03     21.7121E-03
            1495            2103     20.9482E-03     21.7121E-03
            1477            2103     20.9482E-03     21.7121E-03
            1496            2104     23.5997E-03     24.3902E-03
            1478            2104     23.5997E-03     24.3902E-03
            1495            2104     23.5997E-03     24.3902E-03
            1477            2104     23.5997E-03     24.3902E-03
            1497            2105     26.2817E-03     27.1108E-03
            1496            2105     26.2817E-03     27.1108E-03
            1479            2105     26.2817E-03     27.1108E-03
            1478            2105     26.2817E-03     27.1108E-03
            1498            2106     29.0052E-03     29.8830E-03
            1479            2106     29.0052E-03     29.8830E-03
            1480            2106     29.0052E-03     29.8830E-03
            1497            2106     29.0052E-03     29.8830E-03
            1499            2107     31.7618E-03     32.6953E-03
            1480            2107     31.7618E-03     32.6953E-03
            1498            2107     31.7618E-03     32.6953E-03
            1481            2107     31.7618E-03     32.6953E-03
            1499            2108     34.5857E-03     35.5478E-03
            1481            2108     34.5857E-03     35.5478E-03
            1482            2108     34.5857E-03     35.5478E-03
            1500            2108     34.5857E-03     35.5478E-03
            1483            2109     37.4155E-03     38.3984E-03
            1482            2109     37.4155E-03     38.3984E-03
            1501            2109     37.4155E-03     38.3984E-03
            1500            2109     37.4155E-03     38.3984E-03
            1502            2110     40.2089E-03     41.1417E-03
            1501            2110     40.2089E-03     41.1417E-03
            1483            2110     40.2089E-03     41.1417E-03
            1484            2110     40.2089E-03     41.1417E-03
            1485            2111     42.9192E-03     43.6791E-03
            1503            2111     42.9192E-03     43.6791E-03
            1502            2111     42.9192E-03     43.6791E-03
            1484            2111     42.9192E-03     43.6791E-03
            1485            2112     45.4329E-03     46.0422E-03
            1503            2112     45.4329E-03     46.0422E-03
            1486            2112     45.4329E-03     46.0422E-03
            1504            2112     45.4329E-03     46.0422E-03
            1506            2113     3.83993E-03     4.10750E-03
            1487            2113     3.83993E-03     4.10750E-03
            1505            2113     3.83993E-03     4.10750E-03
            1488            2113     3.83993E-03     4.10750E-03
            1489            2114     5.51786E-03     6.20146E-03
            1506            2114     5.51786E-03     6.20146E-03
            1507            2114     5.51786E-03     6.20146E-03
            1488            2114     5.51786E-03     6.20146E-03
            1507            2115     7.76947E-03     8.59350E-03
            1490            2115     7.76947E-03     8.59350E-03
            1508            2115     7.76947E-03     8.59350E-03
            1489            2115     7.76947E-03     8.59350E-03
            1490            2116     10.2156E-03     11.0850E-03
            1508            2116     10.2156E-03     11.0850E-03
            1509            2116     10.2156E-03     11.0850E-03
            1491            2116     10.2156E-03     11.0850E-03
            1491            2117     12.7434E-03     13.6259E-03
            1509            2117     12.7434E-03     13.6259E-03
            1510            2117     12.7434E-03     13.6259E-03
            1492            2117     12.7434E-03     13.6259E-03
            1492            2118     15.3117E-03     16.2060E-03
            1493            2118     15.3117E-03     16.2060E-03
            1511            2118     15.3117E-03     16.2060E-03
            1510            2118     15.3117E-03     16.2060E-03
            1512            2119     17.9103E-03     18.8117E-03
            1494            2119     17.9103E-03     18.8117E-03
            1511            2119     17.9103E-03     18.8117E-03
            1493            2119     17.9103E-03     18.8117E-03
            1513            2120     20.5331E-03     21.4501E-03
            1495            2120     20.5331E-03     21.4501E-03
            1512            2120     20.5331E-03     21.4501E-03
            1494            2120     20.5331E-03     21.4501E-03
            1513            2121     23.1851E-03     24.1226E-03
            1514            2121     23.1851E-03     24.1226E-03
            1496            2121     23.1851E-03     24.1226E-03
            1495            2121     23.1851E-03     24.1226E-03
            1497            2122     25.8732E-03     26.8438E-03
            1514            2122     25.8732E-03     26.8438E-03
            1515            2122     25.8732E-03     26.8438E-03
            1496            2122     25.8732E-03     26.8438E-03
            1497            2123     28.6154E-03     29.6199E-03
            1516            2123     28.6154E-03     29.6199E-03
            1515            2123     28.6154E-03     29.6199E-03
            1498            2123     28.6154E-03     29.6199E-03
            1499            2124     31.4457E-03     32.4847E-03
            1517            2124     31.4457E-03     32.4847E-03
            1498            2124     31.4457E-03     32.4847E-03
            1516            2124     31.4457E-03     32.4847E-03
            1499            2125     34.3790E-03     35.4427E-03
            1500            2125     34.3790E-03     35.4427E-03
            1517            2125     34.3790E-03     35.4427E-03
            1518            2125     34.3790E-03     35.4427E-03
            1501            2126     37.5399E-03     38.5464E-03
            1500            2126     37.5399E-03     38.5464E-03
            1519            2126     37.5399E-03     38.5464E-03
            1518            2126     37.5399E-03     38.5464E-03
            1519            2127     40.8071E-03     41.7603E-03
            1501            2127     40.8071E-03     41.7603E-03
            1502            2127     40.8071E-03     41.7603E-03
            1520            2127     40.8071E-03     41.7603E-03
            1520            2128     44.0304E-03     44.8986E-03
            1502            2128     44.0304E-03     44.8986E-03
            1503            2128     44.0304E-03     44.8986E-03
            1521            2128     44.0304E-03     44.8986E-03
            1504            2129     47.1602E-03     47.7058E-03
            1521            2129     47.1602E-03     47.7058E-03
            1503            2129     47.1602E-03     47.7058E-03
            1522            2129     47.1602E-03     47.7058E-03
            1505            2130     2.84192E-03     3.35155E-03
            1524            2130     2.84192E-03     3.35155E-03
            1506            2130     2.84192E-03     3.35155E-03
            1523            2130     2.84192E-03     3.35155E-03
            1507            2131     4.83269E-03     5.71059E-03
            1524            2131     4.83269E-03     5.71059E-03
            1506            2131     4.83269E-03     5.71059E-03
            1525            2131     4.83269E-03     5.71059E-03
            1507            2132     7.25133E-03     8.19116E-03
            1508            2132     7.25133E-03     8.19116E-03
            1525            2132     7.25133E-03     8.19116E-03
            1526            2132     7.25133E-03     8.19116E-03
            1509            2133     9.75790E-03     10.7357E-03
            1508            2133     9.75790E-03     10.7357E-03
            1527            2133     9.75790E-03     10.7357E-03
            1526            2133     9.75790E-03     10.7357E-03
            1528            2134     12.2922E-03     13.3074E-03
            1527            2134     12.2922E-03     13.3074E-03
            1509            2134     12.2922E-03     13.3074E-03
            1510            2134     12.2922E-03     13.3074E-03
            1529            2135     14.8516E-03     15.8833E-03
            1528            2135     14.8516E-03     15.8833E-03
            1510            2135     14.8516E-03     15.8833E-03
            1511            2135     14.8516E-03     15.8833E-03
            1511            2136     17.4254E-03     18.4725E-03
            1530            2136     17.4254E-03     18.4725E-03
            1529            2136     17.4254E-03     18.4725E-03
            1512            2136     17.4254E-03     18.4725E-03
            1513            2137     20.0191E-03     21.0754E-03
            1531            2137     20.0191E-03     21.0754E-03
            1530            2137     20.0191E-03     21.0754E-03
            1512            2137     20.0191E-03     21.0754E-03
            1513            2138     22.6338E-03     23.7043E-03
            1532            2138     22.6338E-03     23.7043E-03
            1531            2138     22.6338E-03     23.7043E-03
            1514            2138     22.6338E-03     23.7043E-03
            1515            2139     25.2906E-03     26.3716E-03
            1533            2139     25.2906E-03     26.3716E-03
            1532            2139     25.2906E-03     26.3716E-03
            1514            2139     25.2906E-03     26.3716E-03
            1534            2140     28.0051E-03     29.1069E-03
            1515            2140     28.0051E-03     29.1069E-03
            1533            2140     28.0051E-03     29.1069E-03
            1516            2140     28.0051E-03     29.1069E-03
            1534            2141     30.8287E-03     31.9386E-03
            1535            2141     30.8287E-03     31.9386E-03
            1517            2141     30.8287E-03     31.9386E-03
            1516            2141     30.8287E-03     31.9386E-03
            1536            2142     33.8308E-03     34.9447E-03
            1518            2142     33.8308E-03     34.9447E-03
            1535            2142     33.8308E-03     34.9447E-03
            1517            2142     33.8308E-03     34.9447E-03
            1536            2143     37.0873E-03     38.1756E-03
            1518            2143     37.0873E-03     38.1756E-03
            1519            2143     37.0873E-03     38.1756E-03
            1537            2143     37.0873E-03     38.1756E-03
            1519            2144     40.9149E-03     41.8219E-03
            1520            2144     40.9149E-03     41.8219E-03
            1537            2144     40.9149E-03     41.8219E-03
            1538            2144     40.9149E-03     41.8219E-03
            1538            2145     44.9822E-03     45.7416E-03
            1520            2145     44.9822E-03     45.7416E-03
            1521            2145     44.9822E-03     45.7416E-03
            1539            2145     44.9822E-03     45.7416E-03
            1540            2146     48.6622E-03     49.4987E-03
            1521            2146     48.6622E-03     49.4987E-03
            1539            2146     48.6622E-03     49.4987E-03
            1522            2146     48.6622E-03     49.4987E-03
            1542            2147     2.04261E-03     3.00985E-03
            1523            2147     2.04261E-03     3.00985E-03
            1524            2147     2.04261E-03     3.00985E-03
            1541            2147     2.04261E-03     3.00985E-03
            1542            2148     4.40026E-03     5.39977E-03
            1543            2148     4.40026E-03     5.39977E-03
            1524            2148     4.40026E-03     5.39977E-03
            1525            2148     4.40026E-03     5.39977E-03
            1526            2149     6.88397E-03     7.92925E-03
            1544            2149     6.88397E-03     7.92925E-03
            1525            2149     6.88397E-03     7.92925E-03
            1543            2149     6.88397E-03     7.92925E-03
            1544            2150     9.37114E-03     10.4899E-03
            1527            2150     9.37114E-03     10.4899E-03
            1526            2150     9.37114E-03     10.4899E-03
            1545            2150     9.37114E-03     10.4899E-03
            1545            2151     11.8772E-03     13.0369E-03
            1546            2151     11.8772E-03     13.0369E-03
            1528            2151     11.8772E-03     13.0369E-03
            1527            2151     11.8772E-03     13.0369E-03
            1528            2152     14.3901E-03     15.5780E-03
            1546            2152     14.3901E-03     15.5780E-03
            1547            2152     14.3901E-03     15.5780E-03
            1529            2152     14.3901E-03     15.5780E-03
            1530            2153     16.9148E-03     18.1129E-03
            1547            2153     16.9148E-03     18.1129E-03
            1548            2153     16.9148E-03     18.1129E-03
            1529            2153     16.9148E-03     18.1129E-03
            1549            2154     19.4488E-03     20.6494E-03
            1530            2154     19.4488E-03     20.6494E-03
            1531            2154     19.4488E-03     20.6494E-03
            1548            2154     19.4488E-03     20.6494E-03
            1550            2155     22.0065E-03     23.1988E-03
            1531            2155     22.0065E-03     23.1988E-03
            1532            2155     22.0065E-03     23.1988E-03
            1549            2155     22.0065E-03     23.1988E-03
            1550            2156     24.5930E-03     25.7765E-03
            1533            2156     24.5930E-03     25.7765E-03
            1532            2156     24.5930E-03     25.7765E-03
            1551            2156     24.5930E-03     25.7765E-03
            1533            2157     27.2500E-03     28.4137E-03
            1551            2157     27.2500E-03     28.4137E-03
            1534            2157     27.2500E-03     28.4137E-03
            1552            2157     27.2500E-03     28.4137E-03
            1534            2158     30.0021E-03     31.1553E-03
            1552            2158     30.0021E-03     31.1553E-03
            1535            2158     30.0021E-03     31.1553E-03
            1553            2158     30.0021E-03     31.1553E-03
            1553            2159     32.9583E-03     34.0809E-03
            1536            2159     32.9583E-03     34.0809E-03
            1535            2159     32.9583E-03     34.0809E-03
            1554            2159     32.9583E-03     34.0809E-03
            1537            2160     36.2175E-03     37.3245E-03
            1555            2160     36.2175E-03     37.3245E-03
            1536            2160     36.2175E-03     37.3245E-03
            1554            2160     36.2175E-03     37.3245E-03
            1538            2161     40.0309E-03     41.0675E-03
            1537            2161     40.0309E-03     41.0675E-03
            1555            2161     40.0309E-03     41.0675E-03
            1556            2161     40.0309E-03     41.0675E-03
            1538            2162     45.1078E-03     45.7915E-03
            1557            2162     45.1078E-03     45.7915E-03
            1556            2162     45.1078E-03     45.7915E-03
            1539            2162     45.1078E-03     45.7915E-03
            1540            2163     50.3582E-03     50.5477E-03
            1539            2163     50.3582E-03     50.5477E-03
            1558            2163     50.3582E-03     50.5477E-03
            1557            2163     50.3582E-03     50.5477E-03
            1542            2164     2.10934E-03     3.11261E-03
            1541            2164     2.10934E-03     3.11261E-03
            1559            2164     2.10934E-03     3.11261E-03
            1560            2164     2.10934E-03     3.11261E-03
            1560            2165     4.39008E-03     5.40411E-03
            1542            2165     4.39008E-03     5.40411E-03
            1561            2165     4.39008E-03     5.40411E-03
            1543            2165     4.39008E-03     5.40411E-03
            1562            2166     6.72844E-03     7.90493E-03
            1561            2166     6.72844E-03     7.90493E-03
            1543            2166     6.72844E-03     7.90493E-03
            1544            2166     6.72844E-03     7.90493E-03
            1545            2167     9.12732E-03     10.4020E-03
            1563            2167     9.12732E-03     10.4020E-03
            1544            2167     9.12732E-03     10.4020E-03
            1562            2167     9.12732E-03     10.4020E-03
            1564            2168     11.5465E-03     12.8830E-03
            1546            2168     11.5465E-03     12.8830E-03
            1545            2168     11.5465E-03     12.8830E-03
            1563            2168     11.5465E-03     12.8830E-03
            1565            2169     13.9835E-03     15.3493E-03
            1546            2169     13.9835E-03     15.3493E-03
            1547            2169     13.9835E-03     15.3493E-03
            1564            2169     13.9835E-03     15.3493E-03
            1547            2170     16.4283E-03     17.8010E-03
            1566            2170     16.4283E-03     17.8010E-03
            1548            2170     16.4283E-03     17.8010E-03
            1565            2170     16.4283E-03     17.8010E-03
            1567            2171     18.8879E-03     20.2465E-03
            1566            2171     18.8879E-03     20.2465E-03
            1549            2171     18.8879E-03     20.2465E-03
            1548            2171     18.8879E-03     20.2465E-03
            1550            2172     21.3617E-03     22.6903E-03
            1568            2172     21.3617E-03     22.6903E-03
            1567            2172     21.3617E-03     22.6903E-03
            1549            2172     21.3617E-03     22.6903E-03
            1569            2173     23.8730E-03     25.1553E-03
            1550            2173     23.8730E-03     25.1553E-03
            1568            2173     23.8730E-03     25.1553E-03
            1551            2173     23.8730E-03     25.1553E-03
            1552            2174     26.4327E-03     27.6565E-03
            1569            2174     26.4327E-03     27.6565E-03
            1551            2174     26.4327E-03     27.6565E-03
            1570            2174     26.4327E-03     27.6565E-03
            1570            2175     29.1055E-03     30.2590E-03
            1552            2175     29.1055E-03     30.2590E-03
            1571            2175     29.1055E-03     30.2590E-03
            1553            2175     29.1055E-03     30.2590E-03
            1553            2176     31.9235E-03     33.0090E-03
            1572            2176     31.9235E-03     33.0090E-03
            1571            2176     31.9235E-03     33.0090E-03
            1554            2176     31.9235E-03     33.0090E-03
            1573            2177     35.0780E-03     36.1018E-03
            1555            2177     35.0780E-03     36.1018E-03
            1554            2177     35.0780E-03     36.1018E-03
            1572            2177     35.0780E-03     36.1018E-03
            1555            2178     38.6509E-03     39.6716E-03
            1573            2178     38.6509E-03     39.6716E-03
            1574            2178     38.6509E-03     39.6716E-03
            1556            2178     38.6509E-03     39.6716E-03
            1556            2179     43.4150E-03     44.4902E-03
            1575            2179     43.4150E-03     44.4902E-03
            1557            2179     43.4150E-03     44.4902E-03
            1574            2179     43.4150E-03     44.4902E-03
            1575            2180     50.3962E-03     51.1587E-03
            1558            2180     50.3962E-03     51.1587E-03
            1576            2180     50.3962E-03     51.1587E-03
            1557            2180     50.3962E-03     51.1587E-03
            1560            2181     7.76563E-03     8.93479E-03
            1577            2181     7.76563E-03     8.93479E-03
            1559            2181     7.76563E-03     8.93479E-03
            1578            2181     7.76563E-03     8.93479E-03
            1579            2182     9.74695E-03     10.2826E-03
            1560            2182     9.74695E-03     10.2826E-03
            1561            2182     9.74695E-03     10.2826E-03
            1578            2182     9.74695E-03     10.2826E-03
            1561            2183     11.7479E-03     12.2675E-03
            1562            2183     11.7479E-03     12.2675E-03
            1579            2183     11.7479E-03     12.2675E-03
            1580            2183     11.7479E-03     12.2675E-03
            1562            2184     13.9548E-03     14.5531E-03
            1563            2184     13.9548E-03     14.5531E-03
            1580            2184     13.9548E-03     14.5531E-03
            1581            2184     13.9548E-03     14.5531E-03
            1581            2185     16.3089E-03     16.9544E-03
            1563            2185     16.3089E-03     16.9544E-03
            1582            2185     16.3089E-03     16.9544E-03
            1564            2185     16.3089E-03     16.9544E-03
            1582            2186     18.7653E-03     19.4419E-03
            1564            2186     18.7653E-03     19.4419E-03
            1583            2186     18.7653E-03     19.4419E-03
            1565            2186     18.7653E-03     19.4419E-03
            1583            2187     21.2879E-03     21.9644E-03
            1565            2187     21.2879E-03     21.9644E-03
            1584            2187     21.2879E-03     21.9644E-03
            1566            2187     21.2879E-03     21.9644E-03
            1584            2188     23.8464E-03     24.5053E-03
            1585            2188     23.8464E-03     24.5053E-03
            1567            2188     23.8464E-03     24.5053E-03
            1566            2188     23.8464E-03     24.5053E-03
            1586            2189     26.4295E-03     27.0409E-03
            1585            2189     26.4295E-03     27.0409E-03
            1567            2189     26.4295E-03     27.0409E-03
            1568            2189     26.4295E-03     27.0409E-03
            1587            2190     29.0116E-03     29.5623E-03
            1586            2190     29.0116E-03     29.5623E-03
            1568            2190     29.0116E-03     29.5623E-03
            1569            2190     29.0116E-03     29.5623E-03
            1587            2191     31.6100E-03     32.0582E-03
            1570            2191     31.6100E-03     32.0582E-03
            1588            2191     31.6100E-03     32.0582E-03
            1569            2191     31.6100E-03     32.0582E-03
            1588            2192     34.1895E-03     34.5309E-03
            1570            2192     34.1895E-03     34.5309E-03
            1589            2192     34.1895E-03     34.5309E-03
            1571            2192     34.1895E-03     34.5309E-03
            1571            2193     36.8187E-03     36.9930E-03
            1572            2193     36.8187E-03     36.9930E-03
            1590            2193     36.8187E-03     36.9930E-03
            1589            2193     36.8187E-03     36.9930E-03
            1590            2194     39.4411E-03     39.4871E-03
            1573            2194     39.4411E-03     39.4871E-03
            1591            2194     39.4411E-03     39.4871E-03
            1572            2194     39.4411E-03     39.4871E-03
            1573            2195     42.2523E-03     42.1368E-03
            1574            2195     42.2523E-03     42.1368E-03
            1591            2195     42.2523E-03     42.1368E-03
            1592            2195     42.2523E-03     42.1368E-03
            1592            2196     45.1727E-03     45.0966E-03
            1574            2196     45.1727E-03     45.0966E-03
            1593            2196     45.1727E-03     45.0966E-03
            1575            2196     45.1727E-03     45.0966E-03
            1593            2197     49.2238E-03     50.0030E-03
            1576            2197     49.2238E-03     50.0030E-03
            1594            2197     49.2238E-03     50.0030E-03
            1575            2197     49.2238E-03     50.0030E-03
            1595            2198     12.3762E-03     13.9247E-03
            1596            2198     12.3762E-03     13.9247E-03
            1577            2198     12.3762E-03     13.9247E-03
            1578            2198     12.3762E-03     13.9247E-03
            1596            2199     13.8994E-03     14.4796E-03
            1578            2199     13.8994E-03     14.4796E-03
            1597            2199     13.8994E-03     14.4796E-03
            1579            2199     13.8994E-03     14.4796E-03
            1580            2200     15.9256E-03     16.0205E-03
            1579            2200     15.9256E-03     16.0205E-03
            1598            2200     15.9256E-03     16.0205E-03
            1597            2200     15.9256E-03     16.0205E-03
            1599            2201     18.2175E-03     18.2066E-03
            1598            2201     18.2175E-03     18.2066E-03
            1580            2201     18.2175E-03     18.2066E-03
            1581            2201     18.2175E-03     18.2066E-03
            1599            2202     20.7306E-03     20.7068E-03
            1581            2202     20.7306E-03     20.7068E-03
            1600            2202     20.7306E-03     20.7068E-03
            1582            2202     20.7306E-03     20.7068E-03
            1582            2203     23.4153E-03     23.3937E-03
            1583            2203     23.4153E-03     23.3937E-03
            1600            2203     23.4153E-03     23.3937E-03
            1601            2203     23.4153E-03     23.3937E-03
            1602            2204     26.2056E-03     26.1827E-03
            1601            2204     26.2056E-03     26.1827E-03
            1583            2204     26.2056E-03     26.1827E-03
            1584            2204     26.2056E-03     26.1827E-03
            1584            2205     29.0614E-03     29.0248E-03
            1585            2205     29.0614E-03     29.0248E-03
            1602            2205     29.0614E-03     29.0248E-03
            1603            2205     29.0614E-03     29.0248E-03
            1585            2206     31.9438E-03     31.8755E-03
            1586            2206     31.9438E-03     31.8755E-03
            1603            2206     31.9438E-03     31.8755E-03
            1604            2206     31.9438E-03     31.8755E-03
            1586            2207     34.8221E-03     34.7074E-03
            1605            2207     34.8221E-03     34.7074E-03
            1604            2207     34.8221E-03     34.7074E-03
            1587            2207     34.8221E-03     34.7074E-03
            1588            2208     37.6600E-03     37.4751E-03
            1587            2208     37.6600E-03     37.4751E-03
            1606            2208     37.6600E-03     37.4751E-03
            1605            2208     37.6600E-03     37.4751E-03
            1588            2209     40.4302E-03     40.1548E-03
            1589            2209     40.4302E-03     40.1548E-03
            1607            2209     40.4302E-03     40.1548E-03
            1606            2209     40.4302E-03     40.1548E-03
            1608            2210     43.0662E-03     42.6881E-03
            1589            2210     43.0662E-03     42.6881E-03
            1607            2210     43.0662E-03     42.6881E-03
            1590            2210     43.0662E-03     42.6881E-03
            1590            2211     45.5513E-03     45.0504E-03
            1591            2211     45.5513E-03     45.0504E-03
            1609            2211     45.5513E-03     45.0504E-03
            1608            2211     45.5513E-03     45.0504E-03
            1609            2212     47.7423E-03     47.1694E-03
            1610            2212     47.7423E-03     47.1694E-03
            1592            2212     47.7423E-03     47.1694E-03
            1591            2212     47.7423E-03     47.1694E-03
            1592            2213     49.6218E-03     49.0480E-03
            1593            2213     49.6218E-03     49.0480E-03
            1610            2213     49.6218E-03     49.0480E-03
            1611            2213     49.6218E-03     49.0480E-03
            1611            2214     51.0270E-03     50.2945E-03
            1594            2214     51.0270E-03     50.2945E-03
            1612            2214     51.0270E-03     50.2945E-03
            1593            2214     51.0270E-03     50.2945E-03
            1613            2215     10.9392E-03     11.8197E-03
            1595            2215     10.9392E-03     11.8197E-03
            1596            2215     10.9392E-03     11.8197E-03
            1614            2215     10.9392E-03     11.8197E-03
            1614            2216     12.1174E-03     13.2073E-03
            1596            2216     12.1174E-03     13.2073E-03
            1597            2216     12.1174E-03     13.2073E-03
            1615            2216     12.1174E-03     13.2073E-03
            1615            2217     14.3793E-03     14.9650E-03
            1616            2217     14.3793E-03     14.9650E-03
            1598            2217     14.3793E-03     14.9650E-03
            1597            2217     14.3793E-03     14.9650E-03
            1598            2218     17.0350E-03     17.3522E-03
            1617            2218     17.0350E-03     17.3522E-03
            1599            2218     17.0350E-03     17.3522E-03
            1616            2218     17.0350E-03     17.3522E-03
            1600            2219     19.8724E-03     20.0994E-03
            1599            2219     19.8724E-03     20.0994E-03
            1617            2219     19.8724E-03     20.0994E-03
            1618            2219     19.8724E-03     20.0994E-03
            1600            2220     22.8533E-03     23.0412E-03
            1619            2220     22.8533E-03     23.0412E-03
            1601            2220     22.8533E-03     23.0412E-03
            1618            2220     22.8533E-03     23.0412E-03
            1619            2221     25.9212E-03     26.1013E-03
            1601            2221     25.9212E-03     26.1013E-03
            1620            2221     25.9212E-03     26.1013E-03
            1602            2221     25.9212E-03     26.1013E-03
            1603            2222     29.0539E-03     29.2263E-03
            1602            2222     29.0539E-03     29.2263E-03
            1620            2222     29.0539E-03     29.2263E-03
            1621            2222     29.0539E-03     29.2263E-03
            1604            2223     32.2199E-03     32.3888E-03
            1622            2223     32.2199E-03     32.3888E-03
            1603            2223     32.2199E-03     32.3888E-03
            1621            2223     32.2199E-03     32.3888E-03
            1622            2224     35.4013E-03     35.5608E-03
            1604            2224     35.4013E-03     35.5608E-03
            1605            2224     35.4013E-03     35.5608E-03
            1623            2224     35.4013E-03     35.5608E-03
            1624            2225     38.5660E-03     38.7211E-03
            1606            2225     38.5660E-03     38.7211E-03
            1605            2225     38.5660E-03     38.7211E-03
            1623            2225     38.5660E-03     38.7211E-03
            1607            2226     41.6772E-03     41.8356E-03
            1606            2226     41.6772E-03     41.8356E-03
            1625            2226     41.6772E-03     41.8356E-03
            1624            2226     41.6772E-03     41.8356E-03
            1607            2227     44.6902E-03     44.8655E-03
            1608            2227     44.6902E-03     44.8655E-03
            1626            2227     44.6902E-03     44.8655E-03
            1625            2227     44.6902E-03     44.8655E-03
            1626            2228     47.5119E-03     47.7617E-03
            1608            2228     47.5119E-03     47.7617E-03
            1609            2228     47.5119E-03     47.7617E-03
            1627            2228     47.5119E-03     47.7617E-03
            1627            2229     50.0755E-03     50.4293E-03
            1610            2229     50.0755E-03     50.4293E-03
            1628            2229     50.0755E-03     50.4293E-03
            1609            2229     50.0755E-03     50.4293E-03
            1628            2230     52.3149E-03     52.7606E-03
            1610            2230     52.3149E-03     52.7606E-03
            1629            2230     52.3149E-03     52.7606E-03
            1611            2230     52.3149E-03     52.7606E-03
            1611            2231     54.1394E-03     54.3877E-03
            1630            2231     54.1394E-03     54.3877E-03
            1629            2231     54.1394E-03     54.3877E-03
            1612            2231     54.1394E-03     54.3877E-03
            1613            2232     9.30272E-03     9.67134E-03
            1632            2232     9.30272E-03     9.67134E-03
            1614            2232     9.30272E-03     9.67134E-03
            1631            2232     9.30272E-03     9.67134E-03
            1614            2233     10.7956E-03     11.6547E-03
            1633            2233     10.7956E-03     11.6547E-03
            1632            2233     10.7956E-03     11.6547E-03
            1615            2233     10.7956E-03     11.6547E-03
            1615            2234     13.1485E-03     14.0121E-03
            1616            2234     13.1485E-03     14.0121E-03
            1634            2234     13.1485E-03     14.0121E-03
            1633            2234     13.1485E-03     14.0121E-03
            1635            2235     16.0544E-03     16.6779E-03
            1616            2235     16.0544E-03     16.6779E-03
            1617            2235     16.0544E-03     16.6779E-03
            1634            2235     16.0544E-03     16.6779E-03
            1636            2236     19.1692E-03     19.6649E-03
            1618            2236     19.1692E-03     19.6649E-03
            1617            2236     19.1692E-03     19.6649E-03
            1635            2236     19.1692E-03     19.6649E-03
            1637            2237     22.3900E-03     22.8293E-03
            1636            2237     22.3900E-03     22.8293E-03
            1618            2237     22.3900E-03     22.8293E-03
            1619            2237     22.3900E-03     22.8293E-03
            1637            2238     25.6911E-03     26.1077E-03
            1638            2238     25.6911E-03     26.1077E-03
            1619            2238     25.6911E-03     26.1077E-03
            1620            2238     25.6911E-03     26.1077E-03
            1639            2239     29.0409E-03     29.4607E-03
            1620            2239     29.0409E-03     29.4607E-03
            1638            2239     29.0409E-03     29.4607E-03
            1621            2239     29.0409E-03     29.4607E-03
            1640            2240     32.4347E-03     32.8668E-03
            1622            2240     32.4347E-03     32.8668E-03
            1621            2240     32.4347E-03     32.8668E-03
            1639            2240     32.4347E-03     32.8668E-03
            1641            2241     35.8461E-03     36.3084E-03
            1622            2241     35.8461E-03     36.3084E-03
            1640            2241     35.8461E-03     36.3084E-03
            1623            2241     35.8461E-03     36.3084E-03
            1624            2242     39.2702E-03     39.7714E-03
            1642            2242     39.2702E-03     39.7714E-03
            1623            2242     39.2702E-03     39.7714E-03
            1641            2242     39.2702E-03     39.7714E-03
            1625            2243     42.6568E-03     43.2281E-03
            1624            2243     42.6568E-03     43.2281E-03
            1642            2243     42.6568E-03     43.2281E-03
            1643            2243     42.6568E-03     43.2281E-03
            1644            2244     45.9719E-03     46.6347E-03
            1643            2244     45.9719E-03     46.6347E-03
            1625            2244     45.9719E-03     46.6347E-03
            1626            2244     45.9719E-03     46.6347E-03
            1627            2245     49.1169E-03     49.9083E-03
            1645            2245     49.1169E-03     49.9083E-03
            1644            2245     49.1169E-03     49.9083E-03
            1626            2245     49.1169E-03     49.9083E-03
            1627            2246     52.0250E-03     52.9327E-03
            1628            2246     52.0250E-03     52.9327E-03
            1645            2246     52.0250E-03     52.9327E-03
            1646            2246     52.0250E-03     52.9327E-03
            1629            2247     54.5730E-03     55.4872E-03
            1647            2247     54.5730E-03     55.4872E-03
            1628            2247     54.5730E-03     55.4872E-03
            1646            2247     54.5730E-03     55.4872E-03
            1648            2248     56.7753E-03     57.5658E-03
            1647            2248     56.7753E-03     57.5658E-03
            1630            2248     56.7753E-03     57.5658E-03
            1629            2248     56.7753E-03     57.5658E-03
            1649            2249     7.71782E-03     8.09795E-03
            1631            2249     7.71782E-03     8.09795E-03
            1650            2249     7.71782E-03     8.09795E-03
            1632            2249     7.71782E-03     8.09795E-03
            1633            2250     9.50045E-03     10.2786E-03
            1632            2250     9.50045E-03     10.2786E-03
            1650            2250     9.50045E-03     10.2786E-03
            1651            2250     9.50045E-03     10.2786E-03
            1634            2251     12.1558E-03     13.0835E-03
            1652            2251     12.1558E-03     13.0835E-03
            1651            2251     12.1558E-03     13.0835E-03
            1633            2251     12.1558E-03     13.0835E-03
            1652            2252     15.2475E-03     16.1045E-03
            1634            2252     15.2475E-03     16.1045E-03
            1635            2252     15.2475E-03     16.1045E-03
            1653            2252     15.2475E-03     16.1045E-03
            1653            2253     18.5580E-03     19.3036E-03
            1635            2253     18.5580E-03     19.3036E-03
            1636            2253     18.5580E-03     19.3036E-03
            1654            2253     18.5580E-03     19.3036E-03
            1636            2254     21.9613E-03     22.6486E-03
            1637            2254     21.9613E-03     22.6486E-03
            1655            2254     21.9613E-03     22.6486E-03
            1654            2254     21.9613E-03     22.6486E-03
            1638            2255     25.4216E-03     26.0866E-03
            1655            2255     25.4216E-03     26.0866E-03
            1656            2255     25.4216E-03     26.0866E-03
            1637            2255     25.4216E-03     26.0866E-03
            1657            2256     28.9293E-03     29.5999E-03
            1638            2256     28.9293E-03     29.5999E-03
            1656            2256     28.9293E-03     29.5999E-03
            1639            2256     28.9293E-03     29.5999E-03
            1640            2257     32.4696E-03     33.1695E-03
            1658            2257     32.4696E-03     33.1695E-03
            1657            2257     32.4696E-03     33.1695E-03
            1639            2257     32.4696E-03     33.1695E-03
            1641            2258     36.0502E-03     36.7952E-03
            1659            2258     36.0502E-03     36.7952E-03
            1640            2258     36.0502E-03     36.7952E-03
            1658            2258     36.0502E-03     36.7952E-03
            1641            2259     39.6409E-03     40.4617E-03
            1659            2259     39.6409E-03     40.4617E-03
            1660            2259     39.6409E-03     40.4617E-03
            1642            2259     39.6409E-03     40.4617E-03
            1660            2260     43.2583E-03     44.1599E-03
            1661            2260     43.2583E-03     44.1599E-03
            1643            2260     43.2583E-03     44.1599E-03
            1642            2260     43.2583E-03     44.1599E-03
            1662            2261     46.8153E-03     47.8449E-03
            1643            2261     46.8153E-03     47.8449E-03
            1661            2261     46.8153E-03     47.8449E-03
            1644            2261     46.8153E-03     47.8449E-03
            1645            2262     50.2902E-03     51.4159E-03
            1644            2262     50.2902E-03     51.4159E-03
            1663            2262     50.2902E-03     51.4159E-03
            1662            2262     50.2902E-03     51.4159E-03
            1645            2263     53.5390E-03     54.7168E-03
            1664            2263     53.5390E-03     54.7168E-03
            1646            2263     53.5390E-03     54.7168E-03
            1663            2263     53.5390E-03     54.7168E-03
            1665            2264     56.4435E-03     57.5897E-03
            1646            2264     56.4435E-03     57.5897E-03
            1664            2264     56.4435E-03     57.5897E-03
            1647            2264     56.4435E-03     57.5897E-03
            1665            2265     59.1928E-03     59.8739E-03
            1666            2265     59.1928E-03     59.8739E-03
            1647            2265     59.1928E-03     59.8739E-03
            1648            2265     59.1928E-03     59.8739E-03
            1667            2266     6.20243E-03     6.59710E-03
            1668            2266     6.20243E-03     6.59710E-03
            1649            2266     6.20243E-03     6.59710E-03
            1650            2266     6.20243E-03     6.59710E-03
            1668            2267     8.31361E-03     9.21885E-03
            1650            2267     8.31361E-03     9.21885E-03
            1669            2267     8.31361E-03     9.21885E-03
            1651            2267     8.31361E-03     9.21885E-03
            1651            2268     11.2756E-03     12.2824E-03
            1669            2268     11.2756E-03     12.2824E-03
            1652            2268     11.2756E-03     12.2824E-03
            1670            2268     11.2756E-03     12.2824E-03
            1671            2269     14.5608E-03     15.5791E-03
            1670            2269     14.5608E-03     15.5791E-03
            1652            2269     14.5608E-03     15.5791E-03
            1653            2269     14.5608E-03     15.5791E-03
            1654            2270     17.9983E-03     18.9583E-03
            1671            2270     17.9983E-03     18.9583E-03
            1672            2270     17.9983E-03     18.9583E-03
            1653            2270     17.9983E-03     18.9583E-03
            1672            2271     21.5137E-03     22.4266E-03
            1655            2271     21.5137E-03     22.4266E-03
            1654            2271     21.5137E-03     22.4266E-03
            1673            2271     21.5137E-03     22.4266E-03
            1674            2272     25.0684E-03     25.9688E-03
            1655            2272     25.0684E-03     25.9688E-03
            1673            2272     25.0684E-03     25.9688E-03
            1656            2272     25.0684E-03     25.9688E-03
            1656            2273     28.6572E-03     29.5672E-03
            1674            2273     28.6572E-03     29.5672E-03
            1675            2273     28.6572E-03     29.5672E-03
            1657            2273     28.6572E-03     29.5672E-03
            1657            2274     32.2834E-03     33.2262E-03
            1675            2274     32.2834E-03     33.2262E-03
            1658            2274     32.2834E-03     33.2262E-03
            1676            2274     32.2834E-03     33.2262E-03
            1676            2275     35.9397E-03     36.9389E-03
            1658            2275     35.9397E-03     36.9389E-03
            1659            2275     35.9397E-03     36.9389E-03
            1677            2275     35.9397E-03     36.9389E-03
            1659            2276     39.6512E-03     40.7198E-03
            1660            2276     39.6512E-03     40.7198E-03
            1677            2276     39.6512E-03     40.7198E-03
            1678            2276     39.6512E-03     40.7198E-03
            1679            2277     43.3838E-03     44.5552E-03
            1661            2277     43.3838E-03     44.5552E-03
            1660            2277     43.3838E-03     44.5552E-03
            1678            2277     43.3838E-03     44.5552E-03
            1680            2278     47.1990E-03     48.4378E-03
            1679            2278     47.1990E-03     48.4378E-03
            1661            2278     47.1990E-03     48.4378E-03
            1662            2278     47.1990E-03     48.4378E-03
            1662            2279     50.9714E-03     52.3008E-03
            1680            2279     50.9714E-03     52.3008E-03
            1663            2279     50.9714E-03     52.3008E-03
            1681            2279     50.9714E-03     52.3008E-03
            1664            2280     54.6355E-03     55.9660E-03
            1682            2280     54.6355E-03     55.9660E-03
            1663            2280     54.6355E-03     55.9660E-03
            1681            2280     54.6355E-03     55.9660E-03
            1683            2281     58.1165E-03     59.2035E-03
            1664            2281     58.1165E-03     59.2035E-03
            1665            2281     58.1165E-03     59.2035E-03
            1682            2281     58.1165E-03     59.2035E-03
            1683            2282     61.1795E-03     62.0789E-03
            1666            2282     61.1795E-03     62.0789E-03
            1684            2282     61.1795E-03     62.0789E-03
            1665            2282     61.1795E-03     62.0789E-03
            1686            2283     4.75055E-03     5.32487E-03
            1668            2283     4.75055E-03     5.32487E-03
            1667            2283     4.75055E-03     5.32487E-03
            1685            2283     4.75055E-03     5.32487E-03
            1668            2284     7.29626E-03     8.32845E-03
            1687            2284     7.29626E-03     8.32845E-03
            1686            2284     7.29626E-03     8.32845E-03
            1669            2284     7.29626E-03     8.32845E-03
            1688            2285     10.5092E-03     11.6871E-03
            1669            2285     10.5092E-03     11.6871E-03
            1670            2285     10.5092E-03     11.6871E-03
            1687            2285     10.5092E-03     11.6871E-03
            1689            2286     13.9522E-03     15.1053E-03
            1688            2286     13.9522E-03     15.1053E-03
            1671            2286     13.9522E-03     15.1053E-03
            1670            2286     13.9522E-03     15.1053E-03
            1671            2287     17.4708E-03     18.6070E-03
            1689            2287     17.4708E-03     18.6070E-03
            1690            2287     17.4708E-03     18.6070E-03
            1672            2287     17.4708E-03     18.6070E-03
            1672            2288     21.0262E-03     22.1470E-03
            1691            2288     21.0262E-03     22.1470E-03
            1673            2288     21.0262E-03     22.1470E-03
            1690            2288     21.0262E-03     22.1470E-03
            1674            2289     24.6122E-03     25.7270E-03
            1691            2289     24.6122E-03     25.7270E-03
            1692            2289     24.6122E-03     25.7270E-03
            1673            2289     24.6122E-03     25.7270E-03
            1674            2290     28.2208E-03     29.3496E-03
            1692            2290     28.2208E-03     29.3496E-03
            1675            2290     28.2208E-03     29.3496E-03
            1693            2290     28.2208E-03     29.3496E-03
            1694            2291     31.8571E-03     33.0144E-03
            1675            2291     31.8571E-03     33.0144E-03
            1693            2291     31.8571E-03     33.0144E-03
            1676            2291     31.8571E-03     33.0144E-03
            1695            2292     35.5345E-03     36.7384E-03
            1676            2292     35.5345E-03     36.7384E-03
            1677            2292     35.5345E-03     36.7384E-03
            1694            2292     35.5345E-03     36.7384E-03
            1696            2293     39.2591E-03     40.5267E-03
            1677            2293     39.2591E-03     40.5267E-03
            1678            2293     39.2591E-03     40.5267E-03
            1695            2293     39.2591E-03     40.5267E-03
            1697            2294     43.0813E-03     44.4144E-03
            1696            2294     43.0813E-03     44.4144E-03
            1679            2294     43.0813E-03     44.4144E-03
            1678            2294     43.0813E-03     44.4144E-03
            1680            2295     46.9883E-03     48.3982E-03
            1679            2295     46.9883E-03     48.3982E-03
            1697            2295     46.9883E-03     48.3982E-03
            1698            2295     46.9883E-03     48.3982E-03
            1680            2296     51.1302E-03     52.5160E-03
            1681            2296     51.1302E-03     52.5160E-03
            1698            2296     51.1302E-03     52.5160E-03
            1699            2296     51.1302E-03     52.5160E-03
            1681            2297     55.3360E-03     56.6761E-03
            1682            2297     55.3360E-03     56.6761E-03
            1700            2297     55.3360E-03     56.6761E-03
            1699            2297     55.3360E-03     56.6761E-03
            1701            2298     59.3681E-03     60.6244E-03
            1683            2298     59.3681E-03     60.6244E-03
            1682            2298     59.3681E-03     60.6244E-03
            1700            2298     59.3681E-03     60.6244E-03
            1684            2299     63.2210E-03     63.9692E-03
            1701            2299     63.2210E-03     63.9692E-03
            1702            2299     63.2210E-03     63.9692E-03
            1683            2299     63.2210E-03     63.9692E-03
            1686            2300     3.46345E-03     4.39157E-03
            1685            2300     3.46345E-03     4.39157E-03
            1703            2300     3.46345E-03     4.39157E-03
            1704            2300     3.46345E-03     4.39157E-03
            1704            2301     6.47189E-03     7.79277E-03
            1687            2301     6.47189E-03     7.79277E-03
            1686            2301     6.47189E-03     7.79277E-03
            1705            2301     6.47189E-03     7.79277E-03
            1705            2302     9.93310E-03     11.2233E-03
            1688            2302     9.93310E-03     11.2233E-03
            1706            2302     9.93310E-03     11.2233E-03
            1687            2302     9.93310E-03     11.2233E-03
            1706            2303     13.4404E-03     14.7392E-03
            1689            2303     13.4404E-03     14.7392E-03
            1688            2303     13.4404E-03     14.7392E-03
            1707            2303     13.4404E-03     14.7392E-03
            1708            2304     16.9675E-03     18.2758E-03
            1690            2304     16.9675E-03     18.2758E-03
            1689            2304     16.9675E-03     18.2758E-03
            1707            2304     16.9675E-03     18.2758E-03
            1708            2305     20.5120E-03     21.8275E-03
            1691            2305     20.5120E-03     21.8275E-03
            1709            2305     20.5120E-03     21.8275E-03
            1690            2305     20.5120E-03     21.8275E-03
            1692            2306     24.0682E-03     25.3899E-03
            1709            2306     24.0682E-03     25.3899E-03
            1710            2306     24.0682E-03     25.3899E-03
            1691            2306     24.0682E-03     25.3899E-03
            1693            2307     27.6409E-03     28.9710E-03
            1711            2307     27.6409E-03     28.9710E-03
            1710            2307     27.6409E-03     28.9710E-03
            1692            2307     27.6409E-03     28.9710E-03
            1711            2308     31.2324E-03     32.5797E-03
            1693            2308     31.2324E-03     32.5797E-03
            1694            2308     31.2324E-03     32.5797E-03
            1712            2308     31.2324E-03     32.5797E-03
            1712            2309     34.8600E-03     36.2292E-03
            1713            2309     34.8600E-03     36.2292E-03
            1694            2309     34.8600E-03     36.2292E-03
            1695            2309     34.8600E-03     36.2292E-03
            1713            2310     38.5436E-03     39.9489E-03
            1714            2310     38.5436E-03     39.9489E-03
            1696            2310     38.5436E-03     39.9489E-03
            1695            2310     38.5436E-03     39.9489E-03
            1696            2311     42.3274E-03     43.7669E-03
            1697            2311     42.3274E-03     43.7669E-03
            1715            2311     42.3274E-03     43.7669E-03
            1714            2311     42.3274E-03     43.7669E-03
            1715            2312     46.2921E-03     47.7647E-03
            1697            2312     46.2921E-03     47.7647E-03
            1698            2312     46.2921E-03     47.7647E-03
            1716            2312     46.2921E-03     47.7647E-03
            1717            2313     50.5114E-03     51.9809E-03
            1698            2313     50.5114E-03     51.9809E-03
            1699            2313     50.5114E-03     51.9809E-03
            1716            2313     50.5114E-03     51.9809E-03
            1718            2314     55.3506E-03     56.6284E-03
            1717            2314     55.3506E-03     56.6284E-03
            1700            2314     55.3506E-03     56.6284E-03
            1699            2314     55.3506E-03     56.6284E-03
            1718            2315     60.4100E-03     61.4796E-03
            1719            2315     60.4100E-03     61.4796E-03
            1701            2315     60.4100E-03     61.4796E-03
            1700            2315     60.4100E-03     61.4796E-03
            1701            2316     64.8562E-03     65.9917E-03
            1720            2316     64.8562E-03     65.9917E-03
            1702            2316     64.8562E-03     65.9917E-03
            1719            2316     64.8562E-03     65.9917E-03
            1722            2317     2.80816E-03     4.29290E-03
            1703            2317     2.80816E-03     4.29290E-03
            1721            2317     2.80816E-03     4.29290E-03
            1704            2317     2.80816E-03     4.29290E-03
            1723            2318     6.13844E-03     7.55080E-03
            1704            2318     6.13844E-03     7.55080E-03
            1705            2318     6.13844E-03     7.55080E-03
            1722            2318     6.13844E-03     7.55080E-03
            1723            2319     9.61067E-03     11.0008E-03
            1724            2319     9.61067E-03     11.0008E-03
            1706            2319     9.61067E-03     11.0008E-03
            1705            2319     9.61067E-03     11.0008E-03
            1724            2320     13.0655E-03     14.5194E-03
            1707            2320     13.0655E-03     14.5194E-03
            1706            2320     13.0655E-03     14.5194E-03
            1725            2320     13.0655E-03     14.5194E-03
            1708            2321     16.5294E-03     18.0291E-03
            1725            2321     16.5294E-03     18.0291E-03
            1726            2321     16.5294E-03     18.0291E-03
            1707            2321     16.5294E-03     18.0291E-03
            1726            2322     20.0033E-03     21.5257E-03
            1709            2322     20.0033E-03     21.5257E-03
            1727            2322     20.0033E-03     21.5257E-03
            1708            2322     20.0033E-03     21.5257E-03
            1727            2323     23.4838E-03     25.0174E-03
            1728            2323     23.4838E-03     25.0174E-03
            1709            2323     23.4838E-03     25.0174E-03
            1710            2323     23.4838E-03     25.0174E-03
            1728            2324     26.9707E-03     28.5033E-03
            1711            2324     26.9707E-03     28.5033E-03
            1729            2324     26.9707E-03     28.5033E-03
            1710            2324     26.9707E-03     28.5033E-03
            1711            2325     30.4748E-03     31.9988E-03
            1729            2325     30.4748E-03     31.9988E-03
            1730            2325     30.4748E-03     31.9988E-03
            1712            2325     30.4748E-03     31.9988E-03
            1730            2326     33.9997E-03     35.5139E-03
            1712            2326     33.9997E-03     35.5139E-03
            1731            2326     33.9997E-03     35.5139E-03
            1713            2326     33.9997E-03     35.5139E-03
            1732            2327     37.5865E-03     39.0823E-03
            1713            2327     37.5865E-03     39.0823E-03
            1731            2327     37.5865E-03     39.0823E-03
            1714            2327     37.5865E-03     39.0823E-03
            1715            2328     41.2570E-03     42.7471E-03
            1732            2328     41.2570E-03     42.7471E-03
            1714            2328     41.2570E-03     42.7471E-03
            1733            2328     41.2570E-03     42.7471E-03
            1716            2329     45.1338E-03     46.5931E-03
            1715            2329     45.1338E-03     46.5931E-03
            1733            2329     45.1338E-03     46.5931E-03
            1734            2329     45.1338E-03     46.5931E-03
            1735            2330     49.3184E-03     50.7738E-03
            1717            2330     49.3184E-03     50.7738E-03
            1716            2330     49.3184E-03     50.7738E-03
            1734            2330     49.3184E-03     50.7738E-03
            1735            2331     54.1159E-03     55.4839E-03
            1736            2331     54.1159E-03     55.4839E-03
            1717            2331     54.1159E-03     55.4839E-03
            1718            2331     54.1159E-03     55.4839E-03
            1719            2332     60.3639E-03     61.3012E-03
            1718            2332     60.3639E-03     61.3012E-03
            1736            2332     60.3639E-03     61.3012E-03
            1737            2332     60.3639E-03     61.3012E-03
            1737            2333     66.7092E-03     66.9903E-03
            1720            2333     66.7092E-03     66.9903E-03
            1738            2333     66.7092E-03     66.9903E-03
            1719            2333     66.7092E-03     66.9903E-03
            1721            2334     3.47215E-03     4.83494E-03
            1740            2334     3.47215E-03     4.83494E-03
            1739            2334     3.47215E-03     4.83494E-03
            1722            2334     3.47215E-03     4.83494E-03
            1740            2335     6.45366E-03     7.74222E-03
            1722            2335     6.45366E-03     7.74222E-03
            1741            2335     6.45366E-03     7.74222E-03
            1723            2335     6.45366E-03     7.74222E-03
            1741            2336     9.62351E-03     11.1229E-03
            1742            2336     9.62351E-03     11.1229E-03
            1724            2336     9.62351E-03     11.1229E-03
            1723            2336     9.62351E-03     11.1229E-03
            1724            2337     12.8989E-03     14.5357E-03
            1725            2337     12.8989E-03     14.5357E-03
            1743            2337     12.8989E-03     14.5357E-03
            1742            2337     12.8989E-03     14.5357E-03
            1726            2338     16.2216E-03     17.9404E-03
            1744            2338     16.2216E-03     17.9404E-03
            1725            2338     16.2216E-03     17.9404E-03
            1743            2338     16.2216E-03     17.9404E-03
            1726            2339     19.5676E-03     21.3293E-03
            1727            2339     19.5676E-03     21.3293E-03
            1745            2339     19.5676E-03     21.3293E-03
            1744            2339     19.5676E-03     21.3293E-03
            1746            2340     22.9256E-03     24.6945E-03
            1745            2340     22.9256E-03     24.6945E-03
            1728            2340     22.9256E-03     24.6945E-03
            1727            2340     22.9256E-03     24.6945E-03
            1728            2341     26.2935E-03     28.0473E-03
            1747            2341     26.2935E-03     28.0473E-03
            1746            2341     26.2935E-03     28.0473E-03
            1729            2341     26.2935E-03     28.0473E-03
            1730            2342     29.6671E-03     31.3829E-03
            1748            2342     29.6671E-03     31.3829E-03
            1729            2342     29.6671E-03     31.3829E-03
            1747            2342     29.6671E-03     31.3829E-03
            1730            2343     33.0685E-03     34.7272E-03
            1749            2343     33.0685E-03     34.7272E-03
            1731            2343     33.0685E-03     34.7272E-03
            1748            2343     33.0685E-03     34.7272E-03
            1732            2344     36.5028E-03     38.0853E-03
            1750            2344     36.5028E-03     38.0853E-03
            1749            2344     36.5028E-03     38.0853E-03
            1731            2344     36.5028E-03     38.0853E-03
            1733            2345     40.0447E-03     41.5301E-03
            1751            2345     40.0447E-03     41.5301E-03
            1732            2345     40.0447E-03     41.5301E-03
            1750            2345     40.0447E-03     41.5301E-03
            1752            2346     43.7161E-03     45.1037E-03
            1751            2346     43.7161E-03     45.1037E-03
            1734            2346     43.7161E-03     45.1037E-03
            1733            2346     43.7161E-03     45.1037E-03
            1752            2347     47.7529E-03     49.0330E-03
            1734            2347     47.7529E-03     49.0330E-03
            1753            2347     47.7529E-03     49.0330E-03
            1735            2347     47.7529E-03     49.0330E-03
            1753            2348     52.2256E-03     53.4760E-03
            1736            2348     52.2256E-03     53.4760E-03
            1754            2348     52.2256E-03     53.4760E-03
            1735            2348     52.2256E-03     53.4760E-03
            1737            2349     58.0785E-03     59.3584E-03
            1754            2349     58.0785E-03     59.3584E-03
            1755            2349     58.0785E-03     59.3584E-03
            1736            2349     58.0785E-03     59.3584E-03
            1756            2350     66.5075E-03     67.3644E-03
            1737            2350     66.5075E-03     67.3644E-03
            1738            2350     66.5075E-03     67.3644E-03
            1755            2350     66.5075E-03     67.3644E-03
            2271            2785     301.024E-06     337.510E-06
            2290            2785     301.024E-06     337.510E-06
            2289            2785     301.024E-06     337.510E-06
            2272            2785     301.024E-06     337.510E-06
            2291            2786     279.324E-06     315.912E-06
            2290            2786     279.324E-06     315.912E-06
            2272            2786     279.324E-06     315.912E-06
            2273            2786     279.324E-06     315.912E-06
            2273            2787     280.035E-06     311.667E-06
            2291            2787     280.035E-06     311.667E-06
            2292            2787     280.035E-06     311.667E-06
            2274            2787     280.035E-06     311.667E-06
            2275            2788     277.396E-06     307.628E-06
            2292            2788     277.396E-06     307.628E-06
            2274            2788     277.396E-06     307.628E-06
            2293            2788     277.396E-06     307.628E-06
            2275            2789     270.926E-06     301.531E-06
            2294            2789     270.926E-06     301.531E-06
            2293            2789     270.926E-06     301.531E-06
            2276            2789     270.926E-06     301.531E-06
            2294            2790     268.363E-06     297.443E-06
            2295            2790     268.363E-06     297.443E-06
            2276            2790     268.363E-06     297.443E-06
            2277            2790     268.363E-06     297.443E-06
            2295            2791     265.160E-06     293.078E-06
            2278            2791     265.160E-06     293.078E-06
            2296            2791     265.160E-06     293.078E-06
            2277            2791     265.160E-06     293.078E-06
            2297            2792     263.362E-06     289.653E-06
            2296            2792     263.362E-06     289.653E-06
            2278            2792     263.362E-06     289.653E-06
            2279            2792     263.362E-06     289.653E-06
            2279            2793     261.517E-06     286.101E-06
            2298            2793     261.517E-06     286.101E-06
            2280            2793     261.517E-06     286.101E-06
            2297            2793     261.517E-06     286.101E-06
            2280            2794     260.358E-06     283.046E-06
            2281            2794     260.358E-06     283.046E-06
            2298            2794     260.358E-06     283.046E-06
            2299            2794     260.358E-06     283.046E-06
            2299            2795     259.408E-06     280.038E-06
            2282            2795     259.408E-06     280.038E-06
            2281            2795     259.408E-06     280.038E-06
            2300            2795     259.408E-06     280.038E-06
            2282            2796     258.916E-06     277.335E-06
            2283            2796     258.916E-06     277.335E-06
            2300            2796     258.916E-06     277.335E-06
            2301            2796     258.916E-06     277.335E-06
            2283            2797     258.718E-06     274.834E-06
            2301            2797     258.718E-06     274.834E-06
            2302            2797     258.718E-06     274.834E-06
            2284            2797     258.718E-06     274.834E-06
            2284            2798     258.975E-06     272.583E-06
            2285            2798     258.975E-06     272.583E-06
            2303            2798     258.975E-06     272.583E-06
            2302            2798     258.975E-06     272.583E-06
            2285            2799     259.799E-06     270.860E-06
            2303            2799     259.799E-06     270.860E-06
            2304            2799     259.799E-06     270.860E-06
            2286            2799     259.799E-06     270.860E-06
            2287            2800     261.364E-06     269.868E-06
            2305            2800     261.364E-06     269.868E-06
            2286            2800     261.364E-06     269.868E-06
            2304            2800     261.364E-06     269.868E-06
            2288            2801     264.008E-06     266.891E-06
            2305            2801     264.008E-06     266.891E-06
            2287            2801     264.008E-06     266.891E-06
            2306            2801     264.008E-06     266.891E-06
            2290            2802     219.076E-06     231.065E-06
            2308            2802     219.076E-06     231.065E-06
            2289            2802     219.076E-06     231.065E-06
            2307            2802     219.076E-06     231.065E-06
            2309            2803     303.588E-06     309.056E-06
            2291            2803     303.588E-06     309.056E-06
            2308            2803     303.588E-06     309.056E-06
            2290            2803     303.588E-06     309.056E-06
            2309            2804     305.289E-06     305.071E-06
            2292            2804     305.289E-06     305.071E-06
            2291            2804     305.289E-06     305.071E-06
            2310            2804     305.289E-06     305.071E-06
            2310            2805     290.372E-06     295.773E-06
            2293            2805     290.372E-06     295.773E-06
            2311            2805     290.372E-06     295.773E-06
            2292            2805     290.372E-06     295.773E-06
            2311            2806     286.734E-06     290.197E-06
            2312            2806     286.734E-06     290.197E-06
            2294            2806     286.734E-06     290.197E-06
            2293            2806     286.734E-06     290.197E-06
            2313            2807     282.080E-06     286.121E-06
            2294            2807     282.080E-06     286.121E-06
            2312            2807     282.080E-06     286.121E-06
            2295            2807     282.080E-06     286.121E-06
            2296            2808     279.528E-06     283.485E-06
            2313            2808     279.528E-06     283.485E-06
            2295            2808     279.528E-06     283.485E-06
            2314            2808     279.528E-06     283.485E-06
            2296            2809     276.502E-06     280.446E-06
            2315            2809     276.502E-06     280.446E-06
            2314            2809     276.502E-06     280.446E-06
            2297            2809     276.502E-06     280.446E-06
            2298            2810     274.187E-06     278.059E-06
            2315            2810     274.187E-06     278.059E-06
            2297            2810     274.187E-06     278.059E-06
            2316            2810     274.187E-06     278.059E-06
            2298            2811     271.796E-06     275.685E-06
            2299            2811     271.796E-06     275.685E-06
            2317            2811     271.796E-06     275.685E-06
            2316            2811     271.796E-06     275.685E-06
            2318            2812     269.900E-06     273.670E-06
            2317            2812     269.900E-06     273.670E-06
            2300            2812     269.900E-06     273.670E-06
            2299            2812     269.900E-06     273.670E-06
            2319            2813     268.130E-06     271.831E-06
            2301            2813     268.130E-06     271.831E-06
            2318            2813     268.130E-06     271.831E-06
            2300            2813     268.130E-06     271.831E-06
            2319            2814     266.477E-06     270.568E-06
            2320            2814     266.477E-06     270.568E-06
            2301            2814     266.477E-06     270.568E-06
            2302            2814     266.477E-06     270.568E-06
            2302            2815     266.050E-06     268.526E-06
            2321            2815     266.050E-06     268.526E-06
            2320            2815     266.050E-06     268.526E-06
            2303            2815     266.050E-06     268.526E-06
            2303            2816     264.298E-06     269.208E-06
            2322            2816     264.298E-06     269.208E-06
            2321            2816     264.298E-06     269.208E-06
            2304            2816     264.298E-06     269.208E-06
            2322            2817     265.174E-06     272.345E-06
            2305            2817     265.174E-06     272.345E-06
            2323            2817     265.174E-06     272.345E-06
            2304            2817     265.174E-06     272.345E-06
            2323            2818     282.360E-06     261.689E-06
            2305            2818     282.360E-06     261.689E-06
            2324            2818     282.360E-06     261.689E-06
            2306            2818     282.360E-06     261.689E-06
            2326            2819     167.460E-06     194.862E-06
            2307            2819     167.460E-06     194.862E-06
            2325            2819     167.460E-06     194.862E-06
            2308            2819     167.460E-06     194.862E-06
            2327            2820     293.417E-06     266.337E-06
            2309            2820     293.417E-06     266.337E-06
            2326            2820     293.417E-06     266.337E-06
            2308            2820     293.417E-06     266.337E-06
            2328            2821     311.925E-06     284.519E-06
            2309            2821     311.925E-06     284.519E-06
            2327            2821     311.925E-06     284.519E-06
            2310            2821     311.925E-06     284.519E-06
            2328            2822     308.478E-06     283.565E-06
            2311            2822     308.478E-06     283.565E-06
            2310            2822     308.478E-06     283.565E-06
            2329            2822     308.478E-06     283.565E-06
            2311            2823     304.189E-06     280.342E-06
            2330            2823     304.189E-06     280.342E-06
            2312            2823     304.189E-06     280.342E-06
            2329            2823     304.189E-06     280.342E-06
            2330            2824     301.098E-06     278.672E-06
            2312            2824     301.098E-06     278.672E-06
            2331            2824     301.098E-06     278.672E-06
            2313            2824     301.098E-06     278.672E-06
            2313            2825     297.781E-06     276.739E-06
            2314            2825     297.781E-06     276.739E-06
            2332            2825     297.781E-06     276.739E-06
            2331            2825     297.781E-06     276.739E-06
            2314            2826     294.878E-06     275.269E-06
            2315            2826     294.878E-06     275.269E-06
            2332            2826     294.878E-06     275.269E-06
            2333            2826     294.878E-06     275.269E-06
            2334            2827     291.778E-06     273.830E-06
            2316            2827     291.778E-06     273.830E-06
            2315            2827     291.778E-06     273.830E-06
            2333            2827     291.778E-06     273.830E-06
            2316            2828     288.970E-06     272.739E-06
            2335            2828     288.970E-06     272.739E-06
            2317            2828     288.970E-06     272.739E-06
            2334            2828     288.970E-06     272.739E-06
            2335            2829     286.197E-06     271.875E-06
            2317            2829     286.197E-06     271.875E-06
            2318            2829     286.197E-06     271.875E-06
            2336            2829     286.197E-06     271.875E-06
            2319            2830     283.650E-06     271.346E-06
            2336            2830     283.650E-06     271.346E-06
            2318            2830     283.650E-06     271.346E-06
            2337            2830     283.650E-06     271.346E-06
            2338            2831     281.283E-06     271.086E-06
            2320            2831     281.283E-06     271.086E-06
            2319            2831     281.283E-06     271.086E-06
            2337            2831     281.283E-06     271.086E-06
            2339            2832     279.162E-06     271.247E-06
            2320            2832     279.162E-06     271.247E-06
            2321            2832     279.162E-06     271.247E-06
            2338            2832     279.162E-06     271.247E-06
            2322            2833     277.297E-06     271.937E-06
            2339            2833     277.297E-06     271.937E-06
            2321            2833     277.297E-06     271.937E-06
            2340            2833     277.297E-06     271.937E-06
            2340            2834     275.959E-06     273.601E-06
            2323            2834     275.959E-06     273.601E-06
            2322            2834     275.959E-06     273.601E-06
            2341            2834     275.959E-06     273.601E-06
            2341            2835     275.173E-06     275.245E-06
            2342            2835     275.173E-06     275.245E-06
            2323            2835     275.173E-06     275.245E-06
            2324            2835     275.173E-06     275.245E-06
            3393            3784     69.6441E-03     91.1290E-03
            3394            3784     69.6441E-03     91.1290E-03
            3411            3784     69.6441E-03     91.1290E-03
            3412            3784     69.6441E-03     91.1290E-03
            3412            3785     36.4582E-03     59.6570E-03
            3395            3785     36.4582E-03     59.6570E-03
            3394            3785     36.4582E-03     59.6570E-03
            3413            3785     36.4582E-03     59.6570E-03
            3395            3786     30.4337E-03     50.9798E-03
            3396            3786     30.4337E-03     50.9798E-03
            3413            3786     30.4337E-03     50.9798E-03
            3414            3786     30.4337E-03     50.9798E-03
            3397            3787     31.2397E-03     50.2057E-03
            3396            3787     31.2397E-03     50.2057E-03
            3415            3787     31.2397E-03     50.2057E-03
            3414            3787     31.2397E-03     50.2057E-03
            3397            3788     33.3043E-03     50.9293E-03
            3398            3788     33.3043E-03     50.9293E-03
            3416            3788     33.3043E-03     50.9293E-03
            3415            3788     33.3043E-03     50.9293E-03
            3417            3789     35.7803E-03     52.4154E-03
            3416            3789     35.7803E-03     52.4154E-03
            3398            3789     35.7803E-03     52.4154E-03
            3399            3789     35.7803E-03     52.4154E-03
            3399            3790     38.1109E-03     53.7877E-03
            3417            3790     38.1109E-03     53.7877E-03
            3418            3790     38.1109E-03     53.7877E-03
            3400            3790     38.1109E-03     53.7877E-03
            3401            3791     40.5864E-03     55.1964E-03
            3400            3791     40.5864E-03     55.1964E-03
            3419            3791     40.5864E-03     55.1964E-03
            3418            3791     40.5864E-03     55.1964E-03
            3401            3792     42.9299E-03     56.4639E-03
            3419            3792     42.9299E-03     56.4639E-03
            3420            3792     42.9299E-03     56.4639E-03
            3402            3792     42.9299E-03     56.4639E-03
            3421            3793     45.3325E-03     57.7222E-03
            3403            3793     45.3325E-03     57.7222E-03
            3420            3793     45.3325E-03     57.7222E-03
            3402            3793     45.3325E-03     57.7222E-03
            3403            3794     47.6429E-03     58.8706E-03
            3404            3794     47.6429E-03     58.8706E-03
            3422            3794     47.6429E-03     58.8706E-03
            3421            3794     47.6429E-03     58.8706E-03
            3404            3795     49.9609E-03     59.9855E-03
            3422            3795     49.9609E-03     59.9855E-03
            3405            3795     49.9609E-03     59.9855E-03
            3423            3795     49.9609E-03     59.9855E-03
            3424            3796     52.2017E-03     60.9943E-03
            3423            3796     52.2017E-03     60.9943E-03
            3406            3796     52.2017E-03     60.9943E-03
            3405            3796     52.2017E-03     60.9943E-03
            3425            3797     54.5233E-03     62.0364E-03
            3407            3797     54.5233E-03     62.0364E-03
            3424            3797     54.5233E-03     62.0364E-03
            3406            3797     54.5233E-03     62.0364E-03
            3408            3798     56.9656E-03     63.2038E-03
            3426            3798     56.9656E-03     63.2038E-03
            3407            3798     56.9656E-03     63.2038E-03
            3425            3798     56.9656E-03     63.2038E-03
            3408            3799     60.2372E-03     65.3393E-03
            3426            3799     60.2372E-03     65.3393E-03
            3409            3799     60.2372E-03     65.3393E-03
            3427            3799     60.2372E-03     65.3393E-03
            3409            3800     66.6633E-03     69.9774E-03
            3427            3800     66.6633E-03     69.9774E-03
            3410            3800     66.6633E-03     69.9774E-03
            3428            3800     66.6633E-03     69.9774E-03
            3411            3801     65.7275E-03     65.4077E-03
            3430            3801     65.7275E-03     65.4077E-03
            3429            3801     65.7275E-03     65.4077E-03
            3412            3801     65.7275E-03     65.4077E-03
            3430            3802     40.9753E-03     49.5364E-03
            3412            3802     40.9753E-03     49.5364E-03
            3413            3802     40.9753E-03     49.5364E-03
            3431            3802     40.9753E-03     49.5364E-03
            3413            3803     34.5158E-03     44.9193E-03
            3431            3803     34.5158E-03     44.9193E-03
            3414            3803     34.5158E-03     44.9193E-03
            3432            3803     34.5158E-03     44.9193E-03
            3414            3804     36.1173E-03     45.1705E-03
            3415            3804     36.1173E-03     45.1705E-03
            3432            3804     36.1173E-03     45.1705E-03
            3433            3804     36.1173E-03     45.1705E-03
            3434            3805     38.0484E-03     46.5270E-03
            3415            3805     38.0484E-03     46.5270E-03
            3433            3805     38.0484E-03     46.5270E-03
            3416            3805     38.0484E-03     46.5270E-03
            3417            3806     39.8343E-03     48.0559E-03
            3435            3806     39.8343E-03     48.0559E-03
            3416            3806     39.8343E-03     48.0559E-03
            3434            3806     39.8343E-03     48.0559E-03
            3418            3807     42.0148E-03     49.7445E-03
            3435            3807     42.0148E-03     49.7445E-03
            3436            3807     42.0148E-03     49.7445E-03
            3417            3807     42.0148E-03     49.7445E-03
            3418            3808     44.0904E-03     51.3896E-03
            3436            3808     44.0904E-03     51.3896E-03
            3437            3808     44.0904E-03     51.3896E-03
            3419            3808     44.0904E-03     51.3896E-03
            3420            3809     46.3090E-03     53.0638E-03
            3419            3809     46.3090E-03     53.0638E-03
            3437            3809     46.3090E-03     53.0638E-03
            3438            3809     46.3090E-03     53.0638E-03
            3421            3810     48.4759E-03     54.6940E-03
            3438            3810     48.4759E-03     54.6940E-03
            3439            3810     48.4759E-03     54.6940E-03
            3420            3810     48.4759E-03     54.6940E-03
            3439            3811     50.6890E-03     56.3432E-03
            3421            3811     50.6890E-03     56.3432E-03
            3440            3811     50.6890E-03     56.3432E-03
            3422            3811     50.6890E-03     56.3432E-03
            3422            3812     52.8767E-03     57.9701E-03
            3441            3812     52.8767E-03     57.9701E-03
            3440            3812     52.8767E-03     57.9701E-03
            3423            3812     52.8767E-03     57.9701E-03
            3424            3813     55.0759E-03     59.6301E-03
            3423            3813     55.0759E-03     59.6301E-03
            3442            3813     55.0759E-03     59.6301E-03
            3441            3813     55.0759E-03     59.6301E-03
            3442            3814     57.3717E-03     61.3987E-03
            3443            3814     57.3717E-03     61.3987E-03
            3424            3814     57.3717E-03     61.3987E-03
            3425            3814     57.3717E-03     61.3987E-03
            3426            3815     59.8120E-03     63.4287E-03
            3444            3815     59.8120E-03     63.4287E-03
            3443            3815     59.8120E-03     63.4287E-03
            3425            3815     59.8120E-03     63.4287E-03
            3445            3816     63.7549E-03     66.4179E-03
            3426            3816     63.7549E-03     66.4179E-03
            3444            3816     63.7549E-03     66.4179E-03
            3427            3816     63.7549E-03     66.4179E-03
            3446            3817     68.6975E-03     69.4703E-03
            3428            3817     68.6975E-03     69.4703E-03
            3445            3817     68.6975E-03     69.4703E-03
            3427            3817     68.6975E-03     69.4703E-03
            3448            3818     51.8746E-03     48.4595E-03
            3429            3818     51.8746E-03     48.4595E-03
            3430            3818     51.8746E-03     48.4595E-03
            3447            3818     51.8746E-03     48.4595E-03
            3431            3819     36.9326E-03     36.8349E-03
            3430            3819     36.9326E-03     36.8349E-03
            3448            3819     36.9326E-03     36.8349E-03
            3449            3819     36.9326E-03     36.8349E-03
            3431            3820     38.6551E-03     38.5775E-03
            3449            3820     38.6551E-03     38.5775E-03
            3450            3820     38.6551E-03     38.5775E-03
            3432            3820     38.6551E-03     38.5775E-03
            3451            3821     40.9256E-03     40.4200E-03
            3450            3821     40.9256E-03     40.4200E-03
            3433            3821     40.9256E-03     40.4200E-03
            3432            3821     40.9256E-03     40.4200E-03
            3434            3822     42.3580E-03     42.1657E-03
            3452            3822     42.3580E-03     42.1657E-03
            3451            3822     42.3580E-03     42.1657E-03
            3433            3822     42.3580E-03     42.1657E-03
            3434            3823     43.9770E-03     43.8471E-03
            3435            3823     43.9770E-03     43.8471E-03
            3452            3823     43.9770E-03     43.8471E-03
            3453            3823     43.9770E-03     43.8471E-03
            3436            3824     45.6286E-03     45.6673E-03
            3435            3824     45.6286E-03     45.6673E-03
            3453            3824     45.6286E-03     45.6673E-03
            3454            3824     45.6286E-03     45.6673E-03
            3455            3825     47.5016E-03     47.5963E-03
            3437            3825     47.5016E-03     47.5963E-03
            3454            3825     47.5016E-03     47.5963E-03
            3436            3825     47.5016E-03     47.5963E-03
            3437            3826     49.4150E-03     49.5774E-03
            3456            3826     49.4150E-03     49.5774E-03
            3438            3826     49.4150E-03     49.5774E-03
            3455            3826     49.4150E-03     49.5774E-03
            3456            3827     51.4076E-03     51.6159E-03
            3438            3827     51.4076E-03     51.6159E-03
            3457            3827     51.4076E-03     51.6159E-03
            3439            3827     51.4076E-03     51.6159E-03
            3458            3828     53.4286E-03     53.6820E-03
            3439            3828     53.4286E-03     53.6820E-03
            3457            3828     53.4286E-03     53.6820E-03
            3440            3828     53.4286E-03     53.6820E-03
            3458            3829     55.4770E-03     55.7984E-03
            3459            3829     55.4770E-03     55.7984E-03
            3441            3829     55.4770E-03     55.7984E-03
            3440            3829     55.4770E-03     55.7984E-03
            3441            3830     57.5982E-03     58.0030E-03
            3459            3830     57.5982E-03     58.0030E-03
            3442            3830     57.5982E-03     58.0030E-03
            3460            3830     57.5982E-03     58.0030E-03
            3443            3831     59.7301E-03     60.3267E-03
            3442            3831     59.7301E-03     60.3267E-03
            3461            3831     59.7301E-03     60.3267E-03
            3460            3831     59.7301E-03     60.3267E-03
            3444            3832     62.3205E-03     62.9646E-03
            3443            3832     62.3205E-03     62.9646E-03
            3461            3832     62.3205E-03     62.9646E-03
            3462            3832     62.3205E-03     62.9646E-03
            3462            3833     65.3213E-03     65.8430E-03
            3445            3833     65.3213E-03     65.8430E-03
            3444            3833     65.3213E-03     65.8430E-03
            3463            3833     65.3213E-03     65.8430E-03
            3464            3834     68.0714E-03     68.6679E-03
            3463            3834     68.0714E-03     68.6679E-03
            3446            3834     68.0714E-03     68.6679E-03
            3445            3834     68.0714E-03     68.6679E-03
            3465            3835     45.4966E-03     41.6009E-03
            3466            3835     45.4966E-03     41.6009E-03
            3448            3835     45.4966E-03     41.6009E-03
            3447            3835     45.4966E-03     41.6009E-03
            3467            3836     30.8976E-03     26.9732E-03
            3466            3836     30.8976E-03     26.9732E-03
            3448            3836     30.8976E-03     26.9732E-03
            3449            3836     30.8976E-03     26.9732E-03
            3450            3837     40.9856E-03     30.8385E-03
            3467            3837     40.9856E-03     30.8385E-03
            3468            3837     40.9856E-03     30.8385E-03
            3449            3837     40.9856E-03     30.8385E-03
            3468            3838     44.5304E-03     34.8233E-03
            3469            3838     44.5304E-03     34.8233E-03
            3450            3838     44.5304E-03     34.8233E-03
            3451            3838     44.5304E-03     34.8233E-03
            3452            3839     46.0946E-03     37.1161E-03
            3469            3839     46.0946E-03     37.1161E-03
            3451            3839     46.0946E-03     37.1161E-03
            3470            3839     46.0946E-03     37.1161E-03
            3470            3840     47.5803E-03     39.2620E-03
            3453            3840     47.5803E-03     39.2620E-03
            3471            3840     47.5803E-03     39.2620E-03
            3452            3840     47.5803E-03     39.2620E-03
            3471            3841     49.0148E-03     41.3879E-03
            3453            3841     49.0148E-03     41.3879E-03
            3472            3841     49.0148E-03     41.3879E-03
            3454            3841     49.0148E-03     41.3879E-03
            3455            3842     50.6288E-03     43.6439E-03
            3472            3842     50.6288E-03     43.6439E-03
            3454            3842     50.6288E-03     43.6439E-03
            3473            3842     50.6288E-03     43.6439E-03
            3473            3843     52.2871E-03     45.9772E-03
            3455            3843     52.2871E-03     45.9772E-03
            3456            3843     52.2871E-03     45.9772E-03
            3474            3843     52.2871E-03     45.9772E-03
            3474            3844     54.0340E-03     48.3735E-03
            3456            3844     54.0340E-03     48.3735E-03
            3457            3844     54.0340E-03     48.3735E-03
            3475            3844     54.0340E-03     48.3735E-03
            3475            3845     55.8020E-03     50.8138E-03
            3476            3845     55.8020E-03     50.8138E-03
            3458            3845     55.8020E-03     50.8138E-03
            3457            3845     55.8020E-03     50.8138E-03
            3458            3846     57.6434E-03     53.3165E-03
            3476            3846     57.6434E-03     53.3165E-03
            3477            3846     57.6434E-03     53.3165E-03
            3459            3846     57.6434E-03     53.3165E-03
            3477            3847     59.5048E-03     55.8822E-03
            3459            3847     59.5048E-03     55.8822E-03
            3460            3847     59.5048E-03     55.8822E-03
            3478            3847     59.5048E-03     55.8822E-03
            3460            3848     61.4879E-03     58.5678E-03
            3478            3848     61.4879E-03     58.5678E-03
            3461            3848     61.4879E-03     58.5678E-03
            3479            3848     61.4879E-03     58.5678E-03
            3461            3849     63.5409E-03     61.3337E-03
            3480            3849     63.5409E-03     61.3337E-03
            3479            3849     63.5409E-03     61.3337E-03
            3462            3849     63.5409E-03     61.3337E-03
            3480            3850     65.2930E-03     63.9648E-03
            3462            3850     65.2930E-03     63.9648E-03
            3463            3850     65.2930E-03     63.9648E-03
            3481            3850     65.2930E-03     63.9648E-03
            3463            3851     67.0732E-03     65.8939E-03
            3481            3851     67.0732E-03     65.8939E-03
            3464            3851     67.0732E-03     65.8939E-03
            3482            3851     67.0732E-03     65.8939E-03
            3465            3852     39.8798E-03     49.8628E-03
            3466            3852     39.8798E-03     49.8628E-03
            3483            3852     39.8798E-03     49.8628E-03
            3484            3852     39.8798E-03     49.8628E-03
            3485            3853     31.4847E-03     21.5496E-03
            3466            3853     31.4847E-03     21.5496E-03
            3484            3853     31.4847E-03     21.5496E-03
            3467            3853     31.4847E-03     21.5496E-03
            3486            3854     41.8822E-03     22.8413E-03
            3468            3854     41.8822E-03     22.8413E-03
            3467            3854     41.8822E-03     22.8413E-03
            3485            3854     41.8822E-03     22.8413E-03
            3486            3855     46.4674E-03     27.2698E-03
            3469            3855     46.4674E-03     27.2698E-03
            3468            3855     46.4674E-03     27.2698E-03
            3487            3855     46.4674E-03     27.2698E-03
            3488            3856     49.0711E-03     31.0869E-03
            3469            3856     49.0711E-03     31.0869E-03
            3470            3856     49.0711E-03     31.0869E-03
            3487            3856     49.0711E-03     31.0869E-03
            3488            3857     50.6117E-03     34.0142E-03
            3471            3857     50.6117E-03     34.0142E-03
            3470            3857     50.6117E-03     34.0142E-03
            3489            3857     50.6117E-03     34.0142E-03
            3489            3858     52.1477E-03     36.8036E-03
            3472            3858     52.1477E-03     36.8036E-03
            3490            3858     52.1477E-03     36.8036E-03
            3471            3858     52.1477E-03     36.8036E-03
            3490            3859     53.4992E-03     39.5048E-03
            3491            3859     53.4992E-03     39.5048E-03
            3473            3859     53.4992E-03     39.5048E-03
            3472            3859     53.4992E-03     39.5048E-03
            3473            3860     54.9578E-03     42.2405E-03
            3491            3860     54.9578E-03     42.2405E-03
            3474            3860     54.9578E-03     42.2405E-03
            3492            3860     54.9578E-03     42.2405E-03
            3474            3861     56.3583E-03     44.9644E-03
            3492            3861     56.3583E-03     44.9644E-03
            3475            3861     56.3583E-03     44.9644E-03
            3493            3861     56.3583E-03     44.9644E-03
            3476            3862     57.8247E-03     47.7191E-03
            3494            3862     57.8247E-03     47.7191E-03
            3475            3862     57.8247E-03     47.7191E-03
            3493            3862     57.8247E-03     47.7191E-03
            3477            3863     59.2694E-03     50.4748E-03
            3476            3863     59.2694E-03     50.4748E-03
            3494            3863     59.2694E-03     50.4748E-03
            3495            3863     59.2694E-03     50.4748E-03
            3496            3864     60.7604E-03     53.2400E-03
            3478            3864     60.7604E-03     53.2400E-03
            3477            3864     60.7604E-03     53.2400E-03
            3495            3864     60.7604E-03     53.2400E-03
            3497            3865     62.2679E-03     55.9921E-03
            3496            3865     62.2679E-03     55.9921E-03
            3479            3865     62.2679E-03     55.9921E-03
            3478            3865     62.2679E-03     55.9921E-03
            3479            3866     63.5905E-03     58.6098E-03
            3498            3866     63.5905E-03     58.6098E-03
            3497            3866     63.5905E-03     58.6098E-03
            3480            3866     63.5905E-03     58.6098E-03
            3499            3867     64.6577E-03     60.8466E-03
            3480            3867     64.6577E-03     60.8466E-03
            3498            3867     64.6577E-03     60.8466E-03
            3481            3867     64.6577E-03     60.8466E-03
            3482            3868     65.0835E-03     62.1951E-03
            3499            3868     65.0835E-03     62.1951E-03
            3481            3868     65.0835E-03     62.1951E-03
            3500            3868     65.0835E-03     62.1951E-03
            3977            4243     40.0886E-03     46.8082E-03
            3959            4243     40.0886E-03     46.8082E-03
            3960            4243     40.0886E-03     46.8082E-03
            3978            4243     40.0886E-03     46.8082E-03
            3979            4244     43.0082E-03     31.6334E-03
            3978            4244     43.0082E-03     31.6334E-03
            3960            4244     43.0082E-03     31.6334E-03
            3961            4244     43.0082E-03     31.6334E-03
            3961            4245     47.0686E-03     32.4273E-03
            3980            4245     47.0686E-03     32.4273E-03
            3962            4245     47.0686E-03     32.4273E-03
            3979            4245     47.0686E-03     32.4273E-03
            3981            4246     49.7809E-03     35.8239E-03
            3980            4246     49.7809E-03     35.8239E-03
            3963            4246     49.7809E-03     35.8239E-03
            3962            4246     49.7809E-03     35.8239E-03
            3982            4247     51.2559E-03     38.2554E-03
            3963            4247     51.2559E-03     38.2554E-03
            3964            4247     51.2559E-03     38.2554E-03
            3981            4247     51.2559E-03     38.2554E-03
            3982            4248     52.5769E-03     40.5694E-03
            3983            4248     52.5769E-03     40.5694E-03
            3965            4248     52.5769E-03     40.5694E-03
            3964            4248     52.5769E-03     40.5694E-03
            3984            4249     53.9664E-03     42.9738E-03
            3966            4249     53.9664E-03     42.9738E-03
            3965            4249     53.9664E-03     42.9738E-03
            3983            4249     53.9664E-03     42.9738E-03
            3985            4250     55.3906E-03     45.3477E-03
            3966            4250     55.3906E-03     45.3477E-03
            3967            4250     55.3906E-03     45.3477E-03
            3984            4250     55.3906E-03     45.3477E-03
            3967            4251     56.8866E-03     47.8412E-03
            3985            4251     56.8866E-03     47.8412E-03
            3986            4251     56.8866E-03     47.8412E-03
            3968            4251     56.8866E-03     47.8412E-03
            3968            4252     58.4293E-03     50.3407E-03
            3986            4252     58.4293E-03     50.3407E-03
            3969            4252     58.4293E-03     50.3407E-03
            3987            4252     58.4293E-03     50.3407E-03
            3970            4253     60.0192E-03     52.9175E-03
            3987            4253     60.0192E-03     52.9175E-03
            3969            4253     60.0192E-03     52.9175E-03
            3988            4253     60.0192E-03     52.9175E-03
            3971            4254     61.6504E-03     55.5123E-03
            3970            4254     61.6504E-03     55.5123E-03
            3989            4254     61.6504E-03     55.5123E-03
            3988            4254     61.6504E-03     55.5123E-03
            3990            4255     63.3301E-03     58.1540E-03
            3971            4255     63.3301E-03     58.1540E-03
            3989            4255     63.3301E-03     58.1540E-03
            3972            4255     63.3301E-03     58.1540E-03
            3972            4256     65.0546E-03     60.8229E-03
            3990            4256     65.0546E-03     60.8229E-03
            3973            4256     65.0546E-03     60.8229E-03
            3991            4256     65.0546E-03     60.8229E-03
            3991            4257     66.7399E-03     63.4376E-03
            3973            4257     66.7399E-03     63.4376E-03
            3992            4257     66.7399E-03     63.4376E-03
            3974            4257     66.7399E-03     63.4376E-03
            3974            4258     68.3308E-03     65.8708E-03
            3993            4258     68.3308E-03     65.8708E-03
            3975            4258     68.3308E-03     65.8708E-03
            3992            4258     68.3308E-03     65.8708E-03
            3994            4259     69.4050E-03     67.9583E-03
            3976            4259     69.4050E-03     67.9583E-03
            3975            4259     69.4050E-03     67.9583E-03
            3993            4259     69.4050E-03     67.9583E-03
            3995            4260     41.4196E-03     45.7226E-03
            3996            4260     41.4196E-03     45.7226E-03
            3978            4260     41.4196E-03     45.7226E-03
            3977            4260     41.4196E-03     45.7226E-03
            3996            4261     40.9527E-03     22.9583E-03
            3997            4261     40.9527E-03     22.9583E-03
            3978            4261     40.9527E-03     22.9583E-03
            3979            4261     40.9527E-03     22.9583E-03
            3998            4262     49.7635E-03     27.5172E-03
            3979            4262     49.7635E-03     27.5172E-03
            3980            4262     49.7635E-03     27.5172E-03
            3997            4262     49.7635E-03     27.5172E-03
            3980            4263     52.1578E-03     31.2630E-03
            3998            4263     52.1578E-03     31.2630E-03
            3999            4263     52.1578E-03     31.2630E-03
            3981            4263     52.1578E-03     31.2630E-03
            4000            4264     53.3587E-03     33.8607E-03
            3982            4264     53.3587E-03     33.8607E-03
            3981            4264     53.3587E-03     33.8607E-03
            3999            4264     53.3587E-03     33.8607E-03
            3982            4265     54.4328E-03     36.3364E-03
            4000            4265     54.4328E-03     36.3364E-03
            3983            4265     54.4328E-03     36.3364E-03
            4001            4265     54.4328E-03     36.3364E-03
            4002            4266     55.4565E-03     38.8062E-03
            4001            4266     55.4565E-03     38.8062E-03
            3983            4266     55.4565E-03     38.8062E-03
            3984            4266     55.4565E-03     38.8062E-03
            4003            4267     56.5492E-03     41.3117E-03
            4002            4267     56.5492E-03     41.3117E-03
            3985            4267     56.5492E-03     41.3117E-03
            3984            4267     56.5492E-03     41.3117E-03
            4004            4268     57.6159E-03     43.8139E-03
            3985            4268     57.6159E-03     43.8139E-03
            3986            4268     57.6159E-03     43.8139E-03
            4003            4268     57.6159E-03     43.8139E-03
            3986            4269     58.7101E-03     46.3269E-03
            4005            4269     58.7101E-03     46.3269E-03
            4004            4269     58.7101E-03     46.3269E-03
            3987            4269     58.7101E-03     46.3269E-03
            4006            4270     59.7723E-03     48.8301E-03
            3988            4270     59.7723E-03     48.8301E-03
            3987            4270     59.7723E-03     48.8301E-03
            4005            4270     59.7723E-03     48.8301E-03
            4006            4271     60.8851E-03     51.3545E-03
            3988            4271     60.8851E-03     51.3545E-03
            3989            4271     60.8851E-03     51.3545E-03
            4007            4271     60.8851E-03     51.3545E-03
            3990            4272     61.9709E-03     53.8939E-03
            4008            4272     61.9709E-03     53.8939E-03
            3989            4272     61.9709E-03     53.8939E-03
            4007            4272     61.9709E-03     53.8939E-03
            4009            4273     63.1642E-03     56.4707E-03
            3991            4273     63.1642E-03     56.4707E-03
            4008            4273     63.1642E-03     56.4707E-03
            3990            4273     63.1642E-03     56.4707E-03
            4010            4274     64.3448E-03     59.0209E-03
            3991            4274     64.3448E-03     59.0209E-03
            3992            4274     64.3448E-03     59.0209E-03
            4009            4274     64.3448E-03     59.0209E-03
            4011            4275     65.1722E-03     61.3942E-03
            3992            4275     65.1722E-03     61.3942E-03
            4010            4275     65.1722E-03     61.3942E-03
            3993            4275     65.1722E-03     61.3942E-03
            4012            4276     65.4987E-03     62.6257E-03
            3993            4276     65.4987E-03     62.6257E-03
            3994            4276     65.4987E-03     62.6257E-03
            4011            4276     65.4987E-03     62.6257E-03
            4013            4277     48.7149E-03     42.3298E-03
            3996            4277     48.7149E-03     42.3298E-03
            3995            4277     48.7149E-03     42.3298E-03
            4014            4277     48.7149E-03     42.3298E-03
            4015            4278     40.4558E-03     33.4582E-03
            3997            4278     40.4558E-03     33.4582E-03
            4014            4278     40.4558E-03     33.4582E-03
            3996            4278     40.4558E-03     33.4582E-03
            4015            4279     46.3915E-03     38.2833E-03
            3997            4279     46.3915E-03     38.2833E-03
            3998            4279     46.3915E-03     38.2833E-03
            4016            4279     46.3915E-03     38.2833E-03
            4017            4280     46.6197E-03     39.6608E-03
            3998            4280     46.6197E-03     39.6608E-03
            3999            4280     46.6197E-03     39.6608E-03
            4016            4280     46.6197E-03     39.6608E-03
            4017            4281     47.8217E-03     41.3733E-03
            3999            4281     47.8217E-03     41.3733E-03
            4000            4281     47.8217E-03     41.3733E-03
            4018            4281     47.8217E-03     41.3733E-03
            4000            4282     49.0068E-03     43.0570E-03
            4019            4282     49.0068E-03     43.0570E-03
            4001            4282     49.0068E-03     43.0570E-03
            4018            4282     49.0068E-03     43.0570E-03
            4020            4283     50.3704E-03     44.9165E-03
            4002            4283     50.3704E-03     44.9165E-03
            4001            4283     50.3704E-03     44.9165E-03
            4019            4283     50.3704E-03     44.9165E-03
            4003            4284     51.8353E-03     46.8854E-03
            4020            4284     51.8353E-03     46.8854E-03
            4002            4284     51.8353E-03     46.8854E-03
            4021            4284     51.8353E-03     46.8854E-03
            4022            4285     53.3357E-03     48.8706E-03
            4021            4285     53.3357E-03     48.8706E-03
            4003            4285     53.3357E-03     48.8706E-03
            4004            4285     53.3357E-03     48.8706E-03
            4023            4286     54.8566E-03     50.8879E-03
            4005            4286     54.8566E-03     50.8879E-03
            4004            4286     54.8566E-03     50.8879E-03
            4022            4286     54.8566E-03     50.8879E-03
            4024            4287     56.4095E-03     52.9205E-03
            4023            4287     56.4095E-03     52.9205E-03
            4006            4287     56.4095E-03     52.9205E-03
            4005            4287     56.4095E-03     52.9205E-03
            4025            4288     57.9674E-03     54.9877E-03
            4006            4288     57.9674E-03     54.9877E-03
            4007            4288     57.9674E-03     54.9877E-03
            4024            4288     57.9674E-03     54.9877E-03
            4026            4289     59.6092E-03     57.1074E-03
            4025            4289     59.6092E-03     57.1074E-03
            4008            4289     59.6092E-03     57.1074E-03
            4007            4289     59.6092E-03     57.1074E-03
            4008            4290     61.2216E-03     59.3143E-03
            4009            4290     61.2216E-03     59.3143E-03
            4026            4290     61.2216E-03     59.3143E-03
            4027            4290     61.2216E-03     59.3143E-03
            4028            4291     63.1443E-03     61.7279E-03
            4027            4291     63.1443E-03     61.7279E-03
            4010            4291     63.1443E-03     61.7279E-03
            4009            4291     63.1443E-03     61.7279E-03
            4029            4292     65.2540E-03     64.2220E-03
            4011            4292     65.2540E-03     64.2220E-03
            4028            4292     65.2540E-03     64.2220E-03
            4010            4292     65.2540E-03     64.2220E-03
            4011            4293     66.8014E-03     66.3184E-03
            4030            4293     66.8014E-03     66.3184E-03
            4012            4293     66.8014E-03     66.3184E-03
            4029            4293     66.8014E-03     66.3184E-03
            4032            4294     60.9635E-03     58.4329E-03
            4013            4294     60.9635E-03     58.4329E-03
            4014            4294     60.9635E-03     58.4329E-03
            4031            4294     60.9635E-03     58.4329E-03
            4033            4295     40.9602E-03     48.3220E-03
            4032            4295     40.9602E-03     48.3220E-03
            4015            4295     40.9602E-03     48.3220E-03
            4014            4295     40.9602E-03     48.3220E-03
            4033            4296     38.7167E-03     45.8825E-03
            4034            4296     38.7167E-03     45.8825E-03
            4016            4296     38.7167E-03     45.8825E-03
            4015            4296     38.7167E-03     45.8825E-03
            4017            4297     40.2164E-03     46.8390E-03
            4034            4297     40.2164E-03     46.8390E-03
            4035            4297     40.2164E-03     46.8390E-03
            4016            4297     40.2164E-03     46.8390E-03
            4035            4298     41.6500E-03     48.1071E-03
            4018            4298     41.6500E-03     48.1071E-03
            4036            4298     41.6500E-03     48.1071E-03
            4017            4298     41.6500E-03     48.1071E-03
            4019            4299     43.3097E-03     49.4866E-03
            4037            4299     43.3097E-03     49.4866E-03
            4036            4299     43.3097E-03     49.4866E-03
            4018            4299     43.3097E-03     49.4866E-03
            4038            4300     45.1272E-03     50.9634E-03
            4019            4300     45.1272E-03     50.9634E-03
            4020            4300     45.1272E-03     50.9634E-03
            4037            4300     45.1272E-03     50.9634E-03
            4021            4301     46.9734E-03     52.4121E-03
            4039            4301     46.9734E-03     52.4121E-03
            4020            4301     46.9734E-03     52.4121E-03
            4038            4301     46.9734E-03     52.4121E-03
            4022            4302     48.8728E-03     53.9109E-03
            4021            4302     48.8728E-03     53.9109E-03
            4039            4302     48.8728E-03     53.9109E-03
            4040            4302     48.8728E-03     53.9109E-03
            4022            4303     50.7813E-03     55.3943E-03
            4040            4303     50.7813E-03     55.3943E-03
            4041            4303     50.7813E-03     55.3943E-03
            4023            4303     50.7813E-03     55.3943E-03
            4042            4304     52.7072E-03     56.9007E-03
            4024            4304     52.7072E-03     56.9007E-03
            4023            4304     52.7072E-03     56.9007E-03
            4041            4304     52.7072E-03     56.9007E-03
            4042            4305     54.6352E-03     58.4022E-03
            4025            4305     54.6352E-03     58.4022E-03
            4043            4305     54.6352E-03     58.4022E-03
            4024            4305     54.6352E-03     58.4022E-03
            4025            4306     56.5619E-03     59.9184E-03
            4026            4306     56.5619E-03     59.9184E-03
            4043            4306     56.5619E-03     59.9184E-03
            4044            4306     56.5619E-03     59.9184E-03
            4026            4307     58.5174E-03     61.4990E-03
            4044            4307     58.5174E-03     61.4990E-03
            4027            4307     58.5174E-03     61.4990E-03
            4045            4307     58.5174E-03     61.4990E-03
            4028            4308     60.5058E-03     63.2251E-03
            4027            4308     60.5058E-03     63.2251E-03
            4046            4308     60.5058E-03     63.2251E-03
            4045            4308     60.5058E-03     63.2251E-03
            4046            4309     63.5601E-03     65.6511E-03
            4029            4309     63.5601E-03     65.6511E-03
            4028            4309     63.5601E-03     65.6511E-03
            4047            4309     63.5601E-03     65.6511E-03
            4029            4310     67.3590E-03     68.0748E-03
            4030            4310     67.3590E-03     68.0748E-03
            4048            4310     67.3590E-03     68.0748E-03
            4047            4310     67.3590E-03     68.0748E-03
            4031            4311     64.6355E-03     87.4626E-03
            4049            4311     64.6355E-03     87.4626E-03
            4032            4311     64.6355E-03     87.4626E-03
            4050            4311     64.6355E-03     87.4626E-03
            4032            4312     34.7916E-03     59.1967E-03
            4051            4312     34.7916E-03     59.1967E-03
            4050            4312     34.7916E-03     59.1967E-03
            4033            4312     34.7916E-03     59.1967E-03
            4033            4313     30.8577E-03     53.3952E-03
            4051            4313     30.8577E-03     53.3952E-03
            4052            4313     30.8577E-03     53.3952E-03
            4034            4313     30.8577E-03     53.3952E-03
            4035            4314     33.1781E-03     53.7098E-03
            4052            4314     33.1781E-03     53.7098E-03
            4053            4314     33.1781E-03     53.7098E-03
            4034            4314     33.1781E-03     53.7098E-03
            4053            4315     35.1695E-03     54.6570E-03
            4035            4315     35.1695E-03     54.6570E-03
            4054            4315     35.1695E-03     54.6570E-03
            4036            4315     35.1695E-03     54.6570E-03
            4037            4316     37.4445E-03     55.8542E-03
            4055            4316     37.4445E-03     55.8542E-03
            4036            4316     37.4445E-03     55.8542E-03
            4054            4316     37.4445E-03     55.8542E-03
            4056            4317     39.6677E-03     56.9021E-03
            4055            4317     39.6677E-03     56.9021E-03
            4038            4317     39.6677E-03     56.9021E-03
            4037            4317     39.6677E-03     56.9021E-03
            4038            4318     41.9219E-03     57.9360E-03
            4056            4318     41.9219E-03     57.9360E-03
            4057            4318     41.9219E-03     57.9360E-03
            4039            4318     41.9219E-03     57.9360E-03
            4058            4319     44.1822E-03     58.9059E-03
            4040            4319     44.1822E-03     58.9059E-03
            4057            4319     44.1822E-03     58.9059E-03
            4039            4319     44.1822E-03     58.9059E-03
            4041            4320     46.4512E-03     59.8775E-03
            4059            4320     46.4512E-03     59.8775E-03
            4040            4320     46.4512E-03     59.8775E-03
            4058            4320     46.4512E-03     59.8775E-03
            4042            4321     48.6920E-03     60.7895E-03
            4059            4321     48.6920E-03     60.7895E-03
            4041            4321     48.6920E-03     60.7895E-03
            4060            4321     48.6920E-03     60.7895E-03
            4060            4322     50.9157E-03     61.6681E-03
            4061            4322     50.9157E-03     61.6681E-03
            4043            4322     50.9157E-03     61.6681E-03
            4042            4322     50.9157E-03     61.6681E-03
            4044            4323     53.0401E-03     62.4578E-03
            4061            4323     53.0401E-03     62.4578E-03
            4062            4323     53.0401E-03     62.4578E-03
            4043            4323     53.0401E-03     62.4578E-03
            4062            4324     55.1845E-03     63.1974E-03
            4045            4324     55.1845E-03     63.1974E-03
            4044            4324     55.1845E-03     63.1974E-03
            4063            4324     55.1845E-03     63.1974E-03
            4045            4325     57.2861E-03     63.9330E-03
            4046            4325     57.2861E-03     63.9330E-03
            4064            4325     57.2861E-03     63.9330E-03
            4063            4325     57.2861E-03     63.9330E-03
            4064            4326     59.9259E-03     65.3923E-03
            4047            4326     59.9259E-03     65.3923E-03
            4046            4326     59.9259E-03     65.3923E-03
            4065            4326     59.9259E-03     65.3923E-03
            4048            4327     65.4076E-03     68.7924E-03
            4047            4327     65.4076E-03     68.7924E-03
            4066            4327     65.4076E-03     68.7924E-03
            4065            4327     65.4076E-03     68.7924E-03
            5085            5225     253.848E-06     270.947E-06
            5086            5225     253.848E-06     270.947E-06
            5067            5225     253.848E-06     270.947E-06
            5068            5225     253.848E-06     270.947E-06
            5069            5226     254.745E-06     270.690E-06
            5086            5226     254.745E-06     270.690E-06
            5087            5226     254.745E-06     270.690E-06
            5068            5226     254.745E-06     270.690E-06
            5069            5227     257.890E-06     271.378E-06
            5070            5227     257.890E-06     271.378E-06
            5087            5227     257.890E-06     271.378E-06
            5088            5227     257.890E-06     271.378E-06
            5070            5228     259.490E-06     276.635E-06
            5089            5228     259.490E-06     276.635E-06
            5071            5228     259.490E-06     276.635E-06
            5088            5228     259.490E-06     276.635E-06
            5090            5229     261.404E-06     282.389E-06
            5089            5229     261.404E-06     282.389E-06
            5071            5229     261.404E-06     282.389E-06
            5072            5229     261.404E-06     282.389E-06
            5072            5230     264.660E-06     288.554E-06
            5090            5230     264.660E-06     288.554E-06
            5091            5230     264.660E-06     288.554E-06
            5073            5230     264.660E-06     288.554E-06
            5091            5231     268.805E-06     295.484E-06
            5092            5231     268.805E-06     295.484E-06
            5073            5231     268.805E-06     295.484E-06
            5074            5231     268.805E-06     295.484E-06
            5075            5232     274.163E-06     303.082E-06
            5093            5232     274.163E-06     303.082E-06
            5074            5232     274.163E-06     303.082E-06
            5092            5232     274.163E-06     303.082E-06
            5093            5233     280.330E-06     311.222E-06
            5076            5233     280.330E-06     311.222E-06
            5075            5233     280.330E-06     311.222E-06
            5094            5233     280.330E-06     311.222E-06
            5077            5234     287.561E-06     320.089E-06
            5095            5234     287.561E-06     320.089E-06
            5094            5234     287.561E-06     320.089E-06
            5076            5234     287.561E-06     320.089E-06
            5077            5235     295.112E-06     329.009E-06
            5096            5235     295.112E-06     329.009E-06
            5095            5235     295.112E-06     329.009E-06
            5078            5235     295.112E-06     329.009E-06
            5097            5236     303.261E-06     338.404E-06
            5079            5236     303.261E-06     338.404E-06
            5078            5236     303.261E-06     338.404E-06
            5096            5236     303.261E-06     338.404E-06
            5080            5237     310.601E-06     347.027E-06
            5079            5237     310.601E-06     347.027E-06
            5097            5237     310.601E-06     347.027E-06
            5098            5237     310.601E-06     347.027E-06
            5080            5238     318.422E-06     356.975E-06
            5099            5238     318.422E-06     356.975E-06
            5081            5238     318.422E-06     356.975E-06
            5098            5238     318.422E-06     356.975E-06
            5081            5239     328.745E-06     369.229E-06
            5100            5239     328.745E-06     369.229E-06
            5082            5239     328.745E-06     369.229E-06
            5099            5239     328.745E-06     369.229E-06
            5101            5240     369.175E-06     410.445E-06
            5083            5240     369.175E-06     410.445E-06
            5100            5240     369.175E-06     410.445E-06
            5082            5240     369.175E-06     410.445E-06
            5101            5241     488.524E-06     524.295E-06
            5102            5241     488.524E-06     524.295E-06
            5083            5241     488.524E-06     524.295E-06
            5084            5241     488.524E-06     524.295E-06
            5086            5242     279.555E-06     264.570E-06
            5103            5242     279.555E-06     264.570E-06
            5085            5242     279.555E-06     264.570E-06
            5104            5242     279.555E-06     264.570E-06
            5104            5243     270.864E-06     273.371E-06
            5105            5243     270.864E-06     273.371E-06
            5086            5243     270.864E-06     273.371E-06
            5087            5243     270.864E-06     273.371E-06
            5106            5244     269.579E-06     277.877E-06
            5087            5244     269.579E-06     277.877E-06
            5088            5244     269.579E-06     277.877E-06
            5105            5244     269.579E-06     277.877E-06
            5088            5245     270.652E-06     281.678E-06
            5089            5245     270.652E-06     281.678E-06
            5106            5245     270.652E-06     281.678E-06
            5107            5245     270.652E-06     281.678E-06
            5107            5246     273.038E-06     286.124E-06
            5089            5246     273.038E-06     286.124E-06
            5108            5246     273.038E-06     286.124E-06
            5090            5246     273.038E-06     286.124E-06
            5091            5247     276.812E-06     291.164E-06
            5108            5247     276.812E-06     291.164E-06
            5090            5247     276.812E-06     291.164E-06
            5109            5247     276.812E-06     291.164E-06
            5091            5248     281.444E-06     297.284E-06
            5092            5248     281.444E-06     297.284E-06
            5110            5248     281.444E-06     297.284E-06
            5109            5248     281.444E-06     297.284E-06
            5111            5249     287.055E-06     304.055E-06
            5110            5249     287.055E-06     304.055E-06
            5093            5249     287.055E-06     304.055E-06
            5092            5249     287.055E-06     304.055E-06
            5094            5250     293.809E-06     311.836E-06
            5093            5250     293.809E-06     311.836E-06
            5112            5250     293.809E-06     311.836E-06
            5111            5250     293.809E-06     311.836E-06
            5112            5251     301.391E-06     320.336E-06
            5113            5251     301.391E-06     320.336E-06
            5095            5251     301.391E-06     320.336E-06
            5094            5251     301.391E-06     320.336E-06
            5113            5252     310.533E-06     330.047E-06
            5096            5252     310.533E-06     330.047E-06
            5114            5252     310.533E-06     330.047E-06
            5095            5252     310.533E-06     330.047E-06
            5114            5253     320.048E-06     340.542E-06
            5096            5253     320.048E-06     340.542E-06
            5115            5253     320.048E-06     340.542E-06
            5097            5253     320.048E-06     340.542E-06
            5115            5254     331.506E-06     351.992E-06
            5116            5254     331.506E-06     351.992E-06
            5098            5254     331.506E-06     351.992E-06
            5097            5254     331.506E-06     351.992E-06
            5117            5255     340.413E-06     362.998E-06
            5116            5255     340.413E-06     362.998E-06
            5099            5255     340.413E-06     362.998E-06
            5098            5255     340.413E-06     362.998E-06
            5099            5256     347.912E-06     370.832E-06
            5100            5256     347.912E-06     370.832E-06
            5118            5256     347.912E-06     370.832E-06
            5117            5256     347.912E-06     370.832E-06
            5100            5257     365.301E-06     382.338E-06
            5118            5257     365.301E-06     382.338E-06
            5101            5257     365.301E-06     382.338E-06
            5119            5257     365.301E-06     382.338E-06
            5102            5258     401.650E-06     405.809E-06
            5119            5258     401.650E-06     405.809E-06
            5101            5258     401.650E-06     405.809E-06
            5120            5258     401.650E-06     405.809E-06
            5103            5259     293.241E-06     263.843E-06
            5121            5259     293.241E-06     263.843E-06
            5104            5259     293.241E-06     263.843E-06
            5122            5259     293.241E-06     263.843E-06
            5104            5260     287.586E-06     276.371E-06
            5123            5260     287.586E-06     276.371E-06
            5105            5260     287.586E-06     276.371E-06
            5122            5260     287.586E-06     276.371E-06
            5123            5261     281.224E-06     284.983E-06
            5105            5261     281.224E-06     284.983E-06
            5106            5261     281.224E-06     284.983E-06
            5124            5261     281.224E-06     284.983E-06
            5125            5262     282.183E-06     287.206E-06
            5107            5262     282.183E-06     287.206E-06
            5106            5262     282.183E-06     287.206E-06
            5124            5262     282.183E-06     287.206E-06
            5108            5263     285.638E-06     290.007E-06
            5126            5263     285.638E-06     290.007E-06
            5107            5263     285.638E-06     290.007E-06
            5125            5263     285.638E-06     290.007E-06
            5108            5264     289.538E-06     294.272E-06
            5109            5264     289.538E-06     294.272E-06
            5127            5264     289.538E-06     294.272E-06
            5126            5264     289.538E-06     294.272E-06
            5128            5265     294.518E-06     299.108E-06
            5127            5265     294.518E-06     299.108E-06
            5110            5265     294.518E-06     299.108E-06
            5109            5265     294.518E-06     299.108E-06
            5110            5266     300.276E-06     305.071E-06
            5129            5266     300.276E-06     305.071E-06
            5111            5266     300.276E-06     305.071E-06
            5128            5266     300.276E-06     305.071E-06
            5111            5267     306.899E-06     311.772E-06
            5112            5267     306.899E-06     311.772E-06
            5130            5267     306.899E-06     311.772E-06
            5129            5267     306.899E-06     311.772E-06
            5112            5268     314.854E-06     319.725E-06
            5113            5268     314.854E-06     319.725E-06
            5131            5268     314.854E-06     319.725E-06
            5130            5268     314.854E-06     319.725E-06
            5113            5269     323.761E-06     328.884E-06
            5131            5269     323.761E-06     328.884E-06
            5114            5269     323.761E-06     328.884E-06
            5132            5269     323.761E-06     328.884E-06
            5133            5270     334.889E-06     339.574E-06
            5115            5270     334.889E-06     339.574E-06
            5132            5270     334.889E-06     339.574E-06
            5114            5270     334.889E-06     339.574E-06
            5115            5271     345.668E-06     351.269E-06
            5134            5271     345.668E-06     351.269E-06
            5116            5271     345.668E-06     351.269E-06
            5133            5271     345.668E-06     351.269E-06
            5135            5272     356.128E-06     360.576E-06
            5117            5272     356.128E-06     360.576E-06
            5134            5272     356.128E-06     360.576E-06
            5116            5272     356.128E-06     360.576E-06
            5118            5273     353.299E-06     361.834E-06
            5136            5273     353.299E-06     361.834E-06
            5135            5273     353.299E-06     361.834E-06
            5117            5273     353.299E-06     361.834E-06
            5136            5274     311.944E-06     328.248E-06
            5118            5274     311.944E-06     328.248E-06
            5137            5274     311.944E-06     328.248E-06
            5119            5274     311.944E-06     328.248E-06
            5119            5275     278.605E-06     288.392E-06
            5120            5275     278.605E-06     288.392E-06
            5137            5275     278.605E-06     288.392E-06
            5138            5275     278.605E-06     288.392E-06
            5139            5276     298.382E-06     285.029E-06
            5121            5276     298.382E-06     285.029E-06
            5122            5276     298.382E-06     285.029E-06
            5140            5276     298.382E-06     285.029E-06
            5122            5277     290.889E-06     291.016E-06
            5123            5277     290.889E-06     291.016E-06
            5140            5277     290.889E-06     291.016E-06
            5141            5277     290.889E-06     291.016E-06
            5142            5278     292.177E-06     291.207E-06
            5141            5278     292.177E-06     291.207E-06
            5124            5278     292.177E-06     291.207E-06
            5123            5278     292.177E-06     291.207E-06
            5125            5279     295.212E-06     292.393E-06
            5124            5279     295.212E-06     292.393E-06
            5143            5279     295.212E-06     292.393E-06
            5142            5279     295.212E-06     292.393E-06
            5144            5280     298.776E-06     294.710E-06
            5143            5280     298.776E-06     294.710E-06
            5126            5280     298.776E-06     294.710E-06
            5125            5280     298.776E-06     294.710E-06
            5127            5281     303.270E-06     297.630E-06
            5126            5281     303.270E-06     297.630E-06
            5145            5281     303.270E-06     297.630E-06
            5144            5281     303.270E-06     297.630E-06
            5146            5282     308.218E-06     301.608E-06
            5128            5282     308.218E-06     301.608E-06
            5145            5282     308.218E-06     301.608E-06
            5127            5282     308.218E-06     301.608E-06
            5147            5283     313.817E-06     306.143E-06
            5128            5283     313.817E-06     306.143E-06
            5146            5283     313.817E-06     306.143E-06
            5129            5283     313.817E-06     306.143E-06
            5129            5284     320.109E-06     311.539E-06
            5130            5284     320.109E-06     311.539E-06
            5147            5284     320.109E-06     311.539E-06
            5148            5284     320.109E-06     311.539E-06
            5130            5285     327.028E-06     317.618E-06
            5149            5285     327.028E-06     317.618E-06
            5131            5285     327.028E-06     317.618E-06
            5148            5285     327.028E-06     317.618E-06
            5150            5286     334.924E-06     324.693E-06
            5149            5286     334.924E-06     324.693E-06
            5131            5286     334.924E-06     324.693E-06
            5132            5286     334.924E-06     324.693E-06
            5151            5287     343.270E-06     332.356E-06
            5132            5287     343.270E-06     332.356E-06
            5133            5287     343.270E-06     332.356E-06
            5150            5287     343.270E-06     332.356E-06
            5151            5288     351.468E-06     339.564E-06
            5152            5288     351.468E-06     339.564E-06
            5134            5288     351.468E-06     339.564E-06
            5133            5288     351.468E-06     339.564E-06
            5135            5289     354.888E-06     342.629E-06
            5152            5289     354.888E-06     342.629E-06
            5134            5289     354.888E-06     342.629E-06
            5153            5289     354.888E-06     342.629E-06
            5135            5290     341.078E-06     330.262E-06
            5136            5290     341.078E-06     330.262E-06
            5154            5290     341.078E-06     330.262E-06
            5153            5290     341.078E-06     330.262E-06
            5137            5291     272.832E-06     273.619E-06
            5155            5291     272.832E-06     273.619E-06
            5154            5291     272.832E-06     273.619E-06
            5136            5291     272.832E-06     273.619E-06
            5155            5292     185.757E-06     183.206E-06
            5156            5292     185.757E-06     183.206E-06
            5138            5292     185.757E-06     183.206E-06
            5137            5292     185.757E-06     183.206E-06
            5157            5293     291.565E-06     309.545E-06
            5140            5293     291.565E-06     309.545E-06
            5158            5293     291.565E-06     309.545E-06
            5139            5293     291.565E-06     309.545E-06
            5141            5294     297.064E-06     302.078E-06
            5159            5294     297.064E-06     302.078E-06
            5140            5294     297.064E-06     302.078E-06
            5158            5294     297.064E-06     302.078E-06
            5159            5295     304.102E-06     297.506E-06
            5142            5295     304.102E-06     297.506E-06
            5141            5295     304.102E-06     297.506E-06
            5160            5295     304.102E-06     297.506E-06
            5142            5296     308.847E-06     298.188E-06
            5161            5296     308.847E-06     298.188E-06
            5160            5296     308.847E-06     298.188E-06
            5143            5296     308.847E-06     298.188E-06
            5143            5297     312.969E-06     299.821E-06
            5162            5297     312.969E-06     299.821E-06
            5161            5297     312.969E-06     299.821E-06
            5144            5297     312.969E-06     299.821E-06
            5144            5298     317.731E-06     301.917E-06
            5145            5298     317.731E-06     301.917E-06
            5162            5298     317.731E-06     301.917E-06
            5163            5298     317.731E-06     301.917E-06
            5145            5299     322.694E-06     304.719E-06
            5164            5299     322.694E-06     304.719E-06
            5146            5299     322.694E-06     304.719E-06
            5163            5299     322.694E-06     304.719E-06
            5164            5300     328.064E-06     307.948E-06
            5146            5300     328.064E-06     307.948E-06
            5165            5300     328.064E-06     307.948E-06
            5147            5300     328.064E-06     307.948E-06
            5166            5301     333.599E-06     311.573E-06
            5147            5301     333.599E-06     311.573E-06
            5148            5301     333.599E-06     311.573E-06
            5165            5301     333.599E-06     311.573E-06
            5149            5302     339.164E-06     315.375E-06
            5148            5302     339.164E-06     315.375E-06
            5167            5302     339.164E-06     315.375E-06
            5166            5302     339.164E-06     315.375E-06
            5168            5303     344.441E-06     318.798E-06
            5149            5303     344.441E-06     318.798E-06
            5150            5303     344.441E-06     318.798E-06
            5167            5303     344.441E-06     318.798E-06
            5151            5304     348.164E-06     321.136E-06
            5168            5304     348.164E-06     321.136E-06
            5150            5304     348.164E-06     321.136E-06
            5169            5304     348.164E-06     321.136E-06
            5170            5305     349.052E-06     319.671E-06
            5152            5305     349.052E-06     319.671E-06
            5151            5305     349.052E-06     319.671E-06
            5169            5305     349.052E-06     319.671E-06
            5152            5306     340.411E-06     310.197E-06
            5171            5306     340.411E-06     310.197E-06
            5170            5306     340.411E-06     310.197E-06
            5153            5306     340.411E-06     310.197E-06
            5172            5307     313.461E-06     280.364E-06
            5171            5307     313.461E-06     280.364E-06
            5153            5307     313.461E-06     280.364E-06
            5154            5307     313.461E-06     280.364E-06
            5154            5308     251.428E-06     216.487E-06
            5173            5308     251.428E-06     216.487E-06
            5172            5308     251.428E-06     216.487E-06
            5155            5308     251.428E-06     216.487E-06
            5156            5309     152.193E-06     162.930E-06
            5174            5309     152.193E-06     162.930E-06
            5173            5309     152.193E-06     162.930E-06
            5155            5309     152.193E-06     162.930E-06
            5865            5862     3.07679E-03     4.01446E-03
            5866            5862     3.07679E-03     4.01446E-03
            5848            5862     3.07679E-03     4.01446E-03
            5847            5862     3.07679E-03     4.01446E-03
            5848            5863     6.13527E-03     7.22276E-03
            5867            5863     6.13527E-03     7.22276E-03
            5866            5863     6.13527E-03     7.22276E-03
            5849            5863     6.13527E-03     7.22276E-03
            5849            5864     9.34485E-03     10.5684E-03
            5868            5864     9.34485E-03     10.5684E-03
            5850            5864     9.34485E-03     10.5684E-03
            5867            5864     9.34485E-03     10.5684E-03
            5868            5865     12.6166E-03     13.9211E-03
            5851            5865     12.6166E-03     13.9211E-03
            5850            5865     12.6166E-03     13.9211E-03
            5869            5865     12.6166E-03     13.9211E-03
            5870            5866     15.9182E-03     17.2691E-03
            5852            5866     15.9182E-03     17.2691E-03
            5851            5866     15.9182E-03     17.2691E-03
            5869            5866     15.9182E-03     17.2691E-03
            5870            5867     19.2322E-03     20.6052E-03
            5852            5867     19.2322E-03     20.6052E-03
            5853            5867     19.2322E-03     20.6052E-03
            5871            5867     19.2322E-03     20.6052E-03
            5853            5868     22.5576E-03     23.9324E-03
            5872            5868     22.5576E-03     23.9324E-03
            5871            5868     22.5576E-03     23.9324E-03
            5854            5868     22.5576E-03     23.9324E-03
            5854            5869     25.8873E-03     27.2518E-03
            5872            5869     25.8873E-03     27.2518E-03
            5855            5869     25.8873E-03     27.2518E-03
            5873            5869     25.8873E-03     27.2518E-03
            5874            5870     29.2317E-03     30.5664E-03
            5855            5870     29.2317E-03     30.5664E-03
            5873            5870     29.2317E-03     30.5664E-03
            5856            5870     29.2317E-03     30.5664E-03
            5874            5871     32.5877E-03     33.8879E-03
            5875            5871     32.5877E-03     33.8879E-03
            5857            5871     32.5877E-03     33.8879E-03
            5856            5871     32.5877E-03     33.8879E-03
            5876            5872     35.9853E-03     37.2246E-03
            5875            5872     35.9853E-03     37.2246E-03
            5857            5872     35.9853E-03     37.2246E-03
            5858            5872     35.9853E-03     37.2246E-03
            5858            5873     39.4240E-03     40.6114E-03
            5877            5873     39.4240E-03     40.6114E-03
            5876            5873     39.4240E-03     40.6114E-03
            5859            5873     39.4240E-03     40.6114E-03
            5878            5874     42.9815E-03     44.0830E-03
            5860            5874     42.9815E-03     44.0830E-03
            5877            5874     42.9815E-03     44.0830E-03
            5859            5874     42.9815E-03     44.0830E-03
            5861            5875     46.6612E-03     47.7296E-03
            5878            5875     46.6612E-03     47.7296E-03
            5879            5875     46.6612E-03     47.7296E-03
            5860            5875     46.6612E-03     47.7296E-03
            5879            5876     50.6899E-03     51.7218E-03
            5880            5876     50.6899E-03     51.7218E-03
            5861            5876     50.6899E-03     51.7218E-03
            5862            5876     50.6899E-03     51.7218E-03
            5880            5877     55.0949E-03     56.2895E-03
            5862            5877     55.0949E-03     56.2895E-03
            5863            5877     55.0949E-03     56.2895E-03
            5881            5877     55.0949E-03     56.2895E-03
            5863            5878     61.3567E-03     63.4016E-03
            5881            5878     61.3567E-03     63.4016E-03
            5864            5878     61.3567E-03     63.4016E-03
            5882            5878     61.3567E-03     63.4016E-03
            5865            5879     2.76081E-03     4.02437E-03
            5883            5879     2.76081E-03     4.02437E-03
            5866            5879     2.76081E-03     4.02437E-03
            5884            5879     2.76081E-03     4.02437E-03
            5884            5880     5.60879E-03     6.87523E-03
            5866            5880     5.60879E-03     6.87523E-03
            5867            5880     5.60879E-03     6.87523E-03
            5885            5880     5.60879E-03     6.87523E-03
            5868            5881     8.55418E-03     10.0283E-03
            5867            5881     8.55418E-03     10.0283E-03
            5885            5881     8.55418E-03     10.0283E-03
            5886            5881     8.55418E-03     10.0283E-03
            5868            5882     11.5817E-03     13.1831E-03
            5886            5882     11.5817E-03     13.1831E-03
            5869            5882     11.5817E-03     13.1831E-03
            5887            5882     11.5817E-03     13.1831E-03
            5888            5883     14.6372E-03     16.3190E-03
            5869            5883     14.6372E-03     16.3190E-03
            5887            5883     14.6372E-03     16.3190E-03
            5870            5883     14.6372E-03     16.3190E-03
            5888            5884     17.7161E-03     19.4364E-03
            5870            5884     17.7161E-03     19.4364E-03
            5871            5884     17.7161E-03     19.4364E-03
            5889            5884     17.7161E-03     19.4364E-03
            5872            5885     20.8040E-03     22.5345E-03
            5889            5885     20.8040E-03     22.5345E-03
            5890            5885     20.8040E-03     22.5345E-03
            5871            5885     20.8040E-03     22.5345E-03
            5891            5886     23.9091E-03     25.6232E-03
            5873            5886     23.9091E-03     25.6232E-03
            5872            5886     23.9091E-03     25.6232E-03
            5890            5886     23.9091E-03     25.6232E-03
            5873            5887     27.0292E-03     28.7069E-03
            5874            5887     27.0292E-03     28.7069E-03
            5891            5887     27.0292E-03     28.7069E-03
            5892            5887     27.0292E-03     28.7069E-03
            5893            5888     30.1931E-03     31.8133E-03
            5874            5888     30.1931E-03     31.8133E-03
            5875            5888     30.1931E-03     31.8133E-03
            5892            5888     30.1931E-03     31.8133E-03
            5876            5889     33.4123E-03     34.9596E-03
            5875            5889     33.4123E-03     34.9596E-03
            5894            5889     33.4123E-03     34.9596E-03
            5893            5889     33.4123E-03     34.9596E-03
            5895            5890     36.7682E-03     38.2260E-03
            5876            5890     36.7682E-03     38.2260E-03
            5894            5890     36.7682E-03     38.2260E-03
            5877            5890     36.7682E-03     38.2260E-03
            5878            5891     40.2975E-03     41.6682E-03
            5877            5891     40.2975E-03     41.6682E-03
            5896            5891     40.2975E-03     41.6682E-03
            5895            5891     40.2975E-03     41.6682E-03
            5879            5892     44.2413E-03     45.5312E-03
            5897            5892     44.2413E-03     45.5312E-03
            5878            5892     44.2413E-03     45.5312E-03
            5896            5892     44.2413E-03     45.5312E-03
            5879            5893     48.6984E-03     49.9818E-03
            5898            5893     48.6984E-03     49.9818E-03
            5897            5893     48.6984E-03     49.9818E-03
            5880            5893     48.6984E-03     49.9818E-03
            5881            5894     54.6369E-03     55.9970E-03
            5899            5894     54.6369E-03     55.9970E-03
            5880            5894     54.6369E-03     55.9970E-03
            5898            5894     54.6369E-03     55.9970E-03
            5900            5895     63.4000E-03     64.3689E-03
            5899            5895     63.4000E-03     64.3689E-03
            5882            5895     63.4000E-03     64.3689E-03
            5881            5895     63.4000E-03     64.3689E-03
            5902            5896     2.53926E-03     3.80119E-03
            5883            5896     2.53926E-03     3.80119E-03
            5901            5896     2.53926E-03     3.80119E-03
            5884            5896     2.53926E-03     3.80119E-03
            5903            5897     5.54365E-03     6.82197E-03
            5884            5897     5.54365E-03     6.82197E-03
            5902            5897     5.54365E-03     6.82197E-03
            5885            5897     5.54365E-03     6.82197E-03
            5903            5898     8.69801E-03     10.0200E-03
            5885            5898     8.69801E-03     10.0200E-03
            5904            5898     8.69801E-03     10.0200E-03
            5886            5898     8.69801E-03     10.0200E-03
            5886            5899     11.8477E-03     13.2595E-03
            5904            5899     11.8477E-03     13.2595E-03
            5905            5899     11.8477E-03     13.2595E-03
            5887            5899     11.8477E-03     13.2595E-03
            5905            5900     15.0185E-03     16.4809E-03
            5888            5900     15.0185E-03     16.4809E-03
            5887            5900     15.0185E-03     16.4809E-03
            5906            5900     15.0185E-03     16.4809E-03
            5888            5901     18.1962E-03     19.6937E-03
            5906            5901     18.1962E-03     19.6937E-03
            5889            5901     18.1962E-03     19.6937E-03
            5907            5901     18.1962E-03     19.6937E-03
            5907            5902     21.3873E-03     22.8974E-03
            5890            5902     21.3873E-03     22.8974E-03
            5908            5902     21.3873E-03     22.8974E-03
            5889            5902     21.3873E-03     22.8974E-03
            5908            5903     24.5878E-03     26.1012E-03
            5890            5903     24.5878E-03     26.1012E-03
            5891            5903     24.5878E-03     26.1012E-03
            5909            5903     24.5878E-03     26.1012E-03
            5909            5904     27.8155E-03     29.3183E-03
            5892            5904     27.8155E-03     29.3183E-03
            5910            5904     27.8155E-03     29.3183E-03
            5891            5904     27.8155E-03     29.3183E-03
            5893            5905     31.0755E-03     32.5676E-03
            5910            5905     31.0755E-03     32.5676E-03
            5911            5905     31.0755E-03     32.5676E-03
            5892            5905     31.0755E-03     32.5676E-03
            5911            5906     34.4191E-03     35.8865E-03
            5893            5906     34.4191E-03     35.8865E-03
            5912            5906     34.4191E-03     35.8865E-03
            5894            5906     34.4191E-03     35.8865E-03
            5912            5907     37.8756E-03     39.3305E-03
            5913            5907     37.8756E-03     39.3305E-03
            5894            5907     37.8756E-03     39.3305E-03
            5895            5907     37.8756E-03     39.3305E-03
            5913            5908     41.5800E-03     42.9974E-03
            5896            5908     41.5800E-03     42.9974E-03
            5895            5908     41.5800E-03     42.9974E-03
            5914            5908     41.5800E-03     42.9974E-03
            5914            5909     45.6582E-03     47.0568E-03
            5915            5909     45.6582E-03     47.0568E-03
            5897            5909     45.6582E-03     47.0568E-03
            5896            5909     45.6582E-03     47.0568E-03
            5898            5910     50.4180E-03     51.7356E-03
            5897            5910     50.4180E-03     51.7356E-03
            5915            5910     50.4180E-03     51.7356E-03
            5916            5910     50.4180E-03     51.7356E-03
            5917            5911     56.7903E-03     57.6611E-03
            5916            5911     56.7903E-03     57.6611E-03
            5898            5911     56.7903E-03     57.6611E-03
            5899            5911     56.7903E-03     57.6611E-03
            5918            5912     63.4216E-03     63.6461E-03
            5917            5912     63.4216E-03     63.6461E-03
            5900            5912     63.4216E-03     63.6461E-03
            5899            5912     63.4216E-03     63.6461E-03
            5901            5913     3.42642E-03     4.12757E-03
            5919            5913     3.42642E-03     4.12757E-03
            5920            5913     3.42642E-03     4.12757E-03
            5902            5913     3.42642E-03     4.12757E-03
            5902            5914     6.01820E-03     7.15971E-03
            5903            5914     6.01820E-03     7.15971E-03
            5920            5914     6.01820E-03     7.15971E-03
            5921            5914     6.01820E-03     7.15971E-03
            5904            5915     9.11047E-03     10.3091E-03
            5903            5915     9.11047E-03     10.3091E-03
            5921            5915     9.11047E-03     10.3091E-03
            5922            5915     9.11047E-03     10.3091E-03
            5923            5916     12.2952E-03     13.5338E-03
            5922            5916     12.2952E-03     13.5338E-03
            5904            5916     12.2952E-03     13.5338E-03
            5905            5916     12.2952E-03     13.5338E-03
            5906            5917     15.5070E-03     16.7888E-03
            5905            5917     15.5070E-03     16.7888E-03
            5923            5917     15.5070E-03     16.7888E-03
            5924            5917     15.5070E-03     16.7888E-03
            5907            5918     18.7467E-03     20.0469E-03
            5906            5918     18.7467E-03     20.0469E-03
            5924            5918     18.7467E-03     20.0469E-03
            5925            5918     18.7467E-03     20.0469E-03
            5926            5919     22.0016E-03     23.3200E-03
            5925            5919     22.0016E-03     23.3200E-03
            5907            5919     22.0016E-03     23.3200E-03
            5908            5919     22.0016E-03     23.3200E-03
            5927            5920     25.2791E-03     26.6082E-03
            5908            5920     25.2791E-03     26.6082E-03
            5926            5920     25.2791E-03     26.6082E-03
            5909            5920     25.2791E-03     26.6082E-03
            5909            5921     28.5802E-03     29.9270E-03
            5927            5921     28.5802E-03     29.9270E-03
            5928            5921     28.5802E-03     29.9270E-03
            5910            5921     28.5802E-03     29.9270E-03
            5911            5922     31.9308E-03     33.2910E-03
            5910            5922     31.9308E-03     33.2910E-03
            5928            5922     31.9308E-03     33.2910E-03
            5929            5922     31.9308E-03     33.2910E-03
            5912            5923     35.3501E-03     36.7374E-03
            5930            5923     35.3501E-03     36.7374E-03
            5929            5923     35.3501E-03     36.7374E-03
            5911            5923     35.3501E-03     36.7374E-03
            5912            5924     38.9003E-03     40.3005E-03
            5930            5924     38.9003E-03     40.3005E-03
            5931            5924     38.9003E-03     40.3005E-03
            5913            5924     38.9003E-03     40.3005E-03
            5914            5925     42.6715E-03     44.0793E-03
            5932            5925     42.6715E-03     44.0793E-03
            5913            5925     42.6715E-03     44.0793E-03
            5931            5925     42.6715E-03     44.0793E-03
            5914            5926     46.7542E-03     48.1371E-03
            5932            5926     46.7542E-03     48.1371E-03
            5933            5926     46.7542E-03     48.1371E-03
            5915            5926     46.7542E-03     48.1371E-03
            5934            5927     51.5651E-03     52.7204E-03
            5916            5927     51.5651E-03     52.7204E-03
            5933            5927     51.5651E-03     52.7204E-03
            5915            5927     51.5651E-03     52.7204E-03
            5917            5928     56.7091E-03     57.6670E-03
            5934            5928     56.7091E-03     57.6670E-03
            5935            5928     56.7091E-03     57.6670E-03
            5916            5928     56.7091E-03     57.6670E-03
            5936            5929     61.3586E-03     62.4130E-03
            5918            5929     61.3586E-03     62.4130E-03
            5917            5929     61.3586E-03     62.4130E-03
            5935            5929     61.3586E-03     62.4130E-03
            5938            5930     4.65137E-03     5.02867E-03
            5920            5930     4.65137E-03     5.02867E-03
            5937            5930     4.65137E-03     5.02867E-03
            5919            5930     4.65137E-03     5.02867E-03
            5939            5931     6.83467E-03     7.72997E-03
            5921            5931     6.83467E-03     7.72997E-03
            5938            5931     6.83467E-03     7.72997E-03
            5920            5931     6.83467E-03     7.72997E-03
            5921            5932     9.72240E-03     10.7804E-03
            5940            5932     9.72240E-03     10.7804E-03
            5922            5932     9.72240E-03     10.7804E-03
            5939            5932     9.72240E-03     10.7804E-03
            5940            5933     12.8377E-03     13.9414E-03
            5922            5933     12.8377E-03     13.9414E-03
            5923            5933     12.8377E-03     13.9414E-03
            5941            5933     12.8377E-03     13.9414E-03
            5923            5934     16.0462E-03     17.1604E-03
            5941            5934     16.0462E-03     17.1604E-03
            5924            5934     16.0462E-03     17.1604E-03
            5942            5934     16.0462E-03     17.1604E-03
            5942            5935     19.2997E-03     20.4256E-03
            5925            5935     19.2997E-03     20.4256E-03
            5943            5935     19.2997E-03     20.4256E-03
            5924            5935     19.2997E-03     20.4256E-03
            5944            5936     22.5879E-03     23.7207E-03
            5926            5936     22.5879E-03     23.7207E-03
            5943            5936     22.5879E-03     23.7207E-03
            5925            5936     22.5879E-03     23.7207E-03
            5927            5937     25.9038E-03     27.0555E-03
            5944            5937     25.9038E-03     27.0555E-03
            5945            5937     25.9038E-03     27.0555E-03
            5926            5937     25.9038E-03     27.0555E-03
            5927            5938     29.2539E-03     30.4311E-03
            5945            5938     29.2539E-03     30.4311E-03
            5928            5938     29.2539E-03     30.4311E-03
            5946            5938     29.2539E-03     30.4311E-03
            5947            5939     32.6476E-03     33.8668E-03
            5929            5939     32.6476E-03     33.8668E-03
            5946            5939     32.6476E-03     33.8668E-03
            5928            5939     32.6476E-03     33.8668E-03
            5947            5940     36.1061E-03     37.3701E-03
            5929            5940     36.1061E-03     37.3701E-03
            5930            5940     36.1061E-03     37.3701E-03
            5948            5940     36.1061E-03     37.3701E-03
            5948            5941     39.6746E-03     40.9845E-03
            5931            5941     39.6746E-03     40.9845E-03
            5949            5941     39.6746E-03     40.9845E-03
            5930            5941     39.6746E-03     40.9845E-03
            5950            5942     43.3697E-03     44.7172E-03
            5932            5942     43.3697E-03     44.7172E-03
            5949            5942     43.3697E-03     44.7172E-03
            5931            5942     43.3697E-03     44.7172E-03
            5951            5943     47.3559E-03     48.6355E-03
            5933            5943     47.3559E-03     48.6355E-03
            5950            5943     47.3559E-03     48.6355E-03
            5932            5943     47.3559E-03     48.6355E-03
            5951            5944     51.4912E-03     52.7033E-03
            5933            5944     51.4912E-03     52.7033E-03
            5952            5944     51.4912E-03     52.7033E-03
            5934            5944     51.4912E-03     52.7033E-03
            5935            5945     55.5749E-03     56.6829E-03
            5952            5945     55.5749E-03     56.6829E-03
            5934            5945     55.5749E-03     56.6829E-03
            5953            5945     55.5749E-03     56.6829E-03
            5936            5946     59.5300E-03     60.2269E-03
            5935            5946     59.5300E-03     60.2269E-03
            5953            5946     59.5300E-03     60.2269E-03
            5954            5946     59.5300E-03     60.2269E-03
            5956            5947     5.91143E-03     6.17372E-03
            5938            5947     5.91143E-03     6.17372E-03
            5937            5947     5.91143E-03     6.17372E-03
            5955            5947     5.91143E-03     6.17372E-03
            5939            5948     7.79004E-03     8.51357E-03
            5957            5948     7.79004E-03     8.51357E-03
            5938            5948     7.79004E-03     8.51357E-03
            5956            5948     7.79004E-03     8.51357E-03
            5957            5949     10.4480E-03     11.3720E-03
            5958            5949     10.4480E-03     11.3720E-03
            5939            5949     10.4480E-03     11.3720E-03
            5940            5949     10.4480E-03     11.3720E-03
            5958            5950     13.4405E-03     14.4068E-03
            5959            5950     13.4405E-03     14.4068E-03
            5940            5950     13.4405E-03     14.4068E-03
            5941            5950     13.4405E-03     14.4068E-03
            5960            5951     16.5884E-03     17.5513E-03
            5959            5951     16.5884E-03     17.5513E-03
            5941            5951     16.5884E-03     17.5513E-03
            5942            5951     16.5884E-03     17.5513E-03
            5960            5952     19.8162E-03     20.7637E-03
            5961            5952     19.8162E-03     20.7637E-03
            5943            5952     19.8162E-03     20.7637E-03
            5942            5952     19.8162E-03     20.7637E-03
            5962            5953     23.0950E-03     24.0389E-03
            5943            5953     23.0950E-03     24.0389E-03
            5961            5953     23.0950E-03     24.0389E-03
            5944            5953     23.0950E-03     24.0389E-03
            5962            5954     26.4107E-03     27.3685E-03
            5945            5954     26.4107E-03     27.3685E-03
            5963            5954     26.4107E-03     27.3685E-03
            5944            5954     26.4107E-03     27.3685E-03
            5963            5955     29.7634E-03     30.7545E-03
            5946            5955     29.7634E-03     30.7545E-03
            5964            5955     29.7634E-03     30.7545E-03
            5945            5955     29.7634E-03     30.7545E-03
            5964            5956     33.1533E-03     34.1937E-03
            5946            5956     33.1533E-03     34.1937E-03
            5947            5956     33.1533E-03     34.1937E-03
            5965            5956     33.1533E-03     34.1937E-03
            5947            5957     36.5959E-03     37.6989E-03
            5948            5957     36.5959E-03     37.6989E-03
            5966            5957     36.5959E-03     37.6989E-03
            5965            5957     36.5959E-03     37.6989E-03
            5949            5958     40.0811E-03     41.2579E-03
            5966            5958     40.0811E-03     41.2579E-03
            5967            5958     40.0811E-03     41.2579E-03
            5948            5958     40.0811E-03     41.2579E-03
            5968            5959     43.6549E-03     44.8720E-03
            5949            5959     43.6549E-03     44.8720E-03
            5950            5959     43.6549E-03     44.8720E-03
            5967            5959     43.6549E-03     44.8720E-03
            5969            5960     47.2442E-03     48.4926E-03
            5951            5960     47.2442E-03     48.4926E-03
            5968            5960     47.2442E-03     48.4926E-03
            5950            5960     47.2442E-03     48.4926E-03
            5969            5961     50.7913E-03     51.9839E-03
            5970            5961     50.7913E-03     51.9839E-03
            5952            5961     50.7913E-03     51.9839E-03
            5951            5961     50.7913E-03     51.9839E-03
            5971            5962     54.2306E-03     55.2064E-03
            5952            5962     54.2306E-03     55.2064E-03
            5953            5962     54.2306E-03     55.2064E-03
            5970            5962     54.2306E-03     55.2064E-03
            5953            5963     57.4100E-03     58.1871E-03
            5972            5963     57.4100E-03     58.1871E-03
            5971            5963     57.4100E-03     58.1871E-03
            5954            5963     57.4100E-03     58.1871E-03
            5973            5964     7.23075E-03     7.39124E-03
            5955            5964     7.23075E-03     7.39124E-03
            5974            5964     7.23075E-03     7.39124E-03
            5956            5964     7.23075E-03     7.39124E-03
            5974            5965     8.81880E-03     9.47243E-03
            5956            5965     8.81880E-03     9.47243E-03
            5975            5965     8.81880E-03     9.47243E-03
            5957            5965     8.81880E-03     9.47243E-03
            5957            5966     11.2393E-03     12.0502E-03
            5975            5966     11.2393E-03     12.0502E-03
            5958            5966     11.2393E-03     12.0502E-03
            5976            5966     11.2393E-03     12.0502E-03
            5977            5967     14.0762E-03     14.9165E-03
            5959            5967     14.0762E-03     14.9165E-03
            5958            5967     14.0762E-03     14.9165E-03
            5976            5967     14.0762E-03     14.9165E-03
            5959            5968     17.1180E-03     17.9177E-03
            5960            5968     17.1180E-03     17.9177E-03
            5977            5968     17.1180E-03     17.9177E-03
            5978            5968     17.1180E-03     17.9177E-03
            5979            5969     20.2773E-03     21.0292E-03
            5960            5969     20.2773E-03     21.0292E-03
            5978            5969     20.2773E-03     21.0292E-03
            5961            5969     20.2773E-03     21.0292E-03
            5961            5970     23.4968E-03     24.2330E-03
            5980            5970     23.4968E-03     24.2330E-03
            5979            5970     23.4968E-03     24.2330E-03
            5962            5970     23.4968E-03     24.2330E-03
            5962            5971     26.7636E-03     27.5064E-03
            5980            5971     26.7636E-03     27.5064E-03
            5981            5971     26.7636E-03     27.5064E-03
            5963            5971     26.7636E-03     27.5064E-03
            5981            5972     30.0650E-03     30.8389E-03
            5982            5972     30.0650E-03     30.8389E-03
            5964            5972     30.0650E-03     30.8389E-03
            5963            5972     30.0650E-03     30.8389E-03
            5964            5973     33.4014E-03     34.2247E-03
            5982            5973     33.4014E-03     34.2247E-03
            5983            5973     33.4014E-03     34.2247E-03
            5965            5973     33.4014E-03     34.2247E-03
            5965            5974     36.7529E-03     37.6492E-03
            5966            5974     36.7529E-03     37.6492E-03
            5984            5974     36.7529E-03     37.6492E-03
            5983            5974     36.7529E-03     37.6492E-03
            5967            5975     40.1204E-03     41.0953E-03
            5985            5975     40.1204E-03     41.0953E-03
            5966            5975     40.1204E-03     41.0953E-03
            5984            5975     40.1204E-03     41.0953E-03
            5967            5976     43.4486E-03     44.5158E-03
            5986            5976     43.4486E-03     44.5158E-03
            5985            5976     43.4486E-03     44.5158E-03
            5968            5976     43.4486E-03     44.5158E-03
            5986            5977     46.6769E-03     47.8119E-03
            5968            5977     46.6769E-03     47.8119E-03
            5969            5977     46.6769E-03     47.8119E-03
            5987            5977     46.6769E-03     47.8119E-03
            5987            5978     49.7488E-03     50.8564E-03
            5988            5978     49.7488E-03     50.8564E-03
            5969            5978     49.7488E-03     50.8564E-03
            5970            5978     49.7488E-03     50.8564E-03
            5989            5979     52.5767E-03     53.5564E-03
            5988            5979     52.5767E-03     53.5564E-03
            5971            5979     52.5767E-03     53.5564E-03
            5970            5979     52.5767E-03     53.5564E-03
            5972            5980     55.2897E-03     55.9567E-03
            5990            5980     55.2897E-03     55.9567E-03
            5989            5980     55.2897E-03     55.9567E-03
            5971            5980     55.2897E-03     55.9567E-03
            5974            5981     8.53181E-03     8.78481E-03
            5973            5981     8.53181E-03     8.78481E-03
            5992            5981     8.53181E-03     8.78481E-03
            5991            5981     8.53181E-03     8.78481E-03
            5993            5982     9.91416E-03     10.5108E-03
            5975            5982     9.91416E-03     10.5108E-03
            5974            5982     9.91416E-03     10.5108E-03
            5992            5982     9.91416E-03     10.5108E-03
            5993            5983     12.0945E-03     12.8586E-03
            5994            5983     12.0945E-03     12.8586E-03
            5976            5983     12.0945E-03     12.8586E-03
            5975            5983     12.0945E-03     12.8586E-03
            5977            5984     14.7395E-03     15.4527E-03
            5994            5984     14.7395E-03     15.4527E-03
            5995            5984     14.7395E-03     15.4527E-03
            5976            5984     14.7395E-03     15.4527E-03
            5977            5985     17.6534E-03     18.2488E-03
            5978            5985     17.6534E-03     18.2488E-03
            5995            5985     17.6534E-03     18.2488E-03
            5996            5985     17.6534E-03     18.2488E-03
            5978            5986     20.6845E-03     21.2192E-03
            5996            5986     20.6845E-03     21.2192E-03
            5997            5986     20.6845E-03     21.2192E-03
            5979            5986     20.6845E-03     21.2192E-03
            5979            5987     23.7921E-03     24.2970E-03
            5980            5987     23.7921E-03     24.2970E-03
            5998            5987     23.7921E-03     24.2970E-03
            5997            5987     23.7921E-03     24.2970E-03
            5998            5988     26.9503E-03     27.4566E-03
            5981            5988     26.9503E-03     27.4566E-03
            5999            5988     26.9503E-03     27.4566E-03
            5980            5988     26.9503E-03     27.4566E-03
            6000            5989     30.1477E-03     30.6741E-03
            5999            5989     30.1477E-03     30.6741E-03
            5981            5989     30.1477E-03     30.6741E-03
            5982            5989     30.1477E-03     30.6741E-03
            5983            5990     33.3620E-03     33.9327E-03
            5982            5990     33.3620E-03     33.9327E-03
            6001            5990     33.3620E-03     33.9327E-03
            6000            5990     33.3620E-03     33.9327E-03
            6001            5991     36.5822E-03     37.2106E-03
            5983            5991     36.5822E-03     37.2106E-03
            6002            5991     36.5822E-03     37.2106E-03
            5984            5991     36.5822E-03     37.2106E-03
            5985            5992     39.7606E-03     40.4769E-03
            5984            5992     39.7606E-03     40.4769E-03
            6002            5992     39.7606E-03     40.4769E-03
            6003            5992     39.7606E-03     40.4769E-03
            6003            5993     42.8423E-03     43.6656E-03
            5985            5993     42.8423E-03     43.6656E-03
            5986            5993     42.8423E-03     43.6656E-03
            6004            5993     42.8423E-03     43.6656E-03
            5987            5994     45.7597E-03     46.6795E-03
            6004            5994     45.7597E-03     46.6795E-03
            5986            5994     45.7597E-03     46.6795E-03
            6005            5994     45.7597E-03     46.6795E-03
            6005            5995     48.3783E-03     49.3876E-03
            5988            5995     48.3783E-03     49.3876E-03
            6006            5995     48.3783E-03     49.3876E-03
            5987            5995     48.3783E-03     49.3876E-03
            6006            5996     50.7530E-03     51.6712E-03
            5988            5996     50.7530E-03     51.6712E-03
            5989            5996     50.7530E-03     51.6712E-03
            6007            5996     50.7530E-03     51.6712E-03
            6008            5997     52.9806E-03     53.5701E-03
            6007            5997     52.9806E-03     53.5701E-03
            5989            5997     52.9806E-03     53.5701E-03
            5990            5997     52.9806E-03     53.5701E-03
            6010            5998     9.91215E-03     10.1793E-03
            5991            5998     9.91215E-03     10.1793E-03
            5992            5998     9.91215E-03     10.1793E-03
            6009            5998     9.91215E-03     10.1793E-03
            6011            5999     11.0737E-03     11.8154E-03
            6010            5999     11.0737E-03     11.8154E-03
            5992            5999     11.0737E-03     11.8154E-03
            5993            5999     11.0737E-03     11.8154E-03
            6012            6000     13.0056E-03     13.7573E-03
            6011            6000     13.0056E-03     13.7573E-03
            5993            6000     13.0056E-03     13.7573E-03
            5994            6000     13.0056E-03     13.7573E-03
            6013            6001     15.5001E-03     16.0010E-03
            6012            6001     15.5001E-03     16.0010E-03
            5994            6001     15.5001E-03     16.0010E-03
            5995            6001     15.5001E-03     16.0010E-03
            5995            6002     18.2214E-03     18.5835E-03
            6014            6002     18.2214E-03     18.5835E-03
            5996            6002     18.2214E-03     18.5835E-03
            6013            6002     18.2214E-03     18.5835E-03
            5996            6003     21.0686E-03     21.3608E-03
            6014            6003     21.0686E-03     21.3608E-03
            6015            6003     21.0686E-03     21.3608E-03
            5997            6003     21.0686E-03     21.3608E-03
            5998            6004     24.0024E-03     24.2657E-03
            6016            6004     24.0024E-03     24.2657E-03
            5997            6004     24.0024E-03     24.2657E-03
            6015            6004     24.0024E-03     24.2657E-03
            6017            6005     26.9945E-03     27.2501E-03
            6016            6005     26.9945E-03     27.2501E-03
            5998            6005     26.9945E-03     27.2501E-03
            5999            6005     26.9945E-03     27.2501E-03
            6017            6006     30.0198E-03     30.2850E-03
            5999            6006     30.0198E-03     30.2850E-03
            6000            6006     30.0198E-03     30.2850E-03
            6018            6006     30.0198E-03     30.2850E-03
            6019            6007     33.0624E-03     33.3434E-03
            6000            6007     33.0624E-03     33.3434E-03
            6018            6007     33.0624E-03     33.3434E-03
            6001            6007     33.0624E-03     33.3434E-03
            6020            6008     36.0819E-03     36.4020E-03
            6019            6008     36.0819E-03     36.4020E-03
            6002            6008     36.0819E-03     36.4020E-03
            6001            6008     36.0819E-03     36.4020E-03
            6020            6009     39.0430E-03     39.4161E-03
            6002            6009     39.0430E-03     39.4161E-03
            6021            6009     39.0430E-03     39.4161E-03
            6003            6009     39.0430E-03     39.4161E-03
            6021            6010     41.8773E-03     42.3369E-03
            6022            6010     41.8773E-03     42.3369E-03
            6003            6010     41.8773E-03     42.3369E-03
            6004            6010     41.8773E-03     42.3369E-03
            6004            6011     44.4788E-03     45.0728E-03
            6022            6011     44.4788E-03     45.0728E-03
            6023            6011     44.4788E-03     45.0728E-03
            6005            6011     44.4788E-03     45.0728E-03
            6024            6012     46.7891E-03     47.4896E-03
            6023            6012     46.7891E-03     47.4896E-03
            6006            6012     46.7891E-03     47.4896E-03
            6005            6012     46.7891E-03     47.4896E-03
            6024            6013     48.6712E-03     49.4473E-03
            6025            6013     48.6712E-03     49.4473E-03
            6006            6013     48.6712E-03     49.4473E-03
            6007            6013     48.6712E-03     49.4473E-03
            6025            6014     50.4114E-03     51.0124E-03
            6008            6014     50.4114E-03     51.0124E-03
            6026            6014     50.4114E-03     51.0124E-03
            6007            6014     50.4114E-03     51.0124E-03
            6009            6015     11.3141E-03     12.1469E-03
            6027            6015     11.3141E-03     12.1469E-03
            6028            6015     11.3141E-03     12.1469E-03
            6010            6015     11.3141E-03     12.1469E-03
            6010            6016     12.2237E-03     13.2563E-03
            6029            6016     12.2237E-03     13.2563E-03
            6028            6016     12.2237E-03     13.2563E-03
            6011            6016     12.2237E-03     13.2563E-03
            6029            6017     14.1303E-03     14.6439E-03
            6030            6017     14.1303E-03     14.6439E-03
            6012            6017     14.1303E-03     14.6439E-03
            6011            6017     14.1303E-03     14.6439E-03
            6012            6018     16.4116E-03     16.6264E-03
            6030            6018     16.4116E-03     16.6264E-03
            6031            6018     16.4116E-03     16.6264E-03
            6013            6018     16.4116E-03     16.6264E-03
            6032            6019     18.8737E-03     18.9772E-03
            6031            6019     18.8737E-03     18.9772E-03
            6014            6019     18.8737E-03     18.9772E-03
            6013            6019     18.8737E-03     18.9772E-03
            6014            6020     21.4806E-03     21.5325E-03
            6032            6020     21.4806E-03     21.5325E-03
            6033            6020     21.4806E-03     21.5325E-03
            6015            6020     21.4806E-03     21.5325E-03
            6015            6021     24.1829E-03     24.2135E-03
            6033            6021     24.1829E-03     24.2135E-03
            6034            6021     24.1829E-03     24.2135E-03
            6016            6021     24.1829E-03     24.2135E-03
            6017            6022     26.9462E-03     26.9644E-03
            6016            6022     26.9462E-03     26.9644E-03
            6035            6022     26.9462E-03     26.9644E-03
            6034            6022     26.9462E-03     26.9644E-03
            6035            6023     29.7458E-03     29.7479E-03
            6036            6023     29.7458E-03     29.7479E-03
            6017            6023     29.7458E-03     29.7479E-03
            6018            6023     29.7458E-03     29.7479E-03
            6019            6024     32.5443E-03     32.5354E-03
            6018            6024     32.5443E-03     32.5354E-03
            6037            6024     32.5443E-03     32.5354E-03
            6036            6024     32.5443E-03     32.5354E-03
            6020            6025     35.3163E-03     35.2899E-03
            6019            6025     35.3163E-03     35.2899E-03
            6037            6025     35.3163E-03     35.2899E-03
            6038            6025     35.3163E-03     35.2899E-03
            6021            6026     38.0071E-03     37.9796E-03
            6020            6026     38.0071E-03     37.9796E-03
            6039            6026     38.0071E-03     37.9796E-03
            6038            6026     38.0071E-03     37.9796E-03
            6040            6027     40.5619E-03     40.5472E-03
            6021            6027     40.5619E-03     40.5472E-03
            6022            6027     40.5619E-03     40.5472E-03
            6039            6027     40.5619E-03     40.5472E-03
            6041            6028     42.8933E-03     42.9336E-03
            6040            6028     42.8933E-03     42.9336E-03
            6023            6028     42.8933E-03     42.9336E-03
            6022            6028     42.8933E-03     42.9336E-03
            6041            6029     44.8740E-03     45.0435E-03
            6024            6029     44.8740E-03     45.0435E-03
            6023            6029     44.8740E-03     45.0435E-03
            6042            6029     44.8740E-03     45.0435E-03
            6043            6030     46.4161E-03     46.6937E-03
            6042            6030     46.4161E-03     46.6937E-03
            6024            6030     46.4161E-03     46.6937E-03
            6025            6030     46.4161E-03     46.6937E-03
            6026            6031     47.5836E-03     47.7519E-03
            6025            6031     47.5836E-03     47.7519E-03
            6044            6031     47.5836E-03     47.7519E-03
            6043            6031     47.5836E-03     47.7519E-03
            6046            6032     12.5063E-03     14.0680E-03
            6045            6032     12.5063E-03     14.0680E-03
            6028            6032     12.5063E-03     14.0680E-03
            6027            6032     12.5063E-03     14.0680E-03
            6047            6033     13.8199E-03     14.3893E-03
            6028            6033     13.8199E-03     14.3893E-03
            6029            6033     13.8199E-03     14.3893E-03
            6046            6033     13.8199E-03     14.3893E-03
            6047            6034     15.5578E-03     15.5908E-03
            6048            6034     15.5578E-03     15.5908E-03
            6030            6034     15.5578E-03     15.5908E-03
            6029            6034     15.5578E-03     15.5908E-03
            6048            6035     17.5124E-03     17.4100E-03
            6049            6035     17.5124E-03     17.4100E-03
            6031            6035     17.5124E-03     17.4100E-03
            6030            6035     17.5124E-03     17.4100E-03
            6050            6036     19.6676E-03     19.5307E-03
            6049            6036     19.6676E-03     19.5307E-03
            6032            6036     19.6676E-03     19.5307E-03
            6031            6036     19.6676E-03     19.5307E-03
            6033            6037     21.9911E-03     21.8402E-03
            6051            6037     21.9911E-03     21.8402E-03
            6050            6037     21.9911E-03     21.8402E-03
            6032            6037     21.9911E-03     21.8402E-03
            6051            6038     24.4149E-03     24.2555E-03
            6033            6038     24.4149E-03     24.2555E-03
            6034            6038     24.4149E-03     24.2555E-03
            6052            6038     24.4149E-03     24.2555E-03
            6053            6039     26.9078E-03     26.7218E-03
            6052            6039     26.9078E-03     26.7218E-03
            6034            6039     26.9078E-03     26.7218E-03
            6035            6039     26.9078E-03     26.7218E-03
            6053            6040     29.4203E-03     29.1996E-03
            6036            6040     29.4203E-03     29.1996E-03
            6054            6040     29.4203E-03     29.1996E-03
            6035            6040     29.4203E-03     29.1996E-03
            6054            6041     31.9264E-03     31.6465E-03
            6036            6041     31.9264E-03     31.6465E-03
            6055            6041     31.9264E-03     31.6465E-03
            6037            6041     31.9264E-03     31.6465E-03
            6055            6042     34.3806E-03     34.0288E-03
            6056            6042     34.3806E-03     34.0288E-03
            6037            6042     34.3806E-03     34.0288E-03
            6038            6042     34.3806E-03     34.0288E-03
            6039            6043     36.7487E-03     36.3009E-03
            6057            6043     36.7487E-03     36.3009E-03
            6056            6043     36.7487E-03     36.3009E-03
            6038            6043     36.7487E-03     36.3009E-03
            6057            6044     38.9726E-03     38.4150E-03
            6058            6044     38.9726E-03     38.4150E-03
            6039            6044     38.9726E-03     38.4150E-03
            6040            6044     38.9726E-03     38.4150E-03
            6059            6045     40.9934E-03     40.3239E-03
            6040            6045     40.9934E-03     40.3239E-03
            6058            6045     40.9934E-03     40.3239E-03
            6041            6045     40.9934E-03     40.3239E-03
            6059            6046     42.6996E-03     41.9358E-03
            6042            6046     42.6996E-03     41.9358E-03
            6060            6046     42.6996E-03     41.9358E-03
            6041            6046     42.6996E-03     41.9358E-03
            6060            6047     43.9511E-03     43.1977E-03
            6061            6047     43.9511E-03     43.1977E-03
            6043            6047     43.9511E-03     43.1977E-03
            6042            6047     43.9511E-03     43.1977E-03
            6061            6048     44.5171E-03     43.6433E-03
            6062            6048     44.5171E-03     43.6433E-03
            6044            6048     44.5171E-03     43.6433E-03
            6043            6048     44.5171E-03     43.6433E-03
            6063            6049     7.16995E-03     8.41436E-03
            6045            6049     7.16995E-03     8.41436E-03
            6046            6049     7.16995E-03     8.41436E-03
            6064            6049     7.16995E-03     8.41436E-03
            6065            6050     8.96384E-03     9.55114E-03
            6046            6050     8.96384E-03     9.55114E-03
            6064            6050     8.96384E-03     9.55114E-03
            6047            6050     8.96384E-03     9.55114E-03
            6065            6051     10.6707E-03     11.1693E-03
            6066            6051     10.6707E-03     11.1693E-03
            6047            6051     10.6707E-03     11.1693E-03
            6048            6051     10.6707E-03     11.1693E-03
            6049            6052     12.5184E-03     13.0513E-03
            6067            6052     12.5184E-03     13.0513E-03
            6066            6052     12.5184E-03     13.0513E-03
            6048            6052     12.5184E-03     13.0513E-03
            6068            6053     14.4882E-03     15.0436E-03
            6067            6053     14.4882E-03     15.0436E-03
            6049            6053     14.4882E-03     15.0436E-03
            6050            6053     14.4882E-03     15.0436E-03
            6068            6054     16.5455E-03     17.1186E-03
            6051            6054     16.5455E-03     17.1186E-03
            6050            6054     16.5455E-03     17.1186E-03
            6069            6054     16.5455E-03     17.1186E-03
            6051            6055     18.6689E-03     19.2351E-03
            6069            6055     18.6689E-03     19.2351E-03
            6070            6055     18.6689E-03     19.2351E-03
            6052            6055     18.6689E-03     19.2351E-03
            6070            6056     20.8272E-03     21.3725E-03
            6071            6056     20.8272E-03     21.3725E-03
            6052            6056     20.8272E-03     21.3725E-03
            6053            6056     20.8272E-03     21.3725E-03
            6071            6057     23.0146E-03     23.5118E-03
            6054            6057     23.0146E-03     23.5118E-03
            6072            6057     23.0146E-03     23.5118E-03
            6053            6057     23.0146E-03     23.5118E-03
            6055            6058     25.2073E-03     25.6470E-03
            6073            6058     25.2073E-03     25.6470E-03
            6054            6058     25.2073E-03     25.6470E-03
            6072            6058     25.2073E-03     25.6470E-03
            6056            6059     27.4183E-03     27.7622E-03
            6055            6059     27.4183E-03     27.7622E-03
            6073            6059     27.4183E-03     27.7622E-03
            6074            6059     27.4183E-03     27.7622E-03
            6074            6060     29.6261E-03     29.8756E-03
            6056            6060     29.6261E-03     29.8756E-03
            6075            6060     29.6261E-03     29.8756E-03
            6057            6060     29.6261E-03     29.8756E-03
            6075            6061     31.8788E-03     31.9837E-03
            6076            6061     31.8788E-03     31.9837E-03
            6057            6061     31.8788E-03     31.9837E-03
            6058            6061     31.8788E-03     31.9837E-03
            6058            6062     34.1502E-03     34.1482E-03
            6077            6062     34.1502E-03     34.1482E-03
            6059            6062     34.1502E-03     34.1482E-03
            6076            6062     34.1502E-03     34.1482E-03
            6060            6063     36.5964E-03     36.4667E-03
            6077            6063     36.5964E-03     36.4667E-03
            6059            6063     36.5964E-03     36.4667E-03
            6078            6063     36.5964E-03     36.4667E-03
            6079            6064     39.1645E-03     39.0844E-03
            6061            6064     39.1645E-03     39.0844E-03
            6078            6064     39.1645E-03     39.0844E-03
            6060            6064     39.1645E-03     39.0844E-03
            6061            6065     42.7945E-03     43.4994E-03
            6079            6065     42.7945E-03     43.4994E-03
            6080            6065     42.7945E-03     43.4994E-03
            6062            6065     42.7945E-03     43.4994E-03
            6081            6066     1.61181E-03     2.29258E-03
            6082            6066     1.61181E-03     2.29258E-03
            6064            6066     1.61181E-03     2.29258E-03
            6063            6066     1.61181E-03     2.29258E-03
            6082            6067     3.28400E-03     4.28117E-03
            6064            6067     3.28400E-03     4.28117E-03
            6083            6067     3.28400E-03     4.28117E-03
            6065            6067     3.28400E-03     4.28117E-03
            6083            6068     5.16774E-03     6.30591E-03
            6065            6068     5.16774E-03     6.30591E-03
            6084            6068     5.16774E-03     6.30591E-03
            6066            6068     5.16774E-03     6.30591E-03
            6084            6069     7.10321E-03     8.31621E-03
            6066            6069     7.10321E-03     8.31621E-03
            6067            6069     7.10321E-03     8.31621E-03
            6085            6069     7.10321E-03     8.31621E-03
            6086            6070     9.05813E-03     10.3168E-03
            6067            6070     9.05813E-03     10.3168E-03
            6068            6070     9.05813E-03     10.3168E-03
            6085            6070     9.05813E-03     10.3168E-03
            6086            6071     11.0265E-03     12.3088E-03
            6087            6071     11.0265E-03     12.3088E-03
            6068            6071     11.0265E-03     12.3088E-03
            6069            6071     11.0265E-03     12.3088E-03
            6088            6072     13.0073E-03     14.2940E-03
            6069            6072     13.0073E-03     14.2940E-03
            6070            6072     13.0073E-03     14.2940E-03
            6087            6072     13.0073E-03     14.2940E-03
            6089            6073     15.0076E-03     16.2840E-03
            6088            6073     15.0076E-03     16.2840E-03
            6071            6073     15.0076E-03     16.2840E-03
            6070            6073     15.0076E-03     16.2840E-03
            6071            6074     17.0329E-03     18.2846E-03
            6072            6074     17.0329E-03     18.2846E-03
            6089            6074     17.0329E-03     18.2846E-03
            6090            6074     17.0329E-03     18.2846E-03
            6091            6075     19.1098E-03     20.3252E-03
            6072            6075     19.1098E-03     20.3252E-03
            6073            6075     19.1098E-03     20.3252E-03
            6090            6075     19.1098E-03     20.3252E-03
            6092            6076     21.2545E-03     22.4247E-03
            6073            6076     21.2545E-03     22.4247E-03
            6074            6076     21.2545E-03     22.4247E-03
            6091            6076     21.2545E-03     22.4247E-03
            6093            6077     23.5385E-03     24.6565E-03
            6075            6077     23.5385E-03     24.6565E-03
            6092            6077     23.5385E-03     24.6565E-03
            6074            6077     23.5385E-03     24.6565E-03
            6076            6078     25.9998E-03     27.0742E-03
            6075            6078     25.9998E-03     27.0742E-03
            6093            6078     25.9998E-03     27.0742E-03
            6094            6078     25.9998E-03     27.0742E-03
            6095            6079     28.8393E-03     29.8789E-03
            6077            6079     28.8393E-03     29.8789E-03
            6076            6079     28.8393E-03     29.8789E-03
            6094            6079     28.8393E-03     29.8789E-03
            6077            6080     32.1510E-03     33.2195E-03
            6096            6080     32.1510E-03     33.2195E-03
            6078            6080     32.1510E-03     33.2195E-03
            6095            6080     32.1510E-03     33.2195E-03
            6096            6081     36.7149E-03     37.8674E-03
            6097            6081     36.7149E-03     37.8674E-03
            6078            6081     36.7149E-03     37.8674E-03
            6079            6081     36.7149E-03     37.8674E-03
            6079            6082     43.6865E-03     44.5686E-03
            6097            6082     43.6865E-03     44.5686E-03
            6080            6082     43.6865E-03     44.5686E-03
            6098            6082     43.6865E-03     44.5686E-03
            6081            6083     2.37388E-03     2.72514E-03
            6082            6083     2.37388E-03     2.72514E-03
            6100            6083     2.37388E-03     2.72514E-03
            6099            6083     2.37388E-03     2.72514E-03
            6083            6084     3.78222E-03     4.52250E-03
            6100            6084     3.78222E-03     4.52250E-03
            6101            6084     3.78222E-03     4.52250E-03
            6082            6084     3.78222E-03     4.52250E-03
            6102            6085     5.59167E-03     6.50567E-03
            6083            6085     5.59167E-03     6.50567E-03
            6084            6085     5.59167E-03     6.50567E-03
            6101            6085     5.59167E-03     6.50567E-03
            6085            6086     7.51427E-03     8.52520E-03
            6102            6086     7.51427E-03     8.52520E-03
            6103            6086     7.51427E-03     8.52520E-03
            6084            6086     7.51427E-03     8.52520E-03
            6104            6087     9.48451E-03     10.5515E-03
            6086            6087     9.48451E-03     10.5515E-03
            6103            6087     9.48451E-03     10.5515E-03
            6085            6087     9.48451E-03     10.5515E-03
            6105            6088     11.4797E-03     12.5789E-03
            6087            6088     11.4797E-03     12.5789E-03
            6086            6088     11.4797E-03     12.5789E-03
            6104            6088     11.4797E-03     12.5789E-03
            6105            6089     13.4959E-03     14.6116E-03
            6087            6089     13.4959E-03     14.6116E-03
            6088            6089     13.4959E-03     14.6116E-03
            6106            6089     13.4959E-03     14.6116E-03
            6088            6090     15.5314E-03     16.6523E-03
            6089            6090     15.5314E-03     16.6523E-03
            6107            6090     15.5314E-03     16.6523E-03
            6106            6090     15.5314E-03     16.6523E-03
            6089            6091     17.6011E-03     18.7175E-03
            6108            6091     17.6011E-03     18.7175E-03
            6090            6091     17.6011E-03     18.7175E-03
            6107            6091     17.6011E-03     18.7175E-03
            6091            6092     19.7140E-03     20.8230E-03
            6108            6092     19.7140E-03     20.8230E-03
            6109            6092     19.7140E-03     20.8230E-03
            6090            6092     19.7140E-03     20.8230E-03
            6092            6093     21.9159E-03     23.0069E-03
            6091            6093     21.9159E-03     23.0069E-03
            6110            6093     21.9159E-03     23.0069E-03
            6109            6093     21.9159E-03     23.0069E-03
            6110            6094     24.2386E-03     25.3186E-03
            6093            6094     24.2386E-03     25.3186E-03
            6111            6094     24.2386E-03     25.3186E-03
            6092            6094     24.2386E-03     25.3186E-03
            6111            6095     26.7993E-03     27.8471E-03
            6094            6095     26.7993E-03     27.8471E-03
            6093            6095     26.7993E-03     27.8471E-03
            6112            6095     26.7993E-03     27.8471E-03
            6094            6096     29.7067E-03     30.7374E-03
            6112            6096     29.7067E-03     30.7374E-03
            6113            6096     29.7067E-03     30.7374E-03
            6095            6096     29.7067E-03     30.7374E-03
            6113            6097     33.2258E-03     34.1834E-03
            6096            6097     33.2258E-03     34.1834E-03
            6095            6097     33.2258E-03     34.1834E-03
            6114            6097     33.2258E-03     34.1834E-03
            6096            6098     38.1077E-03     38.7186E-03
            6115            6098     38.1077E-03     38.7186E-03
            6097            6098     38.1077E-03     38.7186E-03
            6114            6098     38.1077E-03     38.7186E-03
            6115            6099     43.3624E-03     43.4881E-03
            6098            6099     43.3624E-03     43.4881E-03
            6116            6099     43.3624E-03     43.4881E-03
            6097            6099     43.3624E-03     43.4881E-03
            6099            6100     3.25566E-03     3.38604E-03
            6117            6100     3.25566E-03     3.38604E-03
            6118            6100     3.25566E-03     3.38604E-03
            6100            6100     3.25566E-03     3.38604E-03
            6119            6101     4.43821E-03     4.97551E-03
            6118            6101     4.43821E-03     4.97551E-03
            6100            6101     4.43821E-03     4.97551E-03
            6101            6101     4.43821E-03     4.97551E-03
            6102            6102     6.13153E-03     6.85725E-03
            6119            6102     6.13153E-03     6.85725E-03
            6120            6102     6.13153E-03     6.85725E-03
            6101            6102     6.13153E-03     6.85725E-03
            6102            6103     8.00752E-03     8.84365E-03
            6120            6103     8.00752E-03     8.84365E-03
            6121            6103     8.00752E-03     8.84365E-03
            6103            6103     8.00752E-03     8.84365E-03
            6103            6104     9.96693E-03     10.8666E-03
            6122            6104     9.96693E-03     10.8666E-03
            6121            6104     9.96693E-03     10.8666E-03
            6104            6104     9.96693E-03     10.8666E-03
            6123            6105     11.9732E-03     12.9118E-03
            6104            6105     11.9732E-03     12.9118E-03
            6105            6105     11.9732E-03     12.9118E-03
            6122            6105     11.9732E-03     12.9118E-03
            6106            6106     14.0095E-03     14.9724E-03
            6123            6106     14.0095E-03     14.9724E-03
            6105            6106     14.0095E-03     14.9724E-03
            6124            6106     14.0095E-03     14.9724E-03
            6106            6107     16.0768E-03     17.0550E-03
            6124            6107     16.0768E-03     17.0550E-03
            6107            6107     16.0768E-03     17.0550E-03
            6125            6107     16.0768E-03     17.0550E-03
            6108            6108     18.1758E-03     19.1677E-03
            6125            6108     18.1758E-03     19.1677E-03
            6107            6108     18.1758E-03     19.1677E-03
            6126            6108     18.1758E-03     19.1677E-03
            6108            6109     20.3288E-03     21.3277E-03
            6126            6109     20.3288E-03     21.3277E-03
            6109            6109     20.3288E-03     21.3277E-03
            6127            6109     20.3288E-03     21.3277E-03
            6109            6110     22.5568E-03     23.5667E-03
            6127            6110     22.5568E-03     23.5667E-03
            6110            6110     22.5568E-03     23.5667E-03
            6128            6110     22.5568E-03     23.5667E-03
            6110            6111     24.9163E-03     25.9213E-03
            6128            6111     24.9163E-03     25.9213E-03
            6111            6111     24.9163E-03     25.9213E-03
            6129            6111     24.9163E-03     25.9213E-03
            6111            6112     27.4875E-03     28.4799E-03
            6112            6112     27.4875E-03     28.4799E-03
            6129            6112     27.4875E-03     28.4799E-03
            6130            6112     27.4875E-03     28.4799E-03
            6130            6113     30.3613E-03     31.3091E-03
            6131            6113     30.3613E-03     31.3091E-03
            6112            6113     30.3613E-03     31.3091E-03
            6113            6113     30.3613E-03     31.3091E-03
            6113            6114     33.8743E-03     34.6349E-03
            6132            6114     33.8743E-03     34.6349E-03
            6131            6114     33.8743E-03     34.6349E-03
            6114            6114     33.8743E-03     34.6349E-03
            6114            6115     37.7634E-03     38.3700E-03
            6133            6115     37.7634E-03     38.3700E-03
            6115            6115     37.7634E-03     38.3700E-03
            6132            6115     37.7634E-03     38.3700E-03
            6134            6116     41.4161E-03     42.1407E-03
            6133            6116     41.4161E-03     42.1407E-03
            6115            6116     41.4161E-03     42.1407E-03
            6116            6116     41.4161E-03     42.1407E-03
            6118            6117     4.11791E-03     4.12285E-03
            6117            6117     4.11791E-03     4.12285E-03
            6136            6117     4.11791E-03     4.12285E-03
            6135            6117     4.11791E-03     4.12285E-03
            6136            6118     5.15476E-03     5.52750E-03
            6118            6118     5.15476E-03     5.52750E-03
            6119            6118     5.15476E-03     5.52750E-03
            6137            6118     5.15476E-03     5.52750E-03
            6120            6119     6.71609E-03     7.30187E-03
            6119            6119     6.71609E-03     7.30187E-03
            6138            6119     6.71609E-03     7.30187E-03
            6137            6119     6.71609E-03     7.30187E-03
            6139            6120     8.52933E-03     9.22217E-03
            6138            6120     8.52933E-03     9.22217E-03
            6120            6120     8.52933E-03     9.22217E-03
            6121            6120     8.52933E-03     9.22217E-03
            6140            6121     10.4617E-03     11.2202E-03
            6121            6121     10.4617E-03     11.2202E-03
            6122            6121     10.4617E-03     11.2202E-03
            6139            6121     10.4617E-03     11.2202E-03
            6122            6122     12.4620E-03     13.2573E-03
            6141            6122     12.4620E-03     13.2573E-03
            6140            6122     12.4620E-03     13.2573E-03
            6123            6122     12.4620E-03     13.2573E-03
            6141            6123     14.5087E-03     15.3288E-03
            6123            6123     14.5087E-03     15.3288E-03
            6142            6123     14.5087E-03     15.3288E-03
            6124            6123     14.5087E-03     15.3288E-03
            6125            6124     16.5900E-03     17.4320E-03
            6142            6124     16.5900E-03     17.4320E-03
            6124            6124     16.5900E-03     17.4320E-03
            6143            6124     16.5900E-03     17.4320E-03
            6144            6125     18.7097E-03     19.5714E-03
            6126            6125     18.7097E-03     19.5714E-03
            6143            6125     18.7097E-03     19.5714E-03
            6125            6125     18.7097E-03     19.5714E-03
            6145            6126     20.8755E-03     21.7611E-03
            6127            6126     20.8755E-03     21.7611E-03
            6126            6126     20.8755E-03     21.7611E-03
            6144            6126     20.8755E-03     21.7611E-03
            6127            6127     23.1058E-03     24.0117E-03
            6145            6127     23.1058E-03     24.0117E-03
            6128            6127     23.1058E-03     24.0117E-03
            6146            6127     23.1058E-03     24.0117E-03
            6128            6128     25.4453E-03     26.3627E-03
            6146            6128     25.4453E-03     26.3627E-03
            6129            6128     25.4453E-03     26.3627E-03
            6147            6128     25.4453E-03     26.3627E-03
            6148            6129     27.9166E-03     28.8332E-03
            6130            6129     27.9166E-03     28.8332E-03
            6129            6129     27.9166E-03     28.8332E-03
            6147            6129     27.9166E-03     28.8332E-03
            6148            6130     30.6652E-03     31.5026E-03
            6130            6130     30.6652E-03     31.5026E-03
            6131            6130     30.6652E-03     31.5026E-03
            6149            6130     30.6652E-03     31.5026E-03
            6149            6131     33.6104E-03     34.3747E-03
            6150            6131     33.6104E-03     34.3747E-03
            6131            6131     33.6104E-03     34.3747E-03
            6132            6131     33.6104E-03     34.3747E-03
            6133            6132     36.6202E-03     37.3266E-03
            6132            6132     36.6202E-03     37.3266E-03
            6150            6132     36.6202E-03     37.3266E-03
            6151            6132     36.6202E-03     37.3266E-03
            6151            6133     39.6948E-03     40.1376E-03
            6152            6133     39.6948E-03     40.1376E-03
            6134            6133     39.6948E-03     40.1376E-03
            6133            6133     39.6948E-03     40.1376E-03
            6136            6134     4.94961E-03     4.88774E-03
            6153            6134     4.94961E-03     4.88774E-03
            6135            6134     4.94961E-03     4.88774E-03
            6154            6134     4.94961E-03     4.88774E-03
            6136            6135     5.86230E-03     6.13902E-03
            6154            6135     5.86230E-03     6.13902E-03
            6137            6135     5.86230E-03     6.13902E-03
            6155            6135     5.86230E-03     6.13902E-03
            6138            6136     7.31276E-03     7.78473E-03
            6156            6136     7.31276E-03     7.78473E-03
            6155            6136     7.31276E-03     7.78473E-03
            6137            6136     7.31276E-03     7.78473E-03
            6139            6137     9.04567E-03     9.63060E-03
            6157            6137     9.04567E-03     9.63060E-03
            6138            6137     9.04567E-03     9.63060E-03
            6156            6137     9.04567E-03     9.63060E-03
            6140            6138     10.9356E-03     11.5701E-03
            6158            6138     10.9356E-03     11.5701E-03
            6157            6138     10.9356E-03     11.5701E-03
            6139            6138     10.9356E-03     11.5701E-03
            6140            6139     12.9161E-03     13.5784E-03
            6158            6139     12.9161E-03     13.5784E-03
            6159            6139     12.9161E-03     13.5784E-03
            6141            6139     12.9161E-03     13.5784E-03
            6159            6140     14.9532E-03     15.6341E-03
            6160            6140     14.9532E-03     15.6341E-03
            6141            6140     14.9532E-03     15.6341E-03
            6142            6140     14.9532E-03     15.6341E-03
            6160            6141     17.0330E-03     17.7321E-03
            6142            6141     17.0330E-03     17.7321E-03
            6161            6141     17.0330E-03     17.7321E-03
            6143            6141     17.0330E-03     17.7321E-03
            6143            6142     19.1494E-03     19.8734E-03
            6144            6142     19.1494E-03     19.8734E-03
            6162            6142     19.1494E-03     19.8734E-03
            6161            6142     19.1494E-03     19.8734E-03
            6145            6143     21.2997E-03     22.0540E-03
            6144            6143     21.2997E-03     22.0540E-03
            6162            6143     21.2997E-03     22.0540E-03
            6163            6143     21.2997E-03     22.0540E-03
            6145            6144     23.5001E-03     24.2847E-03
            6146            6144     23.5001E-03     24.2847E-03
            6163            6144     23.5001E-03     24.2847E-03
            6164            6144     23.5001E-03     24.2847E-03
            6165            6145     25.7411E-03     26.5596E-03
            6164            6145     25.7411E-03     26.5596E-03
            6147            6145     25.7411E-03     26.5596E-03
            6146            6145     25.7411E-03     26.5596E-03
            6147            6146     28.0780E-03     28.8917E-03
            6165            6146     28.0780E-03     28.8917E-03
            6148            6146     28.0780E-03     28.8917E-03
            6166            6146     28.0780E-03     28.8917E-03
            6148            6147     30.4665E-03     31.2696E-03
            6167            6147     30.4665E-03     31.2696E-03
            6149            6147     30.4665E-03     31.2696E-03
            6166            6147     30.4665E-03     31.2696E-03
            6149            6148     32.8979E-03     33.6416E-03
            6167            6148     32.8979E-03     33.6416E-03
            6150            6148     32.8979E-03     33.6416E-03
            6168            6148     32.8979E-03     33.6416E-03
            6151            6149     35.3734E-03     35.9536E-03
            6150            6149     35.3734E-03     35.9536E-03
            6168            6149     35.3734E-03     35.9536E-03
            6169            6149     35.3734E-03     35.9536E-03
            6169            6150     37.7850E-03     38.2866E-03
            6170            6150     37.7850E-03     38.2866E-03
            6151            6150     37.7850E-03     38.2866E-03
            6152            6150     37.7850E-03     38.2866E-03
            6171            6151     5.73977E-03     5.66431E-03
            6153            6151     5.73977E-03     5.66431E-03
            6154            6151     5.73977E-03     5.66431E-03
            6172            6151     5.73977E-03     5.66431E-03
            6154            6152     6.56436E-03     6.77503E-03
            6172            6152     6.56436E-03     6.77503E-03
            6155            6152     6.56436E-03     6.77503E-03
            6173            6152     6.56436E-03     6.77503E-03
            6174            6153     7.89392E-03     8.30357E-03
            6155            6153     7.89392E-03     8.30357E-03
            6156            6153     7.89392E-03     8.30357E-03
            6173            6153     7.89392E-03     8.30357E-03
            6175            6154     9.54212E-03     10.0332E-03
            6174            6154     9.54212E-03     10.0332E-03
            6157            6154     9.54212E-03     10.0332E-03
            6156            6154     9.54212E-03     10.0332E-03
            6158            6155     11.3734E-03     11.8976E-03
            6175            6155     11.3734E-03     11.8976E-03
            6157            6155     11.3734E-03     11.8976E-03
            6176            6155     11.3734E-03     11.8976E-03
            6159            6156     13.3125E-03     13.8430E-03
            6158            6156     13.3125E-03     13.8430E-03
            6177            6156     13.3125E-03     13.8430E-03
            6176            6156     13.3125E-03     13.8430E-03
            6159            6157     15.3205E-03     15.8540E-03
            6160            6157     15.3205E-03     15.8540E-03
            6177            6157     15.3205E-03     15.8540E-03
            6178            6157     15.3205E-03     15.8540E-03
            6178            6158     17.3739E-03     17.9198E-03
            6161            6158     17.3739E-03     17.9198E-03
            6179            6158     17.3739E-03     17.9198E-03
            6160            6158     17.3739E-03     17.9198E-03
            6161            6159     19.4574E-03     20.0266E-03
            6179            6159     19.4574E-03     20.0266E-03
            6180            6159     19.4574E-03     20.0266E-03
            6162            6159     19.4574E-03     20.0266E-03
            6162            6160     21.5693E-03     22.1699E-03
            6180            6160     21.5693E-03     22.1699E-03
            6181            6160     21.5693E-03     22.1699E-03
            6163            6160     21.5693E-03     22.1699E-03
            6163            6161     23.6869E-03     24.3335E-03
            6182            6161     23.6869E-03     24.3335E-03
            6181            6161     23.6869E-03     24.3335E-03
            6164            6161     23.6869E-03     24.3335E-03
            6164            6162     25.8194E-03     26.5026E-03
            6182            6162     25.8194E-03     26.5026E-03
            6183            6162     25.8194E-03     26.5026E-03
            6165            6162     25.8194E-03     26.5026E-03
            6166            6163     27.9182E-03     28.6470E-03
            6183            6163     27.9182E-03     28.6470E-03
            6184            6163     27.9182E-03     28.6470E-03
            6165            6163     27.9182E-03     28.6470E-03
            6185            6164     29.9779E-03     30.7126E-03
            6166            6164     29.9779E-03     30.7126E-03
            6184            6164     29.9779E-03     30.7126E-03
            6167            6164     29.9779E-03     30.7126E-03
            6185            6165     31.9819E-03     32.6570E-03
            6186            6165     31.9819E-03     32.6570E-03
            6167            6165     31.9819E-03     32.6570E-03
            6168            6165     31.9819E-03     32.6570E-03
            6169            6166     33.9134E-03     34.5055E-03
            6187            6166     33.9134E-03     34.5055E-03
            6168            6166     33.9134E-03     34.5055E-03
            6186            6166     33.9134E-03     34.5055E-03
            6169            6167     35.9448E-03     36.3271E-03
            6188            6167     35.9448E-03     36.3271E-03
            6187            6167     35.9448E-03     36.3271E-03
            6170            6167     35.9448E-03     36.3271E-03
            6189            6168     6.53013E-03     6.44814E-03
            6172            6168     6.53013E-03     6.44814E-03
            6171            6168     6.53013E-03     6.44814E-03
            6190            6168     6.53013E-03     6.44814E-03
            6173            6169     7.24684E-03     7.46564E-03
            6190            6169     7.24684E-03     7.46564E-03
            6191            6169     7.24684E-03     7.46564E-03
            6172            6169     7.24684E-03     7.46564E-03
            6174            6170     8.46646E-03     8.83018E-03
            6173            6170     8.46646E-03     8.83018E-03
            6191            6170     8.46646E-03     8.83018E-03
            6192            6170     8.46646E-03     8.83018E-03
            6193            6171     10.0175E-03     10.4400E-03
            6174            6171     10.0175E-03     10.4400E-03
            6192            6171     10.0175E-03     10.4400E-03
            6175            6171     10.0175E-03     10.4400E-03
            6194            6172     11.7704E-03     12.1840E-03
            6176            6172     11.7704E-03     12.1840E-03
            6193            6172     11.7704E-03     12.1840E-03
            6175            6172     11.7704E-03     12.1840E-03
            6194            6173     13.6489E-03     14.0351E-03
            6177            6173     13.6489E-03     14.0351E-03
            6195            6173     13.6489E-03     14.0351E-03
            6176            6173     13.6489E-03     14.0351E-03
            6178            6174     15.5993E-03     15.9731E-03
            6195            6174     15.5993E-03     15.9731E-03
            6196            6174     15.5993E-03     15.9731E-03
            6177            6174     15.5993E-03     15.9731E-03
            6196            6175     17.5938E-03     17.9703E-03
            6179            6175     17.5938E-03     17.9703E-03
            6178            6175     17.5938E-03     17.9703E-03
            6197            6175     17.5938E-03     17.9703E-03
            6179            6176     19.6197E-03     20.0125E-03
            6180            6176     19.6197E-03     20.0125E-03
            6198            6176     19.6197E-03     20.0125E-03
            6197            6176     19.6197E-03     20.0125E-03
            6180            6177     21.6506E-03     22.0780E-03
            6181            6177     21.6506E-03     22.0780E-03
            6198            6177     21.6506E-03     22.0780E-03
            6199            6177     21.6506E-03     22.0780E-03
            6181            6178     23.6771E-03     24.1456E-03
            6200            6178     23.6771E-03     24.1456E-03
            6199            6178     23.6771E-03     24.1456E-03
            6182            6178     23.6771E-03     24.1456E-03
            6183            6179     25.6503E-03     26.1819E-03
            6200            6179     25.6503E-03     26.1819E-03
            6201            6179     25.6503E-03     26.1819E-03
            6182            6179     25.6503E-03     26.1819E-03
            6202            6180     27.5391E-03     28.1293E-03
            6183            6180     27.5391E-03     28.1293E-03
            6201            6180     27.5391E-03     28.1293E-03
            6184            6180     27.5391E-03     28.1293E-03
            6185            6181     29.2861E-03     29.9253E-03
            6203            6181     29.2861E-03     29.9253E-03
            6202            6181     29.2861E-03     29.9253E-03
            6184            6181     29.2861E-03     29.9253E-03
            6203            6182     30.8741E-03     31.5187E-03
            6204            6182     30.8741E-03     31.5187E-03
            6186            6182     30.8741E-03     31.5187E-03
            6185            6182     30.8741E-03     31.5187E-03
            6186            6183     32.3955E-03     32.9157E-03
            6205            6183     32.3955E-03     32.9157E-03
            6204            6183     32.3955E-03     32.9157E-03
            6187            6183     32.3955E-03     32.9157E-03
            6187            6184     33.9528E-03     34.3189E-03
            6206            6184     33.9528E-03     34.3189E-03
            6205            6184     33.9528E-03     34.3189E-03
            6188            6184     33.9528E-03     34.3189E-03
            6190            6185     7.29611E-03     7.31943E-03
            6208            6185     7.29611E-03     7.31943E-03
            6189            6185     7.29611E-03     7.31943E-03
            6207            6185     7.29611E-03     7.31943E-03
            6209            6186     7.93664E-03     8.17302E-03
            6191            6186     7.93664E-03     8.17302E-03
            6190            6186     7.93664E-03     8.17302E-03
            6208            6186     7.93664E-03     8.17302E-03
            6192            6187     9.04231E-03     9.41617E-03
            6191            6187     9.04231E-03     9.41617E-03
            6209            6187     9.04231E-03     9.41617E-03
            6210            6187     9.04231E-03     9.41617E-03
            6193            6188     10.4814E-03     10.8427E-03
            6192            6188     10.4814E-03     10.8427E-03
            6210            6188     10.4814E-03     10.8427E-03
            6211            6188     10.4814E-03     10.8427E-03
            6212            6189     12.1495E-03     12.4283E-03
            6211            6189     12.1495E-03     12.4283E-03
            6193            6189     12.1495E-03     12.4283E-03
            6194            6189     12.1495E-03     12.4283E-03
            6194            6190     13.9357E-03     14.1618E-03
            6195            6190     13.9357E-03     14.1618E-03
            6212            6190     13.9357E-03     14.1618E-03
            6213            6190     13.9357E-03     14.1618E-03
            6196            6191     15.7921E-03     15.9908E-03
            6213            6191     15.7921E-03     15.9908E-03
            6214            6191     15.7921E-03     15.9908E-03
            6195            6191     15.7921E-03     15.9908E-03
            6197            6192     17.6976E-03     17.8878E-03
            6214            6192     17.6976E-03     17.8878E-03
            6196            6192     17.6976E-03     17.8878E-03
            6215            6192     17.6976E-03     17.8878E-03
            6215            6193     19.6230E-03     19.8244E-03
            6216            6193     19.6230E-03     19.8244E-03
            6197            6193     19.6230E-03     19.8244E-03
            6198            6193     19.6230E-03     19.8244E-03
            6217            6194     21.5540E-03     21.7767E-03
            6199            6194     21.5540E-03     21.7767E-03
            6198            6194     21.5540E-03     21.7767E-03
            6216            6194     21.5540E-03     21.7767E-03
            6200            6195     23.4494E-03     23.7149E-03
            6217            6195     23.4494E-03     23.7149E-03
            6218            6195     23.4494E-03     23.7149E-03
            6199            6195     23.4494E-03     23.7149E-03
            6201            6196     25.2742E-03     25.5945E-03
            6218            6196     25.2742E-03     25.5945E-03
            6200            6196     25.2742E-03     25.5945E-03
            6219            6196     25.2742E-03     25.5945E-03
            6202            6197     26.9612E-03     27.3606E-03
            6220            6197     26.9612E-03     27.3606E-03
            6201            6197     26.9612E-03     27.3606E-03
            6219            6197     26.9612E-03     27.3606E-03
            6221            6198     28.4350E-03     28.9245E-03
            6220            6198     28.4350E-03     28.9245E-03
            6203            6198     28.4350E-03     28.9245E-03
            6202            6198     28.4350E-03     28.9245E-03
            6222            6199     29.6618E-03     30.2077E-03
            6221            6199     29.6618E-03     30.2077E-03
            6203            6199     29.6618E-03     30.2077E-03
            6204            6199     29.6618E-03     30.2077E-03
            6222            6200     30.7234E-03     31.2364E-03
            6204            6200     30.7234E-03     31.2364E-03
            6205            6200     30.7234E-03     31.2364E-03
            6223            6200     30.7234E-03     31.2364E-03
            6224            6201     31.8972E-03     32.1794E-03
            6206            6201     31.8972E-03     32.1794E-03
            6223            6201     31.8972E-03     32.1794E-03
            6205            6201     31.8972E-03     32.1794E-03
            6207            6202     8.10906E-03     8.17506E-03
            6208            6202     8.10906E-03     8.17506E-03
            6226            6202     8.10906E-03     8.17506E-03
            6225            6202     8.10906E-03     8.17506E-03
            6226            6203     8.64884E-03     9.04173E-03
            6208            6203     8.64884E-03     9.04173E-03
            6227            6203     8.64884E-03     9.04173E-03
            6209            6203     8.64884E-03     9.04173E-03
            6209            6204     9.62224E-03     10.0513E-03
            6227            6204     9.62224E-03     10.0513E-03
            6228            6204     9.62224E-03     10.0513E-03
            6210            6204     9.62224E-03     10.0513E-03
            6228            6205     10.9913E-03     11.2325E-03
            6210            6205     10.9913E-03     11.2325E-03
            6211            6205     10.9913E-03     11.2325E-03
            6229            6205     10.9913E-03     11.2325E-03
            6211            6206     12.5432E-03     12.6600E-03
            6212            6206     12.5432E-03     12.6600E-03
            6230            6206     12.5432E-03     12.6600E-03
            6229            6206     12.5432E-03     12.6600E-03
            6212            6207     14.1961E-03     14.2466E-03
            6231            6207     14.1961E-03     14.2466E-03
            6213            6207     14.1961E-03     14.2466E-03
            6230            6207     14.1961E-03     14.2466E-03
            6213            6208     15.9255E-03     15.9386E-03
            6231            6208     15.9255E-03     15.9386E-03
            6214            6208     15.9255E-03     15.9386E-03
            6232            6208     15.9255E-03     15.9386E-03
            6215            6209     17.6960E-03     17.6959E-03
            6232            6209     17.6960E-03     17.6959E-03
            6233            6209     17.6960E-03     17.6959E-03
            6214            6209     17.6960E-03     17.6959E-03
            6234            6210     19.4915E-03     19.4867E-03
            6233            6210     19.4915E-03     19.4867E-03
            6215            6210     19.4915E-03     19.4867E-03
            6216            6210     19.4915E-03     19.4867E-03
            6216            6211     21.2783E-03     21.2831E-03
            6235            6211     21.2783E-03     21.2831E-03
            6217            6211     21.2783E-03     21.2831E-03
            6234            6211     21.2783E-03     21.2831E-03
            6218            6212     23.0274E-03     23.0508E-03
            6217            6212     23.0274E-03     23.0508E-03
            6235            6212     23.0274E-03     23.0508E-03
            6236            6212     23.0274E-03     23.0508E-03
            6219            6213     24.6878E-03     24.7493E-03
            6236            6213     24.6878E-03     24.7493E-03
            6218            6213     24.6878E-03     24.7493E-03
            6237            6213     24.6878E-03     24.7493E-03
            6219            6214     26.1912E-03     26.3172E-03
            6237            6214     26.1912E-03     26.3172E-03
            6220            6214     26.1912E-03     26.3172E-03
            6238            6214     26.1912E-03     26.3172E-03
            6238            6215     27.4573E-03     27.6781E-03
            6220            6215     27.4573E-03     27.6781E-03
            6221            6215     27.4573E-03     27.6781E-03
            6239            6215     27.4573E-03     27.6781E-03
            6221            6216     28.3636E-03     28.7120E-03
            6239            6216     28.3636E-03     28.7120E-03
            6240            6216     28.3636E-03     28.7120E-03
            6222            6216     28.3636E-03     28.7120E-03
            6241            6217     28.9522E-03     29.3626E-03
            6222            6217     28.9522E-03     29.3626E-03
            6240            6217     28.9522E-03     29.3626E-03
            6223            6217     28.9522E-03     29.3626E-03
            6242            6218     29.6631E-03     29.9310E-03
            6223            6218     29.6631E-03     29.9310E-03
            6224            6218     29.6631E-03     29.9310E-03
            6241            6218     29.6631E-03     29.9310E-03
            6244            6219     8.92705E-03     9.45077E-03
            6226            6219     8.92705E-03     9.45077E-03
            6243            6219     8.92705E-03     9.45077E-03
            6225            6219     8.92705E-03     9.45077E-03
            6227            6220     9.31256E-03     10.0140E-03
            6226            6220     9.31256E-03     10.0140E-03
            6244            6220     9.31256E-03     10.0140E-03
            6245            6220     9.31256E-03     10.0140E-03
            6245            6221     10.3355E-03     10.6476E-03
            6228            6221     10.3355E-03     10.6476E-03
            6227            6221     10.3355E-03     10.6476E-03
            6246            6221     10.3355E-03     10.6476E-03
            6229            6222     11.6046E-03     11.6533E-03
            6247            6222     11.6046E-03     11.6533E-03
            6228            6222     11.6046E-03     11.6533E-03
            6246            6222     11.6046E-03     11.6533E-03
            6248            6223     12.9881E-03     12.9232E-03
            6229            6223     12.9881E-03     12.9232E-03
            6247            6223     12.9881E-03     12.9232E-03
            6230            6223     12.9881E-03     12.9232E-03
            6249            6224     14.4779E-03     14.3478E-03
            6230            6224     14.4779E-03     14.3478E-03
            6231            6224     14.4779E-03     14.3478E-03
            6248            6224     14.4779E-03     14.3478E-03
            6231            6225     16.0345E-03     15.8735E-03
            6232            6225     16.0345E-03     15.8735E-03
            6250            6225     16.0345E-03     15.8735E-03
            6249            6225     16.0345E-03     15.8735E-03
            6250            6226     17.6376E-03     17.4528E-03
            6251            6226     17.6376E-03     17.4528E-03
            6232            6226     17.6376E-03     17.4528E-03
            6233            6226     17.6376E-03     17.4528E-03
            6251            6227     19.2569E-03     19.0552E-03
            6252            6227     19.2569E-03     19.0552E-03
            6233            6227     19.2569E-03     19.0552E-03
            6234            6227     19.2569E-03     19.0552E-03
            6234            6228     20.8667E-03     20.6471E-03
            6235            6228     20.8667E-03     20.6471E-03
            6253            6228     20.8667E-03     20.6471E-03
            6252            6228     20.8667E-03     20.6471E-03
            6253            6229     22.4310E-03     22.1975E-03
            6236            6229     22.4310E-03     22.1975E-03
            6235            6229     22.4310E-03     22.1975E-03
            6254            6229     22.4310E-03     22.1975E-03
            6237            6230     23.9036E-03     23.6642E-03
            6254            6230     23.9036E-03     23.6642E-03
            6255            6230     23.9036E-03     23.6642E-03
            6236            6230     23.9036E-03     23.6642E-03
            6255            6231     25.2279E-03     24.9955E-03
            6237            6231     25.2279E-03     24.9955E-03
            6238            6231     25.2279E-03     24.9955E-03
            6256            6231     25.2279E-03     24.9955E-03
            6238            6232     26.3058E-03     26.1210E-03
            6256            6232     26.3058E-03     26.1210E-03
            6239            6232     26.3058E-03     26.1210E-03
            6257            6232     26.3058E-03     26.1210E-03
            6257            6233     27.0284E-03     26.9376E-03
            6258            6233     27.0284E-03     26.9376E-03
            6240            6233     27.0284E-03     26.9376E-03
            6239            6233     27.0284E-03     26.9376E-03
            6258            6234     27.1900E-03     27.2564E-03
            6241            6234     27.1900E-03     27.2564E-03
            6259            6234     27.1900E-03     27.2564E-03
            6240            6234     27.1900E-03     27.2564E-03
            6242            6235     27.2193E-03     27.2669E-03
            6260            6235     27.2193E-03     27.2669E-03
            6241            6235     27.2193E-03     27.2669E-03
            6259            6235     27.2193E-03     27.2669E-03
            6261            6236     9.55101E-03     10.7233E-03
            6262            6236     9.55101E-03     10.7233E-03
            6244            6236     9.55101E-03     10.7233E-03
            6243            6236     9.55101E-03     10.7233E-03
            6244            6237     10.2992E-03     10.7291E-03
            6245            6237     10.2992E-03     10.7291E-03
            6262            6237     10.2992E-03     10.7291E-03
            6263            6237     10.2992E-03     10.7291E-03
            6245            6238     11.2763E-03     11.2470E-03
            6246            6238     11.2763E-03     11.2470E-03
            6263            6238     11.2763E-03     11.2470E-03
            6264            6238     11.2763E-03     11.2470E-03
            6247            6239     12.3481E-03     12.1680E-03
            6246            6239     12.3481E-03     12.1680E-03
            6264            6239     12.3481E-03     12.1680E-03
            6265            6239     12.3481E-03     12.1680E-03
            6265            6240     13.5352E-03     13.2904E-03
            6266            6240     13.5352E-03     13.2904E-03
            6247            6240     13.5352E-03     13.2904E-03
            6248            6240     13.5352E-03     13.2904E-03
            6266            6241     14.8276E-03     14.5467E-03
            6249            6241     14.8276E-03     14.5467E-03
            6267            6241     14.8276E-03     14.5467E-03
            6248            6241     14.8276E-03     14.5467E-03
            6250            6242     16.1868E-03     15.8800E-03
            6267            6242     16.1868E-03     15.8800E-03
            6249            6242     16.1868E-03     15.8800E-03
            6268            6242     16.1868E-03     15.8800E-03
            6251            6243     17.5880E-03     17.2514E-03
            6268            6243     17.5880E-03     17.2514E-03
            6250            6243     17.5880E-03     17.2514E-03
            6269            6243     17.5880E-03     17.2514E-03
            6252            6244     18.9982E-03     18.6248E-03
            6251            6244     18.9982E-03     18.6248E-03
            6270            6244     18.9982E-03     18.6248E-03
            6269            6244     18.9982E-03     18.6248E-03
            6271            6245     20.3896E-03     19.9699E-03
            6253            6245     20.3896E-03     19.9699E-03
            6270            6245     20.3896E-03     19.9699E-03
            6252            6245     20.3896E-03     19.9699E-03
            6272            6246     21.7264E-03     21.2489E-03
            6254            6246     21.7264E-03     21.2489E-03
            6271            6246     21.7264E-03     21.2489E-03
            6253            6246     21.7264E-03     21.2489E-03
            6273            6247     22.9737E-03     22.4257E-03
            6255            6247     22.9737E-03     22.4257E-03
            6254            6247     22.9737E-03     22.4257E-03
            6272            6247     22.9737E-03     22.4257E-03
            6256            6248     24.0764E-03     23.4506E-03
            6274            6248     24.0764E-03     23.4506E-03
            6273            6248     24.0764E-03     23.4506E-03
            6255            6248     24.0764E-03     23.4506E-03
            6256            6249     24.9726E-03     24.2605E-03
            6275            6249     24.9726E-03     24.2605E-03
            6257            6249     24.9726E-03     24.2605E-03
            6274            6249     24.9726E-03     24.2605E-03
            6276            6250     25.5537E-03     24.7750E-03
            6275            6250     25.5537E-03     24.7750E-03
            6258            6250     25.5537E-03     24.7750E-03
            6257            6250     25.5537E-03     24.7750E-03
            6277            6251     25.6008E-03     24.8144E-03
            6258            6251     25.6008E-03     24.8144E-03
            6259            6251     25.6008E-03     24.8144E-03
            6276            6251     25.6008E-03     24.8144E-03
            6259            6252     24.8851E-03     24.0748E-03
            6260            6252     24.8851E-03     24.0748E-03
            6278            6252     24.8851E-03     24.0748E-03
            6277            6252     24.8851E-03     24.0748E-03
            6279            6253     5.92933E-03     6.83918E-03
            6261            6253     5.92933E-03     6.83918E-03
            6262            6253     5.92933E-03     6.83918E-03
            6280            6253     5.92933E-03     6.83918E-03
            6281            6254     6.66666E-03     7.02861E-03
            6262            6254     6.66666E-03     7.02861E-03
            6280            6254     6.66666E-03     7.02861E-03
            6263            6254     6.66666E-03     7.02861E-03
            6264            6255     7.36920E-03     7.65345E-03
            6282            6255     7.36920E-03     7.65345E-03
            6263            6255     7.36920E-03     7.65345E-03
            6281            6255     7.36920E-03     7.65345E-03
            6264            6256     8.21870E-03     8.52299E-03
            6283            6256     8.21870E-03     8.52299E-03
            6265            6256     8.21870E-03     8.52299E-03
            6282            6256     8.21870E-03     8.52299E-03
            6283            6257     9.17116E-03     9.48141E-03
            6284            6257     9.17116E-03     9.48141E-03
            6265            6257     9.17116E-03     9.48141E-03
            6266            6257     9.17116E-03     9.48141E-03
            6285            6258     10.1991E-03     10.5206E-03
            6284            6258     10.1991E-03     10.5206E-03
            6266            6258     10.1991E-03     10.5206E-03
            6267            6258     10.1991E-03     10.5206E-03
            6286            6259     11.2766E-03     11.5924E-03
            6285            6259     11.2766E-03     11.5924E-03
            6267            6259     11.2766E-03     11.5924E-03
            6268            6259     11.2766E-03     11.5924E-03
            6286            6260     12.3842E-03     12.6868E-03
            6268            6260     12.3842E-03     12.6868E-03
            6269            6260     12.3842E-03     12.6868E-03
            6287            6260     12.3842E-03     12.6868E-03
            6269            6261     13.5085E-03     13.7829E-03
            6287            6261     13.5085E-03     13.7829E-03
            6270            6261     13.5085E-03     13.7829E-03
            6288            6261     13.5085E-03     13.7829E-03
            6270            6262     14.6343E-03     14.8723E-03
            6289            6262     14.6343E-03     14.8723E-03
            6271            6262     14.6343E-03     14.8723E-03
            6288            6262     14.6343E-03     14.8723E-03
            6272            6263     15.7646E-03     15.9468E-03
            6271            6263     15.7646E-03     15.9468E-03
            6290            6263     15.7646E-03     15.9468E-03
            6289            6263     15.7646E-03     15.9468E-03
            6272            6264     16.8842E-03     17.0072E-03
            6290            6264     16.8842E-03     17.0072E-03
            6273            6264     16.8842E-03     17.0072E-03
            6291            6264     16.8842E-03     17.0072E-03
            6273            6265     18.0253E-03     18.0615E-03
            6291            6265     18.0253E-03     18.0615E-03
            6292            6265     18.0253E-03     18.0615E-03
            6274            6265     18.0253E-03     18.0615E-03
            6274            6266     19.1698E-03     19.1400E-03
            6292            6266     19.1698E-03     19.1400E-03
            6275            6266     19.1698E-03     19.1400E-03
            6293            6266     19.1698E-03     19.1400E-03
            6276            6267     20.4207E-03     20.3105E-03
            6275            6267     20.4207E-03     20.3105E-03
            6293            6267     20.4207E-03     20.3105E-03
            6294            6267     20.4207E-03     20.3105E-03
            6295            6268     21.7415E-03     21.6671E-03
            6277            6268     21.7415E-03     21.6671E-03
            6276            6268     21.7415E-03     21.6671E-03
            6294            6268     21.7415E-03     21.6671E-03
            6277            6269     23.7387E-03     24.1251E-03
            6278            6269     23.7387E-03     24.1251E-03
            6296            6269     23.7387E-03     24.1251E-03
            6295            6269     23.7387E-03     24.1251E-03
            6298            6270     2.38364E-03     2.73098E-03
            6279            6270     2.38364E-03     2.73098E-03
            6297            6270     2.38364E-03     2.73098E-03
            6280            6270     2.38364E-03     2.73098E-03
            6280            6271     2.63761E-03     3.21837E-03
            6281            6271     2.63761E-03     3.21837E-03
            6298            6271     2.63761E-03     3.21837E-03
            6299            6271     2.63761E-03     3.21837E-03
            6281            6272     3.19589E-03     3.89604E-03
            6299            6272     3.19589E-03     3.89604E-03
            6300            6272     3.19589E-03     3.89604E-03
            6282            6272     3.19589E-03     3.89604E-03
            6300            6273     3.91243E-03     4.70397E-03
            6283            6273     3.91243E-03     4.70397E-03
            6282            6273     3.91243E-03     4.70397E-03
            6301            6273     3.91243E-03     4.70397E-03
            6301            6274     4.71706E-03     5.56864E-03
            6283            6274     4.71706E-03     5.56864E-03
            6284            6274     4.71706E-03     5.56864E-03
            6302            6274     4.71706E-03     5.56864E-03
            6284            6275     5.57632E-03     6.46451E-03
            6285            6275     5.57632E-03     6.46451E-03
            6303            6275     5.57632E-03     6.46451E-03
            6302            6275     5.57632E-03     6.46451E-03
            6303            6276     6.46777E-03     7.37755E-03
            6304            6276     6.46777E-03     7.37755E-03
            6286            6276     6.46777E-03     7.37755E-03
            6285            6276     6.46777E-03     7.37755E-03
            6305            6277     7.38728E-03     8.30632E-03
            6304            6277     7.38728E-03     8.30632E-03
            6287            6277     7.38728E-03     8.30632E-03
            6286            6277     7.38728E-03     8.30632E-03
            6287            6278     8.33156E-03     9.24976E-03
            6288            6278     8.33156E-03     9.24976E-03
            6305            6278     8.33156E-03     9.24976E-03
            6306            6278     8.33156E-03     9.24976E-03
            6307            6279     9.31487E-03     10.2255E-03
            6289            6279     9.31487E-03     10.2255E-03
            6288            6279     9.31487E-03     10.2255E-03
            6306            6279     9.31487E-03     10.2255E-03
            6290            6280     10.3489E-03     11.2451E-03
            6289            6280     10.3489E-03     11.2451E-03
            6308            6280     10.3489E-03     11.2451E-03
            6307            6280     10.3489E-03     11.2451E-03
            6290            6281     11.4849E-03     12.3630E-03
            6291            6281     11.4849E-03     12.3630E-03
            6308            6281     11.4849E-03     12.3630E-03
            6309            6281     11.4849E-03     12.3630E-03
            6309            6282     12.7591E-03     13.6225E-03
            6310            6282     12.7591E-03     13.6225E-03
            6291            6282     12.7591E-03     13.6225E-03
            6292            6282     12.7591E-03     13.6225E-03
            6311            6283     14.3251E-03     15.1791E-03
            6292            6283     14.3251E-03     15.1791E-03
            6293            6283     14.3251E-03     15.1791E-03
            6310            6283     14.3251E-03     15.1791E-03
            6294            6284     16.2759E-03     17.1607E-03
            6293            6284     16.2759E-03     17.1607E-03
            6312            6284     16.2759E-03     17.1607E-03
            6311            6284     16.2759E-03     17.1607E-03
            6313            6285     19.2064E-03     20.1529E-03
            6294            6285     19.2064E-03     20.1529E-03
            6295            6285     19.2064E-03     20.1529E-03
            6312            6285     19.2064E-03     20.1529E-03
            6314            6286     24.0980E-03     24.8729E-03
            6295            6286     24.0980E-03     24.8729E-03
            6313            6286     24.0980E-03     24.8729E-03
            6296            6286     24.0980E-03     24.8729E-03
            6297            6287     3.04310E-03     3.00979E-03
            6316            6287     3.04310E-03     3.00979E-03
            6315            6287     3.04310E-03     3.00979E-03
            6298            6287     3.04310E-03     3.00979E-03
            6298            6288     3.22096E-03     3.51659E-03
            6316            6288     3.22096E-03     3.51659E-03
            6299            6288     3.22096E-03     3.51659E-03
            6317            6288     3.22096E-03     3.51659E-03
            6317            6289     3.70444E-03     4.18407E-03
            6299            6289     3.70444E-03     4.18407E-03
            6318            6289     3.70444E-03     4.18407E-03
            6300            6289     3.70444E-03     4.18407E-03
            6318            6290     4.37405E-03     4.95758E-03
            6319            6290     4.37405E-03     4.95758E-03
            6301            6290     4.37405E-03     4.95758E-03
            6300            6290     4.37405E-03     4.95758E-03
            6301            6291     5.14694E-03     5.80465E-03
            6319            6291     5.14694E-03     5.80465E-03
            6320            6291     5.14694E-03     5.80465E-03
            6302            6291     5.14694E-03     5.80465E-03
            6303            6292     5.98544E-03     6.68956E-03
            6302            6292     5.98544E-03     6.68956E-03
            6320            6292     5.98544E-03     6.68956E-03
            6321            6292     5.98544E-03     6.68956E-03
            6322            6293     6.86814E-03     7.60123E-03
            6321            6293     6.86814E-03     7.60123E-03
            6303            6293     6.86814E-03     7.60123E-03
            6304            6293     6.86814E-03     7.60123E-03
            6322            6294     7.78117E-03     8.53233E-03
            6304            6294     7.78117E-03     8.53233E-03
            6323            6294     7.78117E-03     8.53233E-03
            6305            6294     7.78117E-03     8.53233E-03
            6323            6295     8.72643E-03     9.48714E-03
            6324            6295     8.72643E-03     9.48714E-03
            6306            6295     8.72643E-03     9.48714E-03
            6305            6295     8.72643E-03     9.48714E-03
            6325            6296     9.70431E-03     10.4709E-03
            6307            6296     9.70431E-03     10.4709E-03
            6306            6296     9.70431E-03     10.4709E-03
            6324            6296     9.70431E-03     10.4709E-03
            6308            6297     10.7434E-03     11.5083E-03
            6326            6297     10.7434E-03     11.5083E-03
            6325            6297     10.7434E-03     11.5083E-03
            6307            6297     10.7434E-03     11.5083E-03
            6327            6298     11.8649E-03     12.6296E-03
            6308            6298     11.8649E-03     12.6296E-03
            6326            6298     11.8649E-03     12.6296E-03
            6309            6298     11.8649E-03     12.6296E-03
            6327            6299     13.1573E-03     13.9031E-03
            6310            6299     13.1573E-03     13.9031E-03
            6328            6299     13.1573E-03     13.9031E-03
            6309            6299     13.1573E-03     13.9031E-03
            6310            6300     14.7057E-03     15.4349E-03
            6328            6300     14.7057E-03     15.4349E-03
            6311            6300     14.7057E-03     15.4349E-03
            6329            6300     14.7057E-03     15.4349E-03
            6312            6301     16.7295E-03     17.3886E-03
            6311            6301     16.7295E-03     17.3886E-03
            6330            6301     16.7295E-03     17.3886E-03
            6329            6301     16.7295E-03     17.3886E-03
            6331            6302     19.8109E-03     20.1996E-03
            6330            6302     19.8109E-03     20.1996E-03
            6312            6302     19.8109E-03     20.1996E-03
            6313            6302     19.8109E-03     20.1996E-03
            6331            6303     23.3827E-03     23.4174E-03
            6313            6303     23.3827E-03     23.4174E-03
            6314            6303     23.3827E-03     23.4174E-03
            6332            6303     23.3827E-03     23.4174E-03
            6316            6304     3.57514E-03     3.37662E-03
            6334            6304     3.57514E-03     3.37662E-03
            6315            6304     3.57514E-03     3.37662E-03
            6333            6304     3.57514E-03     3.37662E-03
            6316            6305     3.78016E-03     3.81946E-03
            6334            6305     3.78016E-03     3.81946E-03
            6317            6305     3.78016E-03     3.81946E-03
            6335            6305     3.78016E-03     3.81946E-03
            6317            6306     4.20420E-03     4.47392E-03
            6318            6306     4.20420E-03     4.47392E-03
            6335            6306     4.20420E-03     4.47392E-03
            6336            6306     4.20420E-03     4.47392E-03
            6337            6307     4.82425E-03     5.22847E-03
            6318            6307     4.82425E-03     5.22847E-03
            6319            6307     4.82425E-03     5.22847E-03
            6336            6307     4.82425E-03     5.22847E-03
            6319            6308     5.56822E-03     6.05435E-03
            6338            6308     5.56822E-03     6.05435E-03
            6320            6308     5.56822E-03     6.05435E-03
            6337            6308     5.56822E-03     6.05435E-03
            6321            6309     6.38952E-03     6.92841E-03
            6339            6309     6.38952E-03     6.92841E-03
            6338            6309     6.38952E-03     6.92841E-03
            6320            6309     6.38952E-03     6.92841E-03
            6322            6310     7.26377E-03     7.83562E-03
            6340            6310     7.26377E-03     7.83562E-03
            6339            6310     7.26377E-03     7.83562E-03
            6321            6310     7.26377E-03     7.83562E-03
            6341            6311     8.17740E-03     8.77109E-03
            6340            6311     8.17740E-03     8.77109E-03
            6323            6311     8.17740E-03     8.77109E-03
            6322            6311     8.17740E-03     8.77109E-03
            6342            6312     9.12201E-03     9.73332E-03
            6341            6312     9.12201E-03     9.73332E-03
            6323            6312     9.12201E-03     9.73332E-03
            6324            6312     9.12201E-03     9.73332E-03
            6324            6313     10.1054E-03     10.7283E-03
            6325            6313     10.1054E-03     10.7283E-03
            6343            6313     10.1054E-03     10.7283E-03
            6342            6313     10.1054E-03     10.7283E-03
            6325            6314     11.1340E-03     11.7702E-03
            6326            6314     11.1340E-03     11.7702E-03
            6343            6314     11.1340E-03     11.7702E-03
            6344            6314     11.1340E-03     11.7702E-03
            6345            6315     12.2457E-03     12.8815E-03
            6326            6315     12.2457E-03     12.8815E-03
            6327            6315     12.2457E-03     12.8815E-03
            6344            6315     12.2457E-03     12.8815E-03
            6345            6316     13.4909E-03     14.1196E-03
            6346            6316     13.4909E-03     14.1196E-03
            6328            6316     13.4909E-03     14.1196E-03
            6327            6316     13.4909E-03     14.1196E-03
            6329            6317     14.9502E-03     15.5384E-03
            6328            6317     14.9502E-03     15.5384E-03
            6347            6317     14.9502E-03     15.5384E-03
            6346            6317     14.9502E-03     15.5384E-03
            6348            6318     16.8836E-03     17.3268E-03
            6347            6318     16.8836E-03     17.3268E-03
            6329            6318     16.8836E-03     17.3268E-03
            6330            6318     16.8836E-03     17.3268E-03
            6331            6319     19.1784E-03     19.4946E-03
            6348            6319     19.1784E-03     19.4946E-03
            6349            6319     19.1784E-03     19.4946E-03
            6330            6319     19.1784E-03     19.4946E-03
            6350            6320     21.5286E-03     21.9228E-03
            6349            6320     21.5286E-03     21.9228E-03
            6332            6320     21.5286E-03     21.9228E-03
            6331            6320     21.5286E-03     21.9228E-03
            6351            6321     4.04828E-03     3.80823E-03
            6333            6321     4.04828E-03     3.80823E-03
            6334            6321     4.04828E-03     3.80823E-03
            6352            6321     4.04828E-03     3.80823E-03
            6352            6322     4.24715E-03     4.18988E-03
            6353            6322     4.24715E-03     4.18988E-03
            6334            6322     4.24715E-03     4.18988E-03
            6335            6322     4.24715E-03     4.18988E-03
            6335            6323     4.66550E-03     4.78013E-03
            6353            6323     4.66550E-03     4.78013E-03
            6336            6323     4.66550E-03     4.78013E-03
            6354            6323     4.66550E-03     4.78013E-03
            6336            6324     5.24887E-03     5.50777E-03
            6355            6324     5.24887E-03     5.50777E-03
            6354            6324     5.24887E-03     5.50777E-03
            6337            6324     5.24887E-03     5.50777E-03
            6356            6325     5.96398E-03     6.30589E-03
            6355            6325     5.96398E-03     6.30589E-03
            6338            6325     5.96398E-03     6.30589E-03
            6337            6325     5.96398E-03     6.30589E-03
            6356            6326     6.76956E-03     7.16053E-03
            6338            6326     6.76956E-03     7.16053E-03
            6339            6326     6.76956E-03     7.16053E-03
            6357            6326     6.76956E-03     7.16053E-03
            6339            6327     7.63525E-03     8.05716E-03
            6340            6327     7.63525E-03     8.05716E-03
            6358            6327     7.63525E-03     8.05716E-03
            6357            6327     7.63525E-03     8.05716E-03
            6358            6328     8.54502E-03     8.98865E-03
            6340            6328     8.54502E-03     8.98865E-03
            6359            6328     8.54502E-03     8.98865E-03
            6341            6328     8.54502E-03     8.98865E-03
            6341            6329     9.48952E-03     9.95118E-03
            6342            6329     9.48952E-03     9.95118E-03
            6360            6329     9.48952E-03     9.95118E-03
            6359            6329     9.48952E-03     9.95118E-03
            6361            6330     10.4649E-03     10.9461E-03
            6342            6330     10.4649E-03     10.9461E-03
            6343            6330     10.4649E-03     10.9461E-03
            6360            6330     10.4649E-03     10.9461E-03
            6362            6331     11.4752E-03     11.9729E-03
            6344            6331     11.4752E-03     11.9729E-03
            6361            6331     11.4752E-03     11.9729E-03
            6343            6331     11.4752E-03     11.9729E-03
            6345            6332     12.5380E-03     13.0491E-03
            6363            6332     12.5380E-03     13.0491E-03
            6362            6332     12.5380E-03     13.0491E-03
            6344            6332     12.5380E-03     13.0491E-03
            6363            6333     13.6669E-03     14.1809E-03
            6364            6333     13.6669E-03     14.1809E-03
            6346            6333     13.6669E-03     14.1809E-03
            6345            6333     13.6669E-03     14.1809E-03
            6346            6334     14.9639E-03     15.4284E-03
            6365            6334     14.9639E-03     15.4284E-03
            6364            6334     14.9639E-03     15.4284E-03
            6347            6334     14.9639E-03     15.4284E-03
            6347            6335     16.4090E-03     16.8222E-03
            6365            6335     16.4090E-03     16.8222E-03
            6348            6335     16.4090E-03     16.8222E-03
            6366            6335     16.4090E-03     16.8222E-03
            6348            6336     18.0037E-03     18.3681E-03
            6349            6336     18.0037E-03     18.3681E-03
            6367            6336     18.0037E-03     18.3681E-03
            6366            6336     18.0037E-03     18.3681E-03
            6367            6337     19.8802E-03     20.0780E-03
            6349            6337     19.8802E-03     20.0780E-03
            6350            6337     19.8802E-03     20.0780E-03
            6368            6337     19.8802E-03     20.0780E-03
            6370            6338     4.48692E-03     4.22181E-03
            6351            6338     4.48692E-03     4.22181E-03
            6369            6338     4.48692E-03     4.22181E-03
            6352            6338     4.48692E-03     4.22181E-03
            6353            6339     4.68310E-03     4.57445E-03
            6370            6339     4.68310E-03     4.57445E-03
            6352            6339     4.68310E-03     4.57445E-03
            6371            6339     4.68310E-03     4.57445E-03
            6371            6340     5.07291E-03     5.12173E-03
            6353            6340     5.07291E-03     5.12173E-03
            6354            6340     5.07291E-03     5.12173E-03
            6372            6340     5.07291E-03     5.12173E-03
            6355            6341     5.63466E-03     5.78884E-03
            6372            6341     5.63466E-03     5.78884E-03
            6373            6341     5.63466E-03     5.78884E-03
            6354            6341     5.63466E-03     5.78884E-03
            6355            6342     6.32554E-03     6.54933E-03
            6374            6342     6.32554E-03     6.54933E-03
            6373            6342     6.32554E-03     6.54933E-03
            6356            6342     6.32554E-03     6.54933E-03
            6374            6343     7.11028E-03     7.36992E-03
            6375            6343     7.11028E-03     7.36992E-03
            6356            6343     7.11028E-03     7.36992E-03
            6357            6343     7.11028E-03     7.36992E-03
            6375            6344     7.96309E-03     8.24195E-03
            6357            6344     7.96309E-03     8.24195E-03
            6376            6344     7.96309E-03     8.24195E-03
            6358            6344     7.96309E-03     8.24195E-03
            6377            6345     8.86129E-03     9.15613E-03
            6358            6345     8.86129E-03     9.15613E-03
            6359            6345     8.86129E-03     9.15613E-03
            6376            6345     8.86129E-03     9.15613E-03
            6377            6346     9.79375E-03     10.1054E-03
            6378            6346     9.79375E-03     10.1054E-03
            6360            6346     9.79375E-03     10.1054E-03
            6359            6346     9.79375E-03     10.1054E-03
            6379            6347     10.7481E-03     11.0794E-03
            6360            6347     10.7481E-03     11.0794E-03
            6378            6347     10.7481E-03     11.0794E-03
            6361            6347     10.7481E-03     11.0794E-03
            6362            6348     11.7219E-03     12.0756E-03
            6380            6348     11.7219E-03     12.0756E-03
            6379            6348     11.7219E-03     12.0756E-03
            6361            6348     11.7219E-03     12.0756E-03
            6363            6349     12.6943E-03     13.0762E-03
            6380            6349     12.6943E-03     13.0762E-03
            6362            6349     12.6943E-03     13.0762E-03
            6381            6349     12.6943E-03     13.0762E-03
            6381            6350     13.6844E-03     14.0779E-03
            6364            6350     13.6844E-03     14.0779E-03
            6382            6350     13.6844E-03     14.0779E-03
            6363            6350     13.6844E-03     14.0779E-03
            6382            6351     14.6622E-03     15.0677E-03
            6383            6351     14.6622E-03     15.0677E-03
            6364            6351     14.6622E-03     15.0677E-03
            6365            6351     14.6622E-03     15.0677E-03
            6366            6352     15.6586E-03     16.0393E-03
            6384            6352     15.6586E-03     16.0393E-03
            6365            6352     15.6586E-03     16.0393E-03
            6383            6352     15.6586E-03     16.0393E-03
            6367            6353     16.7859E-03     17.0609E-03
            6384            6353     16.7859E-03     17.0609E-03
            6366            6353     16.7859E-03     17.0609E-03
            6385            6353     16.7859E-03     17.0609E-03
            6367            6354     18.1331E-03     18.3547E-03
            6386            6354     18.1331E-03     18.3547E-03
            6368            6354     18.1331E-03     18.3547E-03
            6385            6354     18.1331E-03     18.3547E-03
            6369            6355     4.90444E-03     4.64479E-03
            6387            6355     4.90444E-03     4.64479E-03
            6388            6355     4.90444E-03     4.64479E-03
            6370            6355     4.90444E-03     4.64479E-03
            6371            6356     5.08187E-03     4.98172E-03
            6389            6356     5.08187E-03     4.98172E-03
            6370            6356     5.08187E-03     4.98172E-03
            6388            6356     5.08187E-03     4.98172E-03
            6372            6357     5.44897E-03     5.46694E-03
            6390            6357     5.44897E-03     5.46694E-03
            6389            6357     5.44897E-03     5.46694E-03
            6371            6357     5.44897E-03     5.46694E-03
            6390            6358     5.98318E-03     6.07997E-03
            6372            6358     5.98318E-03     6.07997E-03
            6391            6358     5.98318E-03     6.07997E-03
            6373            6358     5.98318E-03     6.07997E-03
            6391            6359     6.64657E-03     6.77581E-03
            6373            6359     6.64657E-03     6.77581E-03
            6392            6359     6.64657E-03     6.77581E-03
            6374            6359     6.64657E-03     6.77581E-03
            6393            6360     7.40859E-03     7.54406E-03
            6392            6360     7.40859E-03     7.54406E-03
            6374            6360     7.40859E-03     7.54406E-03
            6375            6360     7.40859E-03     7.54406E-03
            6393            6361     8.23550E-03     8.37472E-03
            6375            6361     8.23550E-03     8.37472E-03
            6376            6361     8.23550E-03     8.37472E-03
            6394            6361     8.23550E-03     8.37472E-03
            6377            6362     9.10913E-03     9.25392E-03
            6394            6362     9.10913E-03     9.25392E-03
            6395            6362     9.10913E-03     9.25392E-03
            6376            6362     9.10913E-03     9.25392E-03
            6395            6363     10.0113E-03     10.1672E-03
            6377            6363     10.0113E-03     10.1672E-03
            6396            6363     10.0113E-03     10.1672E-03
            6378            6363     10.0113E-03     10.1672E-03
            6396            6364     10.9315E-03     11.1035E-03
            6397            6364     10.9315E-03     11.1035E-03
            6378            6364     10.9315E-03     11.1035E-03
            6379            6364     10.9315E-03     11.1035E-03
            6379            6365     11.8401E-03     12.0397E-03
            6380            6365     11.8401E-03     12.0397E-03
            6398            6365     11.8401E-03     12.0397E-03
            6397            6365     11.8401E-03     12.0397E-03
            6399            6366     12.7253E-03     12.9537E-03
            6380            6366     12.7253E-03     12.9537E-03
            6398            6366     12.7253E-03     12.9537E-03
            6381            6366     12.7253E-03     12.9537E-03
            6382            6367     13.5238E-03     13.8021E-03
            6381            6367     13.5238E-03     13.8021E-03
            6400            6367     13.5238E-03     13.8021E-03
            6399            6367     13.5238E-03     13.8021E-03
            6383            6368     14.2116E-03     14.5289E-03
            6401            6368     14.2116E-03     14.5289E-03
            6400            6368     14.2116E-03     14.5289E-03
            6382            6368     14.2116E-03     14.5289E-03
            6383            6369     14.8163E-03     15.1298E-03
            6401            6369     14.8163E-03     15.1298E-03
            6384            6369     14.8163E-03     15.1298E-03
            6402            6369     14.8163E-03     15.1298E-03
            6384            6370     15.4418E-03     15.7191E-03
            6403            6370     15.4418E-03     15.7191E-03
            6385            6370     15.4418E-03     15.7191E-03
            6402            6370     15.4418E-03     15.7191E-03
            6385            6371     16.4348E-03     16.5658E-03
            6403            6371     16.4348E-03     16.5658E-03
            6404            6371     16.4348E-03     16.5658E-03
            6386            6371     16.4348E-03     16.5658E-03
            6405            6372     5.29293E-03     5.11261E-03
            6406            6372     5.29293E-03     5.11261E-03
            6388            6372     5.29293E-03     5.11261E-03
            6387            6372     5.29293E-03     5.11261E-03
            6388            6373     5.45894E-03     5.39488E-03
            6389            6373     5.45894E-03     5.39488E-03
            6407            6373     5.45894E-03     5.39488E-03
            6406            6373     5.45894E-03     5.39488E-03
            6389            6374     5.80220E-03     5.84223E-03
            6407            6374     5.80220E-03     5.84223E-03
            6408            6374     5.80220E-03     5.84223E-03
            6390            6374     5.80220E-03     5.84223E-03
            6409            6375     6.30160E-03     6.37126E-03
            6391            6375     6.30160E-03     6.37126E-03
            6390            6375     6.30160E-03     6.37126E-03
            6408            6375     6.30160E-03     6.37126E-03
            6409            6376     6.94159E-03     6.98039E-03
            6392            6376     6.94159E-03     6.98039E-03
            6410            6376     6.94159E-03     6.98039E-03
            6391            6376     6.94159E-03     6.98039E-03
            6410            6377     7.66788E-03     7.68139E-03
            6393            6377     7.66788E-03     7.68139E-03
            6392            6377     7.66788E-03     7.68139E-03
            6411            6377     7.66788E-03     7.68139E-03
            6411            6378     8.45327E-03     8.45179E-03
            6394            6378     8.45327E-03     8.45179E-03
            6412            6378     8.45327E-03     8.45179E-03
            6393            6378     8.45327E-03     8.45179E-03
            6412            6379     9.28065E-03     9.27286E-03
            6394            6379     9.28065E-03     9.27286E-03
            6395            6379     9.28065E-03     9.27286E-03
            6413            6379     9.28065E-03     9.27286E-03
            6396            6380     10.1353E-03     10.1289E-03
            6413            6380     10.1353E-03     10.1289E-03
            6395            6380     10.1353E-03     10.1289E-03
            6414            6380     10.1353E-03     10.1289E-03
            6397            6381     10.9929E-03     10.9977E-03
            6415            6381     10.9929E-03     10.9977E-03
            6414            6381     10.9929E-03     10.9977E-03
            6396            6381     10.9929E-03     10.9977E-03
            6416            6382     11.8348E-03     11.8569E-03
            6415            6382     11.8348E-03     11.8569E-03
            6398            6382     11.8348E-03     11.8569E-03
            6397            6382     11.8348E-03     11.8569E-03
            6399            6383     12.6052E-03     12.6650E-03
            6398            6383     12.6052E-03     12.6650E-03
            6417            6383     12.6052E-03     12.6650E-03
            6416            6383     12.6052E-03     12.6650E-03
            6417            6384     13.2578E-03     13.3664E-03
            6418            6384     13.2578E-03     13.3664E-03
            6400            6384     13.2578E-03     13.3664E-03
            6399            6384     13.2578E-03     13.3664E-03
            6419            6385     13.6981E-03     13.8814E-03
            6401            6385     13.6981E-03     13.8814E-03
            6418            6385     13.6981E-03     13.8814E-03
            6400            6385     13.6981E-03     13.8814E-03
            6420            6386     13.8974E-03     14.1517E-03
            6402            6386     13.8974E-03     14.1517E-03
            6401            6386     13.8974E-03     14.1517E-03
            6419            6386     13.8974E-03     14.1517E-03
            6402            6387     14.0842E-03     14.2940E-03
            6421            6387     14.0842E-03     14.2940E-03
            6420            6387     14.0842E-03     14.2940E-03
            6403            6387     14.0842E-03     14.2940E-03
            6403            6388     14.6366E-03     14.7373E-03
            6421            6388     14.6366E-03     14.7373E-03
            6404            6388     14.6366E-03     14.7373E-03
            6422            6388     14.6366E-03     14.7373E-03
            6406            6389     5.68850E-03     5.55803E-03
            6424            6389     5.68850E-03     5.55803E-03
            6423            6389     5.68850E-03     5.55803E-03
            6405            6389     5.68850E-03     5.55803E-03
            6425            6390     5.82828E-03     5.89434E-03
            6407            6390     5.82828E-03     5.89434E-03
            6424            6390     5.82828E-03     5.89434E-03
            6406            6390     5.82828E-03     5.89434E-03
            6408            6391     6.12376E-03     6.24863E-03
            6426            6391     6.12376E-03     6.24863E-03
            6407            6391     6.12376E-03     6.24863E-03
            6425            6391     6.12376E-03     6.24863E-03
            6408            6392     6.62580E-03     6.64692E-03
            6409            6392     6.62580E-03     6.64692E-03
            6427            6392     6.62580E-03     6.64692E-03
            6426            6392     6.62580E-03     6.64692E-03
            6427            6393     7.23314E-03     7.17138E-03
            6428            6393     7.23314E-03     7.17138E-03
            6409            6393     7.23314E-03     7.17138E-03
            6410            6393     7.23314E-03     7.17138E-03
            6428            6394     7.90369E-03     7.79289E-03
            6429            6394     7.90369E-03     7.79289E-03
            6411            6394     7.90369E-03     7.79289E-03
            6410            6394     7.90369E-03     7.79289E-03
            6411            6395     8.62737E-03     8.48429E-03
            6430            6395     8.62737E-03     8.48429E-03
            6429            6395     8.62737E-03     8.48429E-03
            6412            6395     8.62737E-03     8.48429E-03
            6430            6396     9.38633E-03     9.22574E-03
            6412            6396     9.38633E-03     9.22574E-03
            6413            6396     9.38633E-03     9.22574E-03
            6431            6396     9.38633E-03     9.22574E-03
            6414            6397     10.1639E-03     9.99428E-03
            6432            6397     10.1639E-03     9.99428E-03
            6431            6397     10.1639E-03     9.99428E-03
            6413            6397     10.1639E-03     9.99428E-03
            6415            6398     10.9429E-03     10.7694E-03
            6414            6398     10.9429E-03     10.7694E-03
            6432            6398     10.9429E-03     10.7694E-03
            6433            6398     10.9429E-03     10.7694E-03
            6416            6399     11.6865E-03     11.5208E-03
            6433            6399     11.6865E-03     11.5208E-03
            6415            6399     11.6865E-03     11.5208E-03
            6434            6399     11.6865E-03     11.5208E-03
            6417            6400     12.3568E-03     12.2077E-03
            6434            6400     12.3568E-03     12.2077E-03
            6435            6400     12.3568E-03     12.2077E-03
            6416            6400     12.3568E-03     12.2077E-03
            6435            6401     12.8735E-03     12.7663E-03
            6418            6401     12.8735E-03     12.7663E-03
            6436            6401     12.8735E-03     12.7663E-03
            6417            6401     12.8735E-03     12.7663E-03
            6436            6402     13.1505E-03     13.1155E-03
            6419            6402     13.1505E-03     13.1155E-03
            6437            6402     13.1505E-03     13.1155E-03
            6418            6402     13.1505E-03     13.1155E-03
            6438            6403     13.0413E-03     13.1219E-03
            6420            6403     13.0413E-03     13.1219E-03
            6437            6403     13.0413E-03     13.1219E-03
            6419            6403     13.0413E-03     13.1219E-03
            6439            6404     12.6511E-03     12.8194E-03
            6420            6404     12.6511E-03     12.8194E-03
            6438            6404     12.6511E-03     12.8194E-03
            6421            6404     12.6511E-03     12.8194E-03
            6440            6405     12.7664E-03     12.7803E-03
            6439            6405     12.7664E-03     12.7803E-03
            6421            6405     12.7664E-03     12.7803E-03
            6422            6405     12.7664E-03     12.7803E-03
            6442            6406     6.06000E-03     6.25903E-03
            6423            6406     6.06000E-03     6.25903E-03
            6424            6406     6.06000E-03     6.25903E-03
            6441            6406     6.06000E-03     6.25903E-03
            6442            6407     6.11782E-03     6.46470E-03
            6443            6407     6.11782E-03     6.46470E-03
            6425            6407     6.11782E-03     6.46470E-03
            6424            6407     6.11782E-03     6.46470E-03
            6425            6408     6.49935E-03     6.61179E-03
            6426            6408     6.49935E-03     6.61179E-03
            6444            6408     6.49935E-03     6.61179E-03
            6443            6408     6.49935E-03     6.61179E-03
            6445            6409     6.99859E-03     6.92125E-03
            6426            6409     6.99859E-03     6.92125E-03
            6444            6409     6.99859E-03     6.92125E-03
            6427            6409     6.99859E-03     6.92125E-03
            6445            6410     7.54390E-03     7.37032E-03
            6428            6410     7.54390E-03     7.37032E-03
            6427            6410     7.54390E-03     7.37032E-03
            6446            6410     7.54390E-03     7.37032E-03
            6429            6411     8.14405E-03     7.90590E-03
            6428            6411     8.14405E-03     7.90590E-03
            6446            6411     8.14405E-03     7.90590E-03
            6447            6411     8.14405E-03     7.90590E-03
            6430            6412     8.78288E-03     8.50588E-03
            6429            6412     8.78288E-03     8.50588E-03
            6447            6412     8.78288E-03     8.50588E-03
            6448            6412     8.78288E-03     8.50588E-03
            6448            6413     9.44865E-03     9.14323E-03
            6431            6413     9.44865E-03     9.14323E-03
            6449            6413     9.44865E-03     9.14323E-03
            6430            6413     9.44865E-03     9.14323E-03
            6431            6414     10.1263E-03     9.79746E-03
            6449            6414     10.1263E-03     9.79746E-03
            6450            6414     10.1263E-03     9.79746E-03
            6432            6414     10.1263E-03     9.79746E-03
            6433            6415     10.7922E-03     10.4449E-03
            6450            6415     10.7922E-03     10.4449E-03
            6451            6415     10.7922E-03     10.4449E-03
            6432            6415     10.7922E-03     10.4449E-03
            6433            6416     11.4197E-03     11.0550E-03
            6451            6416     11.4197E-03     11.0550E-03
            6452            6416     11.4197E-03     11.0550E-03
            6434            6416     11.4197E-03     11.0550E-03
            6434            6417     11.9641E-03     11.5890E-03
            6435            6417     11.9641E-03     11.5890E-03
            6453            6417     11.9641E-03     11.5890E-03
            6452            6417     11.9641E-03     11.5890E-03
            6453            6418     12.3614E-03     11.9884E-03
            6436            6418     12.3614E-03     11.9884E-03
            6454            6418     12.3614E-03     11.9884E-03
            6435            6418     12.3614E-03     11.9884E-03
            6454            6419     12.5149E-03     12.1658E-03
            6436            6419     12.5149E-03     12.1658E-03
            6455            6419     12.5149E-03     12.1658E-03
            6437            6419     12.5149E-03     12.1658E-03
            6437            6420     12.2815E-03     12.0127E-03
            6438            6420     12.2815E-03     12.0127E-03
            6456            6420     12.2815E-03     12.0127E-03
            6455            6420     12.2815E-03     12.0127E-03
            6457            6421     11.3976E-03     11.2990E-03
            6439            6421     11.3976E-03     11.2990E-03
            6456            6421     11.3976E-03     11.2990E-03
            6438            6421     11.3976E-03     11.2990E-03
            6457            6422     10.7389E-03     10.6884E-03
            6458            6422     10.7389E-03     10.6884E-03
            6439            6422     10.7389E-03     10.6884E-03
            6440            6422     10.7389E-03     10.6884E-03
            6460            6423     6.24649E-03     6.97576E-03
            6459            6423     6.24649E-03     6.97576E-03
            6442            6423     6.24649E-03     6.97576E-03
            6441            6423     6.24649E-03     6.97576E-03
            6460            6424     6.58222E-03     6.84819E-03
            6442            6424     6.58222E-03     6.84819E-03
            6461            6424     6.58222E-03     6.84819E-03
            6443            6424     6.58222E-03     6.84819E-03
            6461            6425     7.00548E-03     6.93667E-03
            6443            6425     7.00548E-03     6.93667E-03
            6444            6425     7.00548E-03     6.93667E-03
            6462            6425     7.00548E-03     6.93667E-03
            6445            6426     7.43601E-03     7.22637E-03
            6463            6426     7.43601E-03     7.22637E-03
            6462            6426     7.43601E-03     7.22637E-03
            6444            6426     7.43601E-03     7.22637E-03
            6445            6427     7.90427E-03     7.61176E-03
            6446            6427     7.90427E-03     7.61176E-03
            6463            6427     7.90427E-03     7.61176E-03
            6464            6427     7.90427E-03     7.61176E-03
            6465            6428     8.41714E-03     8.06667E-03
            6464            6428     8.41714E-03     8.06667E-03
            6446            6428     8.41714E-03     8.06667E-03
            6447            6428     8.41714E-03     8.06667E-03
            6466            6429     8.95720E-03     8.56488E-03
            6465            6429     8.95720E-03     8.56488E-03
            6448            6429     8.95720E-03     8.56488E-03
            6447            6429     8.95720E-03     8.56488E-03
            6448            6430     9.51491E-03     9.08292E-03
            6466            6430     9.51491E-03     9.08292E-03
            6467            6430     9.51491E-03     9.08292E-03
            6449            6430     9.51491E-03     9.08292E-03
            6468            6431     10.0681E-03     9.60075E-03
            6449            6431     10.0681E-03     9.60075E-03
            6450            6431     10.0681E-03     9.60075E-03
            6467            6431     10.0681E-03     9.60075E-03
            6451            6432     10.5971E-03     10.0901E-03
            6468            6432     10.5971E-03     10.0901E-03
            6450            6432     10.5971E-03     10.0901E-03
            6469            6432     10.5971E-03     10.0901E-03
            6470            6433     11.0737E-03     10.5253E-03
            6452            6433     11.0737E-03     10.5253E-03
            6469            6433     11.0737E-03     10.5253E-03
            6451            6433     11.0737E-03     10.5253E-03
            6453            6434     11.4585E-03     10.8617E-03
            6452            6434     11.4585E-03     10.8617E-03
            6470            6434     11.4585E-03     10.8617E-03
            6471            6434     11.4585E-03     10.8617E-03
            6453            6435     11.7094E-03     11.0554E-03
            6471            6435     11.7094E-03     11.0554E-03
            6454            6435     11.7094E-03     11.0554E-03
            6472            6435     11.7094E-03     11.0554E-03
            6473            6436     11.7343E-03     11.0226E-03
            6455            6436     11.7343E-03     11.0226E-03
            6472            6436     11.7343E-03     11.0226E-03
            6454            6436     11.7343E-03     11.0226E-03
            6455            6437     11.4486E-03     10.6727E-03
            6474            6437     11.4486E-03     10.6727E-03
            6473            6437     11.4486E-03     10.6727E-03
            6456            6437     11.4486E-03     10.6727E-03
            6474            6438     10.5417E-03     9.76437E-03
            6475            6438     10.5417E-03     9.76437E-03
            6456            6438     10.5417E-03     9.76437E-03
            6457            6438     10.5417E-03     9.76437E-03
            6458            6439     9.03402E-03     8.40347E-03
            6457            6439     9.03402E-03     8.40347E-03
            6475            6439     9.03402E-03     8.40347E-03
            6476            6439     9.03402E-03     8.40347E-03
            6460            6440     4.56963E-03     5.12253E-03
            6459            6440     4.56963E-03     5.12253E-03
            6478            6440     4.56963E-03     5.12253E-03
            6477            6440     4.56963E-03     5.12253E-03
            6478            6441     4.90866E-03     5.01706E-03
            6479            6441     4.90866E-03     5.01706E-03
            6460            6441     4.90866E-03     5.01706E-03
            6461            6441     4.90866E-03     5.01706E-03
            6461            6442     5.07725E-03     5.10097E-03
            6462            6442     5.07725E-03     5.10097E-03
            6479            6442     5.07725E-03     5.10097E-03
            6480            6442     5.07725E-03     5.10097E-03
            6480            6443     5.27319E-03     5.32358E-03
            6463            6443     5.27319E-03     5.32358E-03
            6481            6443     5.27319E-03     5.32358E-03
            6462            6443     5.27319E-03     5.32358E-03
            6464            6444     5.49830E-03     5.57093E-03
            6463            6444     5.49830E-03     5.57093E-03
            6481            6444     5.49830E-03     5.57093E-03
            6482            6444     5.49830E-03     5.57093E-03
            6465            6445     5.76694E-03     5.86543E-03
            6464            6445     5.76694E-03     5.86543E-03
            6483            6445     5.76694E-03     5.86543E-03
            6482            6445     5.76694E-03     5.86543E-03
            6465            6446     6.06281E-03     6.18137E-03
            6466            6446     6.06281E-03     6.18137E-03
            6483            6446     6.06281E-03     6.18137E-03
            6484            6446     6.06281E-03     6.18137E-03
            6466            6447     6.37920E-03     6.51426E-03
            6467            6447     6.37920E-03     6.51426E-03
            6484            6447     6.37920E-03     6.51426E-03
            6485            6447     6.37920E-03     6.51426E-03
            6485            6448     6.70245E-03     6.84597E-03
            6486            6448     6.70245E-03     6.84597E-03
            6468            6448     6.70245E-03     6.84597E-03
            6467            6448     6.70245E-03     6.84597E-03
            6468            6449     7.02222E-03     7.16817E-03
            6487            6449     7.02222E-03     7.16817E-03
            6469            6449     7.02222E-03     7.16817E-03
            6486            6449     7.02222E-03     7.16817E-03
            6469            6450     7.31806E-03     7.45567E-03
            6487            6450     7.31806E-03     7.45567E-03
            6470            6450     7.31806E-03     7.45567E-03
            6488            6450     7.31806E-03     7.45567E-03
            6471            6451     7.57694E-03     7.69735E-03
            6489            6451     7.57694E-03     7.69735E-03
            6470            6451     7.57694E-03     7.69735E-03
            6488            6451     7.57694E-03     7.69735E-03
            6489            6452     7.76091E-03     7.85106E-03
            6490            6452     7.76091E-03     7.85106E-03
            6471            6452     7.76091E-03     7.85106E-03
            6472            6452     7.76091E-03     7.85106E-03
            6473            6453     7.85167E-03     7.90071E-03
            6491            6453     7.85167E-03     7.90071E-03
            6490            6453     7.85167E-03     7.90071E-03
            6472            6453     7.85167E-03     7.90071E-03
            6473            6454     7.81554E-03     7.81041E-03
            6492            6454     7.81554E-03     7.81041E-03
            6474            6454     7.81554E-03     7.81041E-03
            6491            6454     7.81554E-03     7.81041E-03
            6493            6455     7.72084E-03     7.68947E-03
            6475            6455     7.72084E-03     7.68947E-03
            6492            6455     7.72084E-03     7.68947E-03
            6474            6455     7.72084E-03     7.68947E-03
            6494            6456     8.01580E-03     8.22225E-03
            6493            6456     8.01580E-03     8.22225E-03
            6476            6456     8.01580E-03     8.22225E-03
            6475            6456     8.01580E-03     8.22225E-03
            6477            6457     3.00860E-03     3.10855E-03
            6496            6457     3.00860E-03     3.10855E-03
            6478            6457     3.00860E-03     3.10855E-03
            6495            6457     3.00860E-03     3.10855E-03
            6479            6458     2.97943E-03     3.09047E-03
            6497            6458     2.97943E-03     3.09047E-03
            6478            6458     2.97943E-03     3.09047E-03
            6496            6458     2.97943E-03     3.09047E-03
            6480            6459     2.97149E-03     3.15440E-03
            6479            6459     2.97149E-03     3.15440E-03
            6498            6459     2.97149E-03     3.15440E-03
            6497            6459     2.97149E-03     3.15440E-03
            6480            6460     2.97933E-03     3.26820E-03
            6499            6460     2.97933E-03     3.26820E-03
            6498            6460     2.97933E-03     3.26820E-03
            6481            6460     2.97933E-03     3.26820E-03
            6500            6461     3.02296E-03     3.39622E-03
            6481            6461     3.02296E-03     3.39622E-03
            6482            6461     3.02296E-03     3.39622E-03
            6499            6461     3.02296E-03     3.39622E-03
            6500            6462     3.10500E-03     3.55477E-03
            6482            6462     3.10500E-03     3.55477E-03
            6501            6462     3.10500E-03     3.55477E-03
            6483            6462     3.10500E-03     3.55477E-03
            6502            6463     3.21723E-03     3.73134E-03
            6501            6463     3.21723E-03     3.73134E-03
            6484            6463     3.21723E-03     3.73134E-03
            6483            6463     3.21723E-03     3.73134E-03
            6485            6464     3.35707E-03     3.92931E-03
            6484            6464     3.35707E-03     3.92931E-03
            6502            6464     3.35707E-03     3.92931E-03
            6503            6464     3.35707E-03     3.92931E-03
            6503            6465     3.52293E-03     4.14091E-03
            6485            6465     3.52293E-03     4.14091E-03
            6486            6465     3.52293E-03     4.14091E-03
            6504            6465     3.52293E-03     4.14091E-03
            6504            6466     3.71002E-03     4.36956E-03
            6487            6466     3.71002E-03     4.36956E-03
            6505            6466     3.71002E-03     4.36956E-03
            6486            6466     3.71002E-03     4.36956E-03
            6488            6467     3.91784E-03     4.60688E-03
            6487            6467     3.91784E-03     4.60688E-03
            6505            6467     3.91784E-03     4.60688E-03
            6506            6467     3.91784E-03     4.60688E-03
            6506            6468     4.14194E-03     4.85719E-03
            6488            6468     4.14194E-03     4.85719E-03
            6489            6468     4.14194E-03     4.85719E-03
            6507            6468     4.14194E-03     4.85719E-03
            6490            6469     4.36856E-03     5.10458E-03
            6489            6469     4.36856E-03     5.10458E-03
            6508            6469     4.36856E-03     5.10458E-03
            6507            6469     4.36856E-03     5.10458E-03
            6508            6470     4.62134E-03     5.37731E-03
            6491            6470     4.62134E-03     5.37731E-03
            6509            6470     4.62134E-03     5.37731E-03
            6490            6470     4.62134E-03     5.37731E-03
            6509            6471     4.84234E-03     5.65261E-03
            6510            6471     4.84234E-03     5.65261E-03
            6492            6471     4.84234E-03     5.65261E-03
            6491            6471     4.84234E-03     5.65261E-03
            6493            6472     5.49498E-03     6.29881E-03
            6511            6472     5.49498E-03     6.29881E-03
            6510            6472     5.49498E-03     6.29881E-03
            6492            6472     5.49498E-03     6.29881E-03
            6494            6473     7.48298E-03     8.15394E-03
            6512            6473     7.48298E-03     8.15394E-03
            6511            6473     7.48298E-03     8.15394E-03
            6493            6473     7.48298E-03     8.15394E-03
            6514            6474     3.32955E-03     3.01847E-03
            6513            6474     3.32955E-03     3.01847E-03
            6495            6474     3.32955E-03     3.01847E-03
            6496            6474     3.32955E-03     3.01847E-03
            6496            6475     3.20888E-03     3.17895E-03
            6515            6475     3.20888E-03     3.17895E-03
            6497            6475     3.20888E-03     3.17895E-03
            6514            6475     3.20888E-03     3.17895E-03
            6515            6476     3.16156E-03     3.25206E-03
            6498            6476     3.16156E-03     3.25206E-03
            6516            6476     3.16156E-03     3.25206E-03
            6497            6476     3.16156E-03     3.25206E-03
            6516            6477     3.20295E-03     3.31142E-03
            6498            6477     3.20295E-03     3.31142E-03
            6499            6477     3.20295E-03     3.31142E-03
            6517            6477     3.20295E-03     3.31142E-03
            6518            6478     3.28037E-03     3.41684E-03
            6517            6478     3.28037E-03     3.41684E-03
            6499            6478     3.28037E-03     3.41684E-03
            6500            6478     3.28037E-03     3.41684E-03
            6519            6479     3.38255E-03     3.54724E-03
            6518            6479     3.38255E-03     3.54724E-03
            6500            6479     3.38255E-03     3.54724E-03
            6501            6479     3.38255E-03     3.54724E-03
            6520            6480     3.51294E-03     3.70272E-03
            6501            6480     3.51294E-03     3.70272E-03
            6502            6480     3.51294E-03     3.70272E-03
            6519            6480     3.51294E-03     3.70272E-03
            6503            6481     3.66568E-03     3.87553E-03
            6520            6481     3.66568E-03     3.87553E-03
            6502            6481     3.66568E-03     3.87553E-03
            6521            6481     3.66568E-03     3.87553E-03
            6521            6482     3.83921E-03     4.06798E-03
            6522            6482     3.83921E-03     4.06798E-03
            6503            6482     3.83921E-03     4.06798E-03
            6504            6482     3.83921E-03     4.06798E-03
            6522            6483     4.03215E-03     4.27467E-03
            6523            6483     4.03215E-03     4.27467E-03
            6504            6483     4.03215E-03     4.27467E-03
            6505            6483     4.03215E-03     4.27467E-03
            6523            6484     4.24528E-03     4.50131E-03
            6505            6484     4.24528E-03     4.50131E-03
            6506            6484     4.24528E-03     4.50131E-03
            6524            6484     4.24528E-03     4.50131E-03
            6524            6485     4.47850E-03     4.74449E-03
            6525            6485     4.47850E-03     4.74449E-03
            6506            6485     4.47850E-03     4.74449E-03
            6507            6485     4.47850E-03     4.74449E-03
            6507            6486     4.74070E-03     5.01361E-03
            6525            6486     4.74070E-03     5.01361E-03
            6508            6486     4.74070E-03     5.01361E-03
            6526            6486     4.74070E-03     5.01361E-03
            6526            6487     5.02014E-03     5.30478E-03
            6508            6487     5.02014E-03     5.30478E-03
            6527            6487     5.02014E-03     5.30478E-03
            6509            6487     5.02014E-03     5.30478E-03
            6528            6488     5.29226E-03     5.58796E-03
            6527            6488     5.29226E-03     5.58796E-03
            6510            6488     5.29226E-03     5.58796E-03
            6509            6488     5.29226E-03     5.58796E-03
            6528            6489     5.59335E-03     5.86340E-03
            6529            6489     5.59335E-03     5.86340E-03
            6510            6489     5.59335E-03     5.86340E-03
            6511            6489     5.59335E-03     5.86340E-03
            6529            6490     6.24958E-03     6.20556E-03
            6512            6490     6.24958E-03     6.20556E-03
            6511            6490     6.24958E-03     6.20556E-03
            6530            6490     6.24958E-03     6.20556E-03
            6514            6491     3.47864E-03     3.17671E-03
            6532            6491     3.47864E-03     3.17671E-03
            6531            6491     3.47864E-03     3.17671E-03
            6513            6491     3.47864E-03     3.17671E-03
            6514            6492     3.36300E-03     3.30840E-03
            6532            6492     3.36300E-03     3.30840E-03
            6533            6492     3.36300E-03     3.30840E-03
            6515            6492     3.36300E-03     3.30840E-03
            6516            6493     3.36624E-03     3.34841E-03
            6533            6493     3.36624E-03     3.34841E-03
            6515            6493     3.36624E-03     3.34841E-03
            6534            6493     3.36624E-03     3.34841E-03
            6534            6494     3.44670E-03     3.38801E-03
            6517            6494     3.44670E-03     3.38801E-03
            6535            6494     3.44670E-03     3.38801E-03
            6516            6494     3.44670E-03     3.38801E-03
            6535            6495     3.54866E-03     3.46827E-03
            6518            6495     3.54866E-03     3.46827E-03
            6517            6495     3.54866E-03     3.46827E-03
            6536            6495     3.54866E-03     3.46827E-03
            6537            6496     3.67234E-03     3.57362E-03
            6519            6496     3.67234E-03     3.57362E-03
            6536            6496     3.67234E-03     3.57362E-03
            6518            6496     3.67234E-03     3.57362E-03
            6520            6497     3.81557E-03     3.70124E-03
            6537            6497     3.81557E-03     3.70124E-03
            6538            6497     3.81557E-03     3.70124E-03
            6519            6497     3.81557E-03     3.70124E-03
            6520            6498     3.97698E-03     3.84804E-03
            6521            6498     3.97698E-03     3.84804E-03
            6539            6498     3.97698E-03     3.84804E-03
            6538            6498     3.97698E-03     3.84804E-03
            6521            6499     4.15349E-03     4.01120E-03
            6522            6499     4.15349E-03     4.01120E-03
            6539            6499     4.15349E-03     4.01120E-03
            6540            6499     4.15349E-03     4.01120E-03
            6522            6500     4.34564E-03     4.19191E-03
            6540            6500     4.34564E-03     4.19191E-03
            6523            6500     4.34564E-03     4.19191E-03
            6541            6500     4.34564E-03     4.19191E-03
            6541            6501     4.55303E-03     4.38822E-03
            6523            6501     4.55303E-03     4.38822E-03
            6542            6501     4.55303E-03     4.38822E-03
            6524            6501     4.55303E-03     4.38822E-03
            6525            6502     4.78078E-03     4.60760E-03
            6542            6502     4.78078E-03     4.60760E-03
            6524            6502     4.78078E-03     4.60760E-03
            6543            6502     4.78078E-03     4.60760E-03
            6526            6503     5.03586E-03     4.85645E-03
            6543            6503     5.03586E-03     4.85645E-03
            6544            6503     5.03586E-03     4.85645E-03
            6525            6503     5.03586E-03     4.85645E-03
            6545            6504     5.29259E-03     5.09942E-03
            6526            6504     5.29259E-03     5.09942E-03
            6544            6504     5.29259E-03     5.09942E-03
            6527            6504     5.29259E-03     5.09942E-03
            6545            6505     5.55045E-03     5.32910E-03
            6546            6505     5.55045E-03     5.32910E-03
            6528            6505     5.55045E-03     5.32910E-03
            6527            6505     5.55045E-03     5.32910E-03
            6546            6506     5.14630E-03     5.03332E-03
            6547            6506     5.14630E-03     5.03332E-03
            6528            6506     5.14630E-03     5.03332E-03
            6529            6506     5.14630E-03     5.03332E-03
            6530            6507     4.37458E-03     4.42422E-03
            6529            6507     4.37458E-03     4.42422E-03
            6548            6507     4.37458E-03     4.42422E-03
            6547            6507     4.37458E-03     4.42422E-03
            6531            6508     3.37946E-03     3.56321E-03
            6549            6508     3.37946E-03     3.56321E-03
            6532            6508     3.37946E-03     3.56321E-03
            6550            6508     3.37946E-03     3.56321E-03
            6551            6509     3.47823E-03     3.46219E-03
            6550            6509     3.47823E-03     3.46219E-03
            6532            6509     3.47823E-03     3.46219E-03
            6533            6509     3.47823E-03     3.46219E-03
            6534            6510     3.60087E-03     3.45352E-03
            6533            6510     3.60087E-03     3.45352E-03
            6552            6510     3.60087E-03     3.45352E-03
            6551            6510     3.60087E-03     3.45352E-03
            6535            6511     3.71101E-03     3.49968E-03
            6534            6511     3.71101E-03     3.49968E-03
            6552            6511     3.71101E-03     3.49968E-03
            6553            6511     3.71101E-03     3.49968E-03
            6536            6512     3.83340E-03     3.55505E-03
            6535            6512     3.83340E-03     3.55505E-03
            6554            6512     3.83340E-03     3.55505E-03
            6553            6512     3.83340E-03     3.55505E-03
            6537            6513     3.97425E-03     3.63620E-03
            6536            6513     3.97425E-03     3.63620E-03
            6554            6513     3.97425E-03     3.63620E-03
            6555            6513     3.97425E-03     3.63620E-03
            6538            6514     4.12810E-03     3.73429E-03
            6537            6514     4.12810E-03     3.73429E-03
            6556            6514     4.12810E-03     3.73429E-03
            6555            6514     4.12810E-03     3.73429E-03
            6556            6515     4.29442E-03     3.85153E-03
            6557            6515     4.29442E-03     3.85153E-03
            6538            6515     4.29442E-03     3.85153E-03
            6539            6515     4.29442E-03     3.85153E-03
            6557            6516     4.47181E-03     3.98362E-03
            6539            6516     4.47181E-03     3.98362E-03
            6558            6516     4.47181E-03     3.98362E-03
            6540            6516     4.47181E-03     3.98362E-03
            6541            6517     4.65752E-03     4.12919E-03
            6540            6517     4.65752E-03     4.12919E-03
            6558            6517     4.65752E-03     4.12919E-03
            6559            6517     4.65752E-03     4.12919E-03
            6560            6518     4.85021E-03     4.28574E-03
            6559            6518     4.85021E-03     4.28574E-03
            6541            6518     4.85021E-03     4.28574E-03
            6542            6518     4.85021E-03     4.28574E-03
            6543            6519     5.04899E-03     4.44727E-03
            6542            6519     5.04899E-03     4.44727E-03
            6561            6519     5.04899E-03     4.44727E-03
            6560            6519     5.04899E-03     4.44727E-03
            6544            6520     5.23490E-03     4.60536E-03
            6543            6520     5.23490E-03     4.60536E-03
            6561            6520     5.23490E-03     4.60536E-03
            6562            6520     5.23490E-03     4.60536E-03
            6545            6521     5.39042E-03     4.71651E-03
            6544            6521     5.39042E-03     4.71651E-03
            6563            6521     5.39042E-03     4.71651E-03
            6562            6521     5.39042E-03     4.71651E-03
            6546            6522     5.32927E-03     4.62800E-03
            6545            6522     5.32927E-03     4.62800E-03
            6563            6522     5.32927E-03     4.62800E-03
            6564            6522     5.32927E-03     4.62800E-03
            6547            6523     4.68263E-03     3.97352E-03
            6546            6523     4.68263E-03     3.97352E-03
            6565            6523     4.68263E-03     3.97352E-03
            6564            6523     4.68263E-03     3.97352E-03
            6547            6524     3.08293E-03     2.94088E-03
            6565            6524     3.08293E-03     2.94088E-03
            6548            6524     3.08293E-03     2.94088E-03
            6566            6524     3.08293E-03     2.94088E-03


  Minimum                            59.9919E-06     137.597E-06
      At Element                            2325            5156
            Node                              40             768

  Maximum                            96.4983E-03     140.347E-03
      At Element                            3411            4049
            Node                             608              23

           Total                         159.939         163.828


Field Output reported at element nodes for region: A320-1.Region_2
   Computation algorithm: EXTRAPOLATE_COMPUTE_AVERAGE
   Averaged at nodes
   Averaging regions: ODB_REGIONS

   Element Label      Node Label         S.Mises         S.Mises
                                          @Loc 1          @Loc 2
-----------------------------------------------------------------
            2235               3     3.13858E-03     3.15747E-03
            1793               3     3.13858E-03     3.15747E-03
            2262               4     533.122E-06     532.352E-06
            3913               6     67.1628E-03     64.2657E-03
            2234               6     67.1628E-03     64.2657E-03
            3958               8     67.6030E-03     68.6860E-03
            3859               8     67.6030E-03     68.6860E-03
            3904              10     55.3174E-03     49.8860E-03
            5387              10     55.3174E-03     49.8860E-03
            5325              13     4.94307E-03     4.93392E-03
            5730              13     4.94307E-03     4.93392E-03
            5370              14     534.010E-06     537.608E-06
            5738              15     4.23823E-03     4.23231E-03
            5333              15     4.23823E-03     4.23231E-03
            1785              17     3.77570E-03     3.79719E-03
            2243              17     3.77570E-03     3.79719E-03
            2270              18     533.122E-06     532.352E-06
            2226              21     67.0525E-03     64.1919E-03
            3905              21     67.0525E-03     64.1919E-03
            3851              22     109.795E-03     69.2203E-03
            3950              22     109.795E-03     69.2203E-03
            3896              25     51.2065E-03     69.6533E-03
            5379              25     51.2065E-03     69.6533E-03
            5378              27     534.010E-06     537.608E-06
            2235              38     629.091E-06     623.318E-06
            2244              38     629.091E-06     623.318E-06
            2244              39     516.672E-06     522.656E-06
            2253              39     516.672E-06     522.656E-06
            2262              40     508.748E-06     511.984E-06
            2253              40     508.748E-06     511.984E-06
            2225             102     71.0540E-03     68.5382E-03
            2234             102     71.0540E-03     68.5382E-03
            2225             103     66.4071E-03     66.3060E-03
            2216             103     66.4071E-03     66.3060E-03
            2207             104     63.4513E-03     62.7546E-03
            2216             104     63.4513E-03     62.7546E-03
            2207             105     61.2324E-03     60.5535E-03
            2198             105     61.2324E-03     60.5535E-03
            2198             106     58.7860E-03     58.0653E-03
            2189             106     58.7860E-03     58.0653E-03
            2189             107     56.2876E-03     55.8530E-03
            2180             107     56.2876E-03     55.8530E-03
            2180             108     53.5391E-03     53.2250E-03
            2171             108     53.5391E-03     53.2250E-03
            2162             109     50.4550E-03     51.0805E-03
            2171             109     50.4550E-03     51.0805E-03
            2162             110     46.8408E-03     45.0502E-03
            2153             110     46.8408E-03     45.0502E-03
            2153             111     51.0421E-03     46.3386E-03
            2144             111     51.0421E-03     46.3386E-03
            2144             112     54.8915E-03     53.0033E-03
            2135             112     54.8915E-03     53.0033E-03
            2126             113     50.8025E-03     50.6690E-03
            2135             113     50.8025E-03     50.6690E-03
            2117             114     48.1552E-03     47.6204E-03
            2126             114     48.1552E-03     47.6204E-03
            2117             115     46.1780E-03     45.5855E-03
            2108             115     46.1780E-03     45.5855E-03
            2108             116     44.0187E-03     43.4492E-03
            2099             116     44.0187E-03     43.4492E-03
            2090             117     41.9394E-03     41.4233E-03
            2099             117     41.9394E-03     41.4233E-03
            2081             118     39.7449E-03     39.3986E-03
            2090             118     39.7449E-03     39.3986E-03
            2081             119     37.3769E-03     37.2041E-03
            2072             119     37.3769E-03     37.2041E-03
            2072             120     34.6682E-03     35.1863E-03
            2063             120     34.6682E-03     35.1863E-03
            2063             121     31.4490E-03     30.2370E-03
            2054             121     31.4490E-03     30.2370E-03
            2054             122     35.1615E-03     31.9232E-03
            2045             122     35.1615E-03     31.9232E-03
            2045             123     38.5985E-03     37.3320E-03
            2036             123     38.5985E-03     37.3320E-03
            2036             124     35.0638E-03     34.9326E-03
            2027             124     35.0638E-03     34.9326E-03
            2027             125     32.7114E-03     32.3454E-03
            2018             125     32.7114E-03     32.3454E-03
            2018             126     30.9296E-03     30.5296E-03
            2009             126     30.9296E-03     30.5296E-03
            2009             127     29.0299E-03     28.6660E-03
            2000             127     29.0299E-03     28.6660E-03
            1991             128     27.2115E-03     26.8951E-03
            2000             128     27.2115E-03     26.8951E-03
            1982             129     25.3047E-03     25.1246E-03
            1991             129     25.3047E-03     25.1246E-03
            1982             130     23.2901E-03     23.2493E-03
            1973             130     23.2901E-03     23.2493E-03
            1973             131     20.9749E-03     21.4337E-03
            1964             131     20.9749E-03     21.4337E-03
            1955             132     18.1818E-03     17.5521E-03
            1964             132     18.1818E-03     17.5521E-03
            1955             133     21.2692E-03     19.4159E-03
            1946             133     21.2692E-03     19.4159E-03
            1946             134     24.1975E-03     23.4882E-03
            1937             134     24.1975E-03     23.4882E-03
            1928             135     21.2248E-03     21.1149E-03
            1937             135     21.2248E-03     21.1149E-03
            1919             136     19.1968E-03     18.9903E-03
            1928             136     19.1968E-03     18.9903E-03
            1919             137     17.6498E-03     17.4262E-03
            1910             137     17.6498E-03     17.4262E-03
            1910             138     16.0510E-03     15.8712E-03
            1901             138     16.0510E-03     15.8712E-03
            1892             139     14.5447E-03     14.4079E-03
            1901             139     14.5447E-03     14.4079E-03
            1883             140     13.0021E-03     12.9704E-03
            1892             140     13.0021E-03     12.9704E-03
            1883             141     11.4333E-03     11.5230E-03
            1874             141     11.4333E-03     11.5230E-03
            1865             142     9.72961E-03     10.1421E-03
            1874             142     9.72961E-03     10.1421E-03
            1856             143     7.90663E-03     7.93614E-03
            1865             143     7.90663E-03     7.93614E-03
            1847             144     9.80600E-03     9.25666E-03
            1856             144     9.80600E-03     9.25666E-03
            1838             145     11.3064E-03     11.0590E-03
            1847             145     11.3064E-03     11.0590E-03
            1829             146     8.95549E-03     8.91872E-03
            1838             146     8.95549E-03     8.91872E-03
            1820             147     7.39269E-03     7.38846E-03
            1829             147     7.39269E-03     7.38846E-03
            1811             148     6.29220E-03     6.34094E-03
            1820             148     6.29220E-03     6.34094E-03
            1811             149     5.49278E-03     5.66934E-03
            1802             149     5.49278E-03     5.66934E-03
            1802             150     5.42627E-03     5.57507E-03
            1793             150     5.42627E-03     5.57507E-03
            3958             162     64.7057E-03     66.8912E-03
            3949             162     64.7057E-03     66.8912E-03
            3940             163     61.1430E-03     63.3954E-03
            3949             163     61.1430E-03     63.3954E-03
            3940             164     57.3077E-03     59.8777E-03
            3931             164     57.3077E-03     59.8777E-03
            3922             165     54.6416E-03     51.2183E-03
            3931             165     54.6416E-03     51.2183E-03
            3922             166     57.0352E-03     51.8140E-03
            3913             166     57.0352E-03     51.8140E-03
            3904             178     53.5051E-03     49.7312E-03
            3895             178     53.5051E-03     49.7312E-03
            3886             179     57.0403E-03     59.0535E-03
            3895             179     57.0403E-03     59.0535E-03
            3886             180     60.0708E-03     61.7830E-03
            3877             180     60.0708E-03     61.7830E-03
            3868             181     63.5324E-03     65.9202E-03
            3877             181     63.5324E-03     65.9202E-03
            3859             182     67.7336E-03     69.0832E-03
            3868             182     67.7336E-03     69.0832E-03
            5325             194     790.233E-06     775.372E-06
            5334             194     790.233E-06     775.372E-06
            5334             195     610.496E-06     612.815E-06
            5343             195     610.496E-06     612.815E-06
            5343             196     503.562E-06     509.094E-06
            5352             196     503.562E-06     509.094E-06
            5352             197     462.302E-06     473.587E-06
            5361             197     462.302E-06     473.587E-06
            5370             198     494.344E-06     503.544E-06
            5361             198     494.344E-06     503.544E-06
            5738             250     7.66263E-03     7.75710E-03
            5729             250     7.66263E-03     7.75710E-03
            5720             251     8.08562E-03     8.24251E-03
            5729             251     8.08562E-03     8.24251E-03
            5720             252     9.76635E-03     9.81348E-03
            5711             252     9.76635E-03     9.81348E-03
            5711             253     12.7313E-03     12.5235E-03
            5702             253     12.7313E-03     12.5235E-03
            5702             254     11.3743E-03     10.9357E-03
            5693             254     11.3743E-03     10.9357E-03
            5693             255     9.25178E-03     9.45019E-03
            5684             255     9.25178E-03     9.45019E-03
            5684             256     11.1632E-03     11.7083E-03
            5675             256     11.1632E-03     11.7083E-03
            5666             257     13.1778E-03     13.3412E-03
            5675             257     13.1778E-03     13.3412E-03
            5666             258     15.1227E-03     15.1199E-03
            5657             258     15.1227E-03     15.1199E-03
            5657             259     17.0653E-03     16.9262E-03
            5648             259     17.0653E-03     16.9262E-03
            5648             260     18.9873E-03     18.7863E-03
            5639             260     18.9873E-03     18.7863E-03
            5639             261     21.0411E-03     20.7797E-03
            5630             261     21.0411E-03     20.7797E-03
            5630             262     23.0475E-03     22.8095E-03
            5621             262     23.0475E-03     22.8095E-03
            5621             263     25.6965E-03     25.5528E-03
            5612             263     25.6965E-03     25.5528E-03
            5603             264     29.5542E-03     28.7067E-03
            5612             264     29.5542E-03     28.7067E-03
            5594             265     25.7173E-03     23.4535E-03
            5603             265     25.7173E-03     23.4535E-03
            5585             266     21.5979E-03     20.8056E-03
            5594             266     21.5979E-03     20.8056E-03
            5576             267     25.0591E-03     25.6667E-03
            5585             267     25.0591E-03     25.6667E-03
            5567             268     27.9516E-03     27.9156E-03
            5576             268     27.9516E-03     27.9156E-03
            5567             269     30.4574E-03     30.2733E-03
            5558             269     30.4574E-03     30.2733E-03
            5549             270     32.8250E-03     32.4078E-03
            5558             270     32.8250E-03     32.4078E-03
            5549             271     35.0860E-03     34.6521E-03
            5540             271     35.0860E-03     34.6521E-03
            5531             272     37.3381E-03     36.8238E-03
            5540             272     37.3381E-03     36.8238E-03
            5522             273     39.6818E-03     39.1779E-03
            5531             273     39.6818E-03     39.1779E-03
            5522             274     41.9064E-03     41.4455E-03
            5513             274     41.9064E-03     41.4455E-03
            5504             275     44.8867E-03     44.7153E-03
            5513             275     44.8867E-03     44.7153E-03
            5504             276     49.3556E-03     47.7390E-03
            5495             276     49.3556E-03     47.7390E-03
            5486             277     44.9183E-03     40.7721E-03
            5495             277     44.9183E-03     40.7721E-03
            5486             278     40.0713E-03     38.4786E-03
            5477             278     40.0713E-03     38.4786E-03
            5468             279     44.0339E-03     44.6943E-03
            5477             279     44.0339E-03     44.6943E-03
            5468             280     47.3934E-03     47.1972E-03
            5459             280     47.3934E-03     47.1972E-03
            5459             281     50.3287E-03     49.9115E-03
            5450             281     50.3287E-03     49.9115E-03
            5450             282     53.0442E-03     52.4097E-03
            5441             282     53.0442E-03     52.4097E-03
            5441             283     55.6119E-03     54.9048E-03
            5432             283     55.6119E-03     54.9048E-03
            5423             284     58.2712E-03     57.5347E-03
            5432             284     58.2712E-03     57.5347E-03
            5414             285     60.7063E-03     60.0495E-03
            5423             285     60.7063E-03     60.0495E-03
            5414             286     63.9985E-03     63.8253E-03
            5405             286     63.9985E-03     63.8253E-03
            5396             287     69.0811E-03     66.6633E-03
            5405             287     69.0811E-03     66.6633E-03
            5387             288     65.2078E-03     62.5523E-03
            5396             288     65.2078E-03     62.5523E-03
            2243             306     629.091E-06     623.318E-06
            2252             306     629.091E-06     623.318E-06
            2252             307     516.672E-06     522.656E-06
            2261             307     516.672E-06     522.656E-06
            2261             308     508.748E-06     511.984E-06
            2270             308     508.748E-06     511.984E-06
            1786             424     4.08443E-03     4.09249E-03
            2242             424     4.08443E-03     4.09249E-03
            2243             424     4.08443E-03     4.09249E-03
            1785             424     4.08443E-03     4.09249E-03
            1787             425     4.48505E-03     4.47215E-03
            2242             425     4.48505E-03     4.47215E-03
            2241             425     4.48505E-03     4.47215E-03
            1786             425     4.48505E-03     4.47215E-03
            2241             426     4.71166E-03     4.69006E-03
            2240             426     4.71166E-03     4.69006E-03
            1787             426     4.71166E-03     4.69006E-03
            1788             426     4.71166E-03     4.69006E-03
            2239             427     4.85709E-03     4.83406E-03
            2240             427     4.85709E-03     4.83406E-03
            1789             427     4.85709E-03     4.83406E-03
            1788             427     4.85709E-03     4.83406E-03
            2238             428     4.84228E-03     4.81226E-03
            1790             428     4.84228E-03     4.81226E-03
            2239             428     4.84228E-03     4.81226E-03
            1789             428     4.84228E-03     4.81226E-03
            1790             429     4.65858E-03     4.61739E-03
            2238             429     4.65858E-03     4.61739E-03
            2237             429     4.65858E-03     4.61739E-03
            1791             429     4.65858E-03     4.61739E-03
            1791             430     4.34678E-03     4.29832E-03
            1792             430     4.34678E-03     4.29832E-03
            2237             430     4.34678E-03     4.29832E-03
            2236             430     4.34678E-03     4.29832E-03
            1793             431     3.66586E-03     3.64967E-03
            2235             431     3.66586E-03     3.64967E-03
            2236             431     3.66586E-03     3.64967E-03
            1792             431     3.66586E-03     3.64967E-03
            2233             432     57.4886E-03     54.9540E-03
            3913             432     57.4886E-03     54.9540E-03
            3912             432     57.4886E-03     54.9540E-03
            2234             432     57.4886E-03     54.9540E-03
            2233             433     40.2602E-03     38.4428E-03
            2232             433     40.2602E-03     38.4428E-03
            3912             433     40.2602E-03     38.4428E-03
            3911             433     40.2602E-03     38.4428E-03
            3910             434     26.2677E-03     25.2647E-03
            3911             434     26.2677E-03     25.2647E-03
            2232             434     26.2677E-03     25.2647E-03
            2231             434     26.2677E-03     25.2647E-03
            3910             435     16.1376E-03     15.9407E-03
            2231             435     16.1376E-03     15.9407E-03
            3909             435     16.1376E-03     15.9407E-03
            2230             435     16.1376E-03     15.9407E-03
            2229             436     16.0965E-03     15.9389E-03
            2230             436     16.0965E-03     15.9389E-03
            3908             436     16.0965E-03     15.9389E-03
            3909             436     16.0965E-03     15.9389E-03
            2229             437     26.2229E-03     25.2779E-03
            3908             437     26.2229E-03     25.2779E-03
            2228             437     26.2229E-03     25.2779E-03
            3907             437     26.2229E-03     25.2779E-03
            2228             438     40.2602E-03     38.4788E-03
            2227             438     40.2602E-03     38.4788E-03
            3906             438     40.2602E-03     38.4788E-03
            3907             438     40.2602E-03     38.4788E-03
            2226             439     57.4372E-03     54.9380E-03
            2227             439     57.4372E-03     54.9380E-03
            3906             439     57.4372E-03     54.9380E-03
            3905             439     57.4372E-03     54.9380E-03
            2217             440     69.0296E-03     66.5821E-03
            2226             440     69.0296E-03     66.5821E-03
            2208             441     64.4968E-03     64.4049E-03
            2217             441     64.4968E-03     64.4049E-03
            2199             442     61.5764E-03     60.9008E-03
            2208             442     61.5764E-03     60.9008E-03
            2190             443     59.3615E-03     58.7026E-03
            2199             443     59.3615E-03     58.7026E-03
            2190             444     56.9194E-03     56.2201E-03
            2181             444     56.9194E-03     56.2201E-03
            2172             445     54.4280E-03     54.0130E-03
            2181             445     54.4280E-03     54.0130E-03
            2163             446     51.6899E-03     51.3983E-03
            2172             446     51.6899E-03     51.3983E-03
            2154             447     48.5953E-03     49.2367E-03
            2163             447     48.5953E-03     49.2367E-03
            2145             448     44.9099E-03     43.1980E-03
            2154             448     44.9099E-03     43.1980E-03
            2145             449     48.9951E-03     44.4404E-03
            2136             449     48.9951E-03     44.4404E-03
            2127             450     52.8660E-03     51.0480E-03
            2136             450     52.8660E-03     51.0480E-03
            2118             451     48.8906E-03     48.7686E-03
            2127             451     48.8906E-03     48.7686E-03
            2118             452     46.2803E-03     45.7682E-03
            2109             452     46.2803E-03     45.7682E-03
            2100             453     44.3045E-03     43.7354E-03
            2109             453     44.3045E-03     43.7354E-03
            2091             454     42.1510E-03     41.6032E-03
            2100             454     42.1510E-03     41.6032E-03
            2082             455     40.0776E-03     39.5824E-03
            2091             455     40.0776E-03     39.5824E-03
            2073             456     37.8922E-03     37.5666E-03
            2082             456     37.8922E-03     37.5666E-03
            2064             457     35.5423E-03     35.3922E-03
            2073             457     35.5423E-03     35.3922E-03
            2064             458     32.8318E-03     33.3685E-03
            2055             458     32.8318E-03     33.3685E-03
            2055             459     29.5628E-03     28.4366E-03
            2046             459     29.5628E-03     28.4366E-03
            2046             460     33.1446E-03     30.0612E-03
            2037             460     33.1446E-03     30.0612E-03
            2037             461     36.5784E-03     35.3825E-03
            2028             461     36.5784E-03     35.3825E-03
            2028             462     33.1627E-03     33.0441E-03
            2019             462     33.1627E-03     33.0441E-03
            2019             463     30.8525E-03     30.5105E-03
            2010             463     30.8525E-03     30.5105E-03
            2010             464     29.0771E-03     28.7017E-03
            2001             464     29.0771E-03     28.7017E-03
            2001             465     27.1886E-03     26.8470E-03
            1992             465     27.1886E-03     26.8470E-03
            1983             466     25.3821E-03     25.0871E-03
            1992             466     25.3821E-03     25.0871E-03
            1983             467     23.4935E-03     23.3342E-03
            1974             467     23.4935E-03     23.3342E-03
            1974             468     21.5092E-03     21.4932E-03
            1965             468     21.5092E-03     21.4932E-03
            1956             469     19.2198E-03     19.7009E-03
            1965             469     19.2198E-03     19.7009E-03
            1956             470     16.4419E-03     15.9188E-03
            1947             470     16.4419E-03     15.9188E-03
            1947             471     19.3538E-03     17.6747E-03
            1938             471     19.3538E-03     17.6747E-03
            1929             472     22.1981E-03     21.5610E-03
            1938             472     22.1981E-03     21.5610E-03
            1929             473     19.3600E-03     19.2667E-03
            1920             473     19.3600E-03     19.2667E-03
            1911             474     17.3912E-03     17.2128E-03
            1920             474     17.3912E-03     17.2128E-03
            1902             475     15.8701E-03     15.6748E-03
            1911             475     15.8701E-03     15.6748E-03
            1902             476     14.3068E-03     14.1516E-03
            1893             476     14.3068E-03     14.1516E-03
            1884             477     12.8443E-03     12.7308E-03
            1893             477     12.8443E-03     12.7308E-03
            1875             478     11.3712E-03     11.3595E-03
            1884             478     11.3712E-03     11.3595E-03
            1866             479     9.90887E-03     10.0279E-03
            1875             479     9.90887E-03     10.0279E-03
            1866             480     8.41532E-03     8.84058E-03
            1857             480     8.41532E-03     8.84058E-03
            1848             481     7.08116E-03     7.28123E-03
            1857             481     7.08116E-03     7.28123E-03
            1839             482     8.57636E-03     8.26870E-03
            1848             482     8.57636E-03     8.26870E-03
            1839             483     9.50209E-03     9.31607E-03
            1830             483     9.50209E-03     9.31607E-03
            1830             484     7.44307E-03     7.42367E-03
            1821             484     7.44307E-03     7.42367E-03
            1812             485     6.17888E-03     6.18915E-03
            1821             485     6.17888E-03     6.18915E-03
            1812             486     5.46489E-03     5.52676E-03
            1803             486     5.46489E-03     5.52676E-03
            1794             487     5.31550E-03     5.45414E-03
            1803             487     5.31550E-03     5.45414E-03
            1794             488     6.19099E-03     6.29074E-03
            1785             488     6.19099E-03     6.29074E-03
            2269             489     613.643E-06     615.529E-06
            2270             489     613.643E-06     615.529E-06
            2269             490     706.635E-06     708.275E-06
            2268             490     706.635E-06     708.275E-06
            2267             491     742.442E-06     743.664E-06
            2268             491     742.442E-06     743.664E-06
            2267             492     754.300E-06     757.362E-06
            2266             492     754.300E-06     757.362E-06
            2266             493     754.300E-06     757.362E-06
            2265             493     754.300E-06     757.362E-06
            2265             494     742.442E-06     743.664E-06
            2264             494     742.442E-06     743.664E-06
            2264             495     706.635E-06     708.275E-06
            2263             495     706.635E-06     708.275E-06
            2262             496     613.643E-06     615.529E-06
            2263             496     613.643E-06     615.529E-06
            3905             520     57.0332E-03     75.1823E-03
            3914             520     57.0332E-03     75.1823E-03
            3914             521     66.7210E-03     80.3624E-03
            3923             521     66.7210E-03     80.3624E-03
            3932             522     80.7089E-03     75.5551E-03
            3923             522     80.7089E-03     75.5551E-03
            3932             523     79.5677E-03     84.4819E-03
            3941             523     79.5677E-03     84.4819E-03
            3941             524     94.7229E-03     79.8335E-03
            3950             524     94.7229E-03     79.8335E-03
            3951             609     92.5906E-03     58.5547E-03
            3851             609     92.5906E-03     58.5547E-03
            3852             609     92.5906E-03     58.5547E-03
            3950             609     92.5906E-03     58.5547E-03
            3951             610     64.8573E-03     39.7460E-03
            3952             610     64.8573E-03     39.7460E-03
            3853             610     64.8573E-03     39.7460E-03
            3852             610     64.8573E-03     39.7460E-03
            3952             611     45.5267E-03     25.7165E-03
            3854             611     45.5267E-03     25.7165E-03
            3953             611     45.5267E-03     25.7165E-03
            3853             611     45.5267E-03     25.7165E-03
            3953             612     28.2477E-03     15.3595E-03
            3855             612     28.2477E-03     15.3595E-03
            3954             612     28.2477E-03     15.3595E-03
            3854             612     28.2477E-03     15.3595E-03
            3955             613     15.0509E-03     14.8316E-03
            3855             613     15.0509E-03     14.8316E-03
            3856             613     15.0509E-03     14.8316E-03
            3954             613     15.0509E-03     14.8316E-03
            3856             614     15.6994E-03     24.5366E-03
            3955             614     15.6994E-03     24.5366E-03
            3857             614     15.6994E-03     24.5366E-03
            3956             614     15.6994E-03     24.5366E-03
            3956             615     30.6209E-03     37.8682E-03
            3858             615     30.6209E-03     37.8682E-03
            3857             615     30.6209E-03     37.8682E-03
            3957             615     30.6209E-03     37.8682E-03
            3957             616     53.8888E-03     57.0617E-03
            3859             616     53.8888E-03     57.0617E-03
            3958             616     53.8888E-03     57.0617E-03
            3858             616     53.8888E-03     57.0617E-03
            5386             617     49.5744E-03     44.0469E-03
            3904             617     49.5744E-03     44.0469E-03
            3903             617     49.5744E-03     44.0469E-03
            5387             617     49.5744E-03     44.0469E-03
            3903             618     38.2815E-03     33.4766E-03
            5385             618     38.2815E-03     33.4766E-03
            5386             618     38.2815E-03     33.4766E-03
            3902             618     38.2815E-03     33.4766E-03
            5384             619     27.8041E-03     25.2286E-03
            3901             619     27.8041E-03     25.2286E-03
            3902             619     27.8041E-03     25.2286E-03
            5385             619     27.8041E-03     25.2286E-03
            5383             620     20.0076E-03     20.6075E-03
            5384             620     20.0076E-03     20.6075E-03
            3901             620     20.0076E-03     20.6075E-03
            3900             620     20.0076E-03     20.6075E-03
            5383             621     19.1521E-03     23.6938E-03
            3900             621     19.1521E-03     23.6938E-03
            5382             621     19.1521E-03     23.6938E-03
            3899             621     19.1521E-03     23.6938E-03
            5381             622     26.1934E-03     33.5570E-03
            5382             622     26.1934E-03     33.5570E-03
            3898             622     26.1934E-03     33.5570E-03
            3899             622     26.1934E-03     33.5570E-03
            3898             623     35.9369E-03     45.8221E-03
            5380             623     35.9369E-03     45.8221E-03
            3897             623     35.9369E-03     45.8221E-03
            5381             623     35.9369E-03     45.8221E-03
            3896             624     45.9296E-03     61.0339E-03
            5379             624     45.9296E-03     61.0339E-03
            5380             624     45.9296E-03     61.0339E-03
            3897             624     45.9296E-03     61.0339E-03
            3887             625     62.4633E-03     74.2891E-03
            3896             625     62.4633E-03     74.2891E-03
            3887             626     74.7949E-03     72.7276E-03
            3878             626     74.7949E-03     72.7276E-03
            3869             627     77.2123E-03     76.5698E-03
            3878             627     77.2123E-03     76.5698E-03
            3860             628     80.7647E-03     82.5348E-03
            3869             628     80.7647E-03     82.5348E-03
            3860             629     93.8015E-03     80.5408E-03
            3851             629     93.8015E-03     80.5408E-03
            5388             636     62.8126E-03     60.2572E-03
            5379             636     62.8126E-03     60.2572E-03
            5397             637     66.5341E-03     64.2056E-03
            5388             637     66.5341E-03     64.2056E-03
            5406             638     61.5955E-03     61.4365E-03
            5397             638     61.5955E-03     61.4365E-03
            5415             639     58.3514E-03     57.7223E-03
            5406             639     58.3514E-03     57.7223E-03
            5424             640     55.9191E-03     55.2115E-03
            5415             640     55.9191E-03     55.2115E-03
            5433             641     53.2675E-03     52.5873E-03
            5424             641     53.2675E-03     52.5873E-03
            5442             642     50.7072E-03     50.0988E-03
            5433             642     50.7072E-03     50.0988E-03
            5451             643     48.0028E-03     47.6117E-03
            5442             643     48.0028E-03     47.6117E-03
            5460             644     45.0890E-03     44.9212E-03
            5451             644     45.0890E-03     44.9212E-03
            5460             645     41.7250E-03     42.4091E-03
            5469             645     41.7250E-03     42.4091E-03
            5478             646     37.6961E-03     36.2117E-03
            5469             646     37.6961E-03     36.2117E-03
            5487             647     42.3791E-03     38.4292E-03
            5478             647     42.3791E-03     38.4292E-03
            5496             648     46.8137E-03     45.2888E-03
            5487             648     46.8137E-03     45.2888E-03
            5496             649     42.4942E-03     42.3403E-03
            5505             649     42.4942E-03     42.3403E-03
            5514             650     39.5656E-03     39.1371E-03
            5505             650     39.5656E-03     39.1371E-03
            5514             651     37.3501E-03     36.8783E-03
            5523             651     37.3501E-03     36.8783E-03
            5523             652     35.0145E-03     34.5323E-03
            5532             652     35.0145E-03     34.5323E-03
            5541             653     32.7776E-03     32.3698E-03
            5532             653     32.7776E-03     32.3698E-03
            5550             654     30.5311E-03     30.1418E-03
            5541             654     30.5311E-03     30.1418E-03
            5550             655     28.1938E-03     28.0342E-03
            5559             655     28.1938E-03     28.0342E-03
            5559             656     25.7292E-03     25.7251E-03
            5568             656     25.7292E-03     25.7251E-03
            5577             657     22.8800E-03     23.5167E-03
            5568             657     22.8800E-03     23.5167E-03
            5586             658     19.4593E-03     18.8111E-03
            5577             658     19.4593E-03     18.8111E-03
            5595             659     23.3433E-03     21.3084E-03
            5586             659     23.3433E-03     21.3084E-03
            5604             660     27.0509E-03     26.2956E-03
            5595             660     27.0509E-03     26.2956E-03
            5604             661     23.3708E-03     23.2496E-03
            5613             661     23.3708E-03     23.2496E-03
            5613             662     20.8067E-03     20.6048E-03
            5622             662     20.8067E-03     20.6048E-03
            5622             663     18.8449E-03     18.6199E-03
            5631             663     18.8449E-03     18.6199E-03
            5631             664     16.8509E-03     16.6810E-03
            5640             664     16.8509E-03     16.6810E-03
            5640             665     15.0051E-03     14.8957E-03
            5649             665     15.0051E-03     14.8957E-03
            5658             666     13.1848E-03     13.2058E-03
            5649             666     13.1848E-03     13.2058E-03
            5658             667     11.4272E-03     11.6269E-03
            5667             667     11.4272E-03     11.6269E-03
            5676             668     9.79997E-03     10.3441E-03
            5667             668     9.79997E-03     10.3441E-03
            5685             669     8.73315E-03     9.10483E-03
            5676             669     8.73315E-03     9.10483E-03
            5694             670     10.2502E-03     10.0796E-03
            5685             670     10.2502E-03     10.0796E-03
            5703             671     10.7535E-03     10.6058E-03
            5694             671     10.7535E-03     10.6058E-03
            5703             672     8.41469E-03     8.47088E-03
            5712             672     8.41469E-03     8.47088E-03
            5721             673     7.57025E-03     7.69699E-03
            5712             673     7.57025E-03     7.69699E-03
            5730             674     8.36884E-03     8.41954E-03
            5721             674     8.36884E-03     8.41954E-03
            5333             765     790.233E-06     775.372E-06
            5342             765     790.233E-06     775.372E-06
            5342             766     610.496E-06     612.815E-06
            5351             766     610.496E-06     612.815E-06
            5351             767     503.562E-06     509.094E-06
            5360             767     503.562E-06     509.094E-06
            5369             768     462.302E-06     473.587E-06
            5360             768     462.302E-06     473.587E-06
            5378             769     494.344E-06     503.544E-06
            5369             769     494.344E-06     503.544E-06
            5326             792     5.44983E-03     5.44101E-03
            5325             792     5.44983E-03     5.44101E-03
            5731             792     5.44983E-03     5.44101E-03
            5730             792     5.44983E-03     5.44101E-03
            5327             793     6.10273E-03     6.09040E-03
            5731             793     6.10273E-03     6.09040E-03
            5732             793     6.10273E-03     6.09040E-03
            5326             793     6.10273E-03     6.09040E-03
            5327             794     6.39863E-03     6.38571E-03
            5328             794     6.39863E-03     6.38571E-03
            5732             794     6.39863E-03     6.38571E-03
            5733             794     6.39863E-03     6.38571E-03
            5734             795     6.59786E-03     6.59039E-03
            5328             795     6.59786E-03     6.59039E-03
            5733             795     6.59786E-03     6.59039E-03
            5329             795     6.59786E-03     6.59039E-03
            5735             796     6.58935E-03     6.57585E-03
            5330             796     6.58935E-03     6.57585E-03
            5329             796     6.58935E-03     6.57585E-03
            5734             796     6.58935E-03     6.57585E-03
            5735             797     6.36499E-03     6.33547E-03
            5331             797     6.36499E-03     6.33547E-03
            5736             797     6.36499E-03     6.33547E-03
            5330             797     6.36499E-03     6.33547E-03
            5332             798     5.98527E-03     5.93924E-03
            5331             798     5.98527E-03     5.93924E-03
            5737             798     5.98527E-03     5.93924E-03
            5736             798     5.98527E-03     5.93924E-03
            5737             799     5.00509E-03     4.97473E-03
            5738             799     5.00509E-03     4.97473E-03
            5333             799     5.00509E-03     4.97473E-03
            5332             799     5.00509E-03     4.97473E-03
            5378             800     603.521E-06     606.129E-06
            5377             800     603.521E-06     606.129E-06
            5376             801     691.570E-06     691.031E-06
            5377             801     691.570E-06     691.031E-06
            5376             802     740.568E-06     738.878E-06
            5375             802     740.568E-06     738.878E-06
            5375             803     766.204E-06     764.909E-06
            5374             803     766.204E-06     764.909E-06
            5374             804     766.204E-06     764.909E-06
            5373             804     766.204E-06     764.909E-06
            5372             805     740.568E-06     738.878E-06
            5373             805     740.568E-06     738.878E-06
            5371             806     691.570E-06     691.031E-06
            5372             806     691.570E-06     691.031E-06
            5370             807     603.521E-06     606.129E-06
            5371             807     603.521E-06     606.129E-06
            1795            2369     7.16146E-03     7.19040E-03
            1794            2369     7.16146E-03     7.19040E-03
            1785            2369     7.16146E-03     7.19040E-03
            1786            2369     7.16146E-03     7.19040E-03
            1795            2370     8.39013E-03     8.33624E-03
            1786            2370     8.39013E-03     8.33624E-03
            1796            2370     8.39013E-03     8.33624E-03
            1787            2370     8.39013E-03     8.33624E-03
            1797            2371     8.87068E-03     8.80305E-03
            1788            2371     8.87068E-03     8.80305E-03
            1787            2371     8.87068E-03     8.80305E-03
            1796            2371     8.87068E-03     8.80305E-03
            1797            2372     9.12395E-03     9.04780E-03
            1789            2372     9.12395E-03     9.04780E-03
            1798            2372     9.12395E-03     9.04780E-03
            1788            2372     9.12395E-03     9.04780E-03
            1789            2373     9.11371E-03     9.02648E-03
            1790            2373     9.11371E-03     9.02648E-03
            1798            2373     9.11371E-03     9.02648E-03
            1799            2373     9.11371E-03     9.02648E-03
            1791            2374     8.83143E-03     8.73114E-03
            1800            2374     8.83143E-03     8.73114E-03
            1790            2374     8.83143E-03     8.73114E-03
            1799            2374     8.83143E-03     8.73114E-03
            1792            2375     8.22127E-03     8.12081E-03
            1801            2375     8.22127E-03     8.12081E-03
            1800            2375     8.22127E-03     8.12081E-03
            1791            2375     8.22127E-03     8.12081E-03
            1802            2376     6.63925E-03     6.66773E-03
            1801            2376     6.63925E-03     6.66773E-03
            1792            2376     6.63925E-03     6.66773E-03
            1793            2376     6.63925E-03     6.66773E-03
            1795            2377     6.60542E-03     6.66317E-03
            1794            2377     6.60542E-03     6.66317E-03
            1803            2377     6.60542E-03     6.66317E-03
            1804            2377     6.60542E-03     6.66317E-03
            1796            2378     8.44570E-03     8.39685E-03
            1804            2378     8.44570E-03     8.39685E-03
            1795            2378     8.44570E-03     8.39685E-03
            1805            2378     8.44570E-03     8.39685E-03
            1805            2379     9.15897E-03     9.07885E-03
            1797            2379     9.15897E-03     9.07885E-03
            1806            2379     9.15897E-03     9.07885E-03
            1796            2379     9.15897E-03     9.07885E-03
            1797            2380     9.42634E-03     9.33602E-03
            1806            2380     9.42634E-03     9.33602E-03
            1798            2380     9.42634E-03     9.33602E-03
            1807            2380     9.42634E-03     9.33602E-03
            1807            2381     9.46019E-03     9.36499E-03
            1799            2381     9.46019E-03     9.36499E-03
            1798            2381     9.46019E-03     9.36499E-03
            1808            2381     9.46019E-03     9.36499E-03
            1808            2382     9.24309E-03     9.15174E-03
            1799            2382     9.24309E-03     9.15174E-03
            1809            2382     9.24309E-03     9.15174E-03
            1800            2382     9.24309E-03     9.15174E-03
            1810            2383     8.53326E-03     8.49154E-03
            1801            2383     8.53326E-03     8.49154E-03
            1809            2383     8.53326E-03     8.49154E-03
            1800            2383     8.53326E-03     8.49154E-03
            1811            2384     6.73136E-03     6.82155E-03
            1802            2384     6.73136E-03     6.82155E-03
            1801            2384     6.73136E-03     6.82155E-03
            1810            2384     6.73136E-03     6.82155E-03
            1803            2385     6.54100E-03     6.58974E-03
            1812            2385     6.54100E-03     6.58974E-03
            1813            2385     6.54100E-03     6.58974E-03
            1804            2385     6.54100E-03     6.58974E-03
            1804            2386     8.31062E-03     8.30967E-03
            1805            2386     8.31062E-03     8.30967E-03
            1814            2386     8.31062E-03     8.30967E-03
            1813            2386     8.31062E-03     8.30967E-03
            1805            2387     9.29794E-03     9.25813E-03
            1815            2387     9.29794E-03     9.25813E-03
            1806            2387     9.29794E-03     9.25813E-03
            1814            2387     9.29794E-03     9.25813E-03
            1806            2388     9.66923E-03     9.63302E-03
            1816            2388     9.66923E-03     9.63302E-03
            1807            2388     9.66923E-03     9.63302E-03
            1815            2388     9.66923E-03     9.63302E-03
            1807            2389     9.74530E-03     9.71342E-03
            1817            2389     9.74530E-03     9.71342E-03
            1816            2389     9.74530E-03     9.71342E-03
            1808            2389     9.74530E-03     9.71342E-03
            1808            2390     9.51402E-03     9.48985E-03
            1809            2390     9.51402E-03     9.48985E-03
            1818            2390     9.51402E-03     9.48985E-03
            1817            2390     9.51402E-03     9.48985E-03
            1819            2391     8.69086E-03     8.71996E-03
            1810            2391     8.69086E-03     8.71996E-03
            1818            2391     8.69086E-03     8.71996E-03
            1809            2391     8.69086E-03     8.71996E-03
            1820            2392     7.19488E-03     7.25580E-03
            1819            2392     7.19488E-03     7.25580E-03
            1810            2392     7.19488E-03     7.25580E-03
            1811            2392     7.19488E-03     7.25580E-03
            1813            2393     6.99835E-03     7.00852E-03
            1812            2393     6.99835E-03     7.00852E-03
            1822            2393     6.99835E-03     7.00852E-03
            1821            2393     6.99835E-03     7.00852E-03
            1822            2394     8.41245E-03     8.43274E-03
            1813            2394     8.41245E-03     8.43274E-03
            1823            2394     8.41245E-03     8.43274E-03
            1814            2394     8.41245E-03     8.43274E-03
            1823            2395     9.28275E-03     9.32208E-03
            1824            2395     9.28275E-03     9.32208E-03
            1815            2395     9.28275E-03     9.32208E-03
            1814            2395     9.28275E-03     9.32208E-03
            1816            2396     9.63321E-03     9.67946E-03
            1815            2396     9.63321E-03     9.67946E-03
            1824            2396     9.63321E-03     9.67946E-03
            1825            2396     9.63321E-03     9.67946E-03
            1817            2397     9.74235E-03     9.79983E-03
            1825            2397     9.74235E-03     9.79983E-03
            1826            2397     9.74235E-03     9.79983E-03
            1816            2397     9.74235E-03     9.79983E-03
            1817            2398     9.64085E-03     9.71126E-03
            1827            2398     9.64085E-03     9.71126E-03
            1826            2398     9.64085E-03     9.71126E-03
            1818            2398     9.64085E-03     9.71126E-03
            1827            2399     9.06316E-03     9.11048E-03
            1828            2399     9.06316E-03     9.11048E-03
            1819            2399     9.06316E-03     9.11048E-03
            1818            2399     9.06316E-03     9.11048E-03
            1820            2400     8.00701E-03     8.01711E-03
            1828            2400     8.00701E-03     8.01711E-03
            1829            2400     8.00701E-03     8.01711E-03
            1819            2400     8.00701E-03     8.01711E-03
            1821            2401     7.96373E-03     7.96738E-03
            1822            2401     7.96373E-03     7.96738E-03
            1830            2401     7.96373E-03     7.96738E-03
            1831            2401     7.96373E-03     7.96738E-03
            1822            2402     8.71804E-03     8.78636E-03
            1832            2402     8.71804E-03     8.78636E-03
            1823            2402     8.71804E-03     8.78636E-03
            1831            2402     8.71804E-03     8.78636E-03
            1833            2403     9.03663E-03     9.14220E-03
            1824            2403     9.03663E-03     9.14220E-03
            1832            2403     9.03663E-03     9.14220E-03
            1823            2403     9.03663E-03     9.14220E-03
            1833            2404     9.25851E-03     9.36177E-03
            1825            2404     9.25851E-03     9.36177E-03
            1834            2404     9.25851E-03     9.36177E-03
            1824            2404     9.25851E-03     9.36177E-03
            1835            2405     9.40611E-03     9.51792E-03
            1826            2405     9.40611E-03     9.51792E-03
            1834            2405     9.40611E-03     9.51792E-03
            1825            2405     9.40611E-03     9.51792E-03
            1836            2406     9.50178E-03     9.63178E-03
            1827            2406     9.50178E-03     9.63178E-03
            1826            2406     9.50178E-03     9.63178E-03
            1835            2406     9.50178E-03     9.63178E-03
            1827            2407     9.58463E-03     9.68151E-03
            1837            2407     9.58463E-03     9.68151E-03
            1828            2407     9.58463E-03     9.68151E-03
            1836            2407     9.58463E-03     9.68151E-03
            1837            2408     9.26898E-03     9.27662E-03
            1828            2408     9.26898E-03     9.27662E-03
            1838            2408     9.26898E-03     9.27662E-03
            1829            2408     9.26898E-03     9.27662E-03
            1840            2409     9.17615E-03     9.10600E-03
            1831            2409     9.17615E-03     9.10600E-03
            1839            2409     9.17615E-03     9.10600E-03
            1830            2409     9.17615E-03     9.10600E-03
            1841            2410     8.61387E-03     8.67652E-03
            1831            2410     8.61387E-03     8.67652E-03
            1840            2410     8.61387E-03     8.67652E-03
            1832            2410     8.61387E-03     8.67652E-03
            1832            2411     8.48196E-03     8.56434E-03
            1841            2411     8.48196E-03     8.56434E-03
            1842            2411     8.48196E-03     8.56434E-03
            1833            2411     8.48196E-03     8.56434E-03
            1842            2412     8.63495E-03     8.72244E-03
            1833            2412     8.63495E-03     8.72244E-03
            1843            2412     8.63495E-03     8.72244E-03
            1834            2412     8.63495E-03     8.72244E-03
            1844            2413     8.81690E-03     8.90250E-03
            1834            2413     8.81690E-03     8.90250E-03
            1843            2413     8.81690E-03     8.90250E-03
            1835            2413     8.81690E-03     8.90250E-03
            1844            2414     9.03846E-03     9.11207E-03
            1835            2414     9.03846E-03     9.11207E-03
            1845            2414     9.03846E-03     9.11207E-03
            1836            2414     9.03846E-03     9.11207E-03
            1845            2415     9.61988E-03     9.66673E-03
            1836            2415     9.61988E-03     9.66673E-03
            1846            2415     9.61988E-03     9.66673E-03
            1837            2415     9.61988E-03     9.66673E-03
            1838            2416     10.7097E-03     10.6000E-03
            1837            2416     10.7097E-03     10.6000E-03
            1847            2416     10.7097E-03     10.6000E-03
            1846            2416     10.7097E-03     10.6000E-03
            1849            2417     8.90695E-03     8.61243E-03
            1840            2417     8.90695E-03     8.61243E-03
            1848            2417     8.90695E-03     8.61243E-03
            1839            2417     8.90695E-03     8.61243E-03
            1849            2418     9.19153E-03     8.97185E-03
            1840            2418     9.19153E-03     8.97185E-03
            1850            2418     9.19153E-03     8.97185E-03
            1841            2418     9.19153E-03     8.97185E-03
            1841            2419     9.34383E-03     9.21223E-03
            1851            2419     9.34383E-03     9.21223E-03
            1842            2419     9.34383E-03     9.21223E-03
            1850            2419     9.34383E-03     9.21223E-03
            1852            2420     9.56354E-03     9.46819E-03
            1843            2420     9.56354E-03     9.46819E-03
            1851            2420     9.56354E-03     9.46819E-03
            1842            2420     9.56354E-03     9.46819E-03
            1843            2421     9.69802E-03     9.58047E-03
            1853            2421     9.69802E-03     9.58047E-03
            1844            2421     9.69802E-03     9.58047E-03
            1852            2421     9.69802E-03     9.58047E-03
            1844            2422     9.76433E-03     9.56426E-03
            1854            2422     9.76433E-03     9.56426E-03
            1845            2422     9.76433E-03     9.56426E-03
            1853            2422     9.76433E-03     9.56426E-03
            1845            2423     9.89432E-03     9.55124E-03
            1854            2423     9.89432E-03     9.55124E-03
            1846            2423     9.89432E-03     9.55124E-03
            1855            2423     9.89432E-03     9.55124E-03
            1847            2424     9.93853E-03     9.44605E-03
            1846            2424     9.93853E-03     9.44605E-03
            1856            2424     9.93853E-03     9.44605E-03
            1855            2424     9.93853E-03     9.44605E-03
            1848            2425     8.51429E-03     8.42667E-03
            1849            2425     8.51429E-03     8.42667E-03
            1857            2425     8.51429E-03     8.42667E-03
            1858            2425     8.51429E-03     8.42667E-03
            1858            2426     10.2287E-03     9.83534E-03
            1859            2426     10.2287E-03     9.83534E-03
            1850            2426     10.2287E-03     9.83534E-03
            1849            2426     10.2287E-03     9.83534E-03
            1851            2427     10.6628E-03     10.2702E-03
            1860            2427     10.6628E-03     10.2702E-03
            1859            2427     10.6628E-03     10.2702E-03
            1850            2427     10.6628E-03     10.2702E-03
            1860            2428     10.8705E-03     10.4876E-03
            1852            2428     10.8705E-03     10.4876E-03
            1851            2428     10.8705E-03     10.4876E-03
            1861            2428     10.8705E-03     10.4876E-03
            1852            2429     10.9699E-03     10.5663E-03
            1861            2429     10.9699E-03     10.5663E-03
            1853            2429     10.9699E-03     10.5663E-03
            1862            2429     10.9699E-03     10.5663E-03
            1863            2430     10.9612E-03     10.5075E-03
            1854            2430     10.9612E-03     10.5075E-03
            1853            2430     10.9612E-03     10.5075E-03
            1862            2430     10.9612E-03     10.5075E-03
            1864            2431     10.6906E-03     10.2059E-03
            1855            2431     10.6906E-03     10.2059E-03
            1854            2431     10.6906E-03     10.2059E-03
            1863            2431     10.6906E-03     10.2059E-03
            1855            2432     9.18985E-03     8.96603E-03
            1864            2432     9.18985E-03     8.96603E-03
            1856            2432     9.18985E-03     8.96603E-03
            1865            2432     9.18985E-03     8.96603E-03
            1858            2433     9.27183E-03     9.50986E-03
            1867            2433     9.27183E-03     9.50986E-03
            1857            2433     9.27183E-03     9.50986E-03
            1866            2433     9.27183E-03     9.50986E-03
            1858            2434     10.5042E-03     10.3440E-03
            1868            2434     10.5042E-03     10.3440E-03
            1867            2434     10.5042E-03     10.3440E-03
            1859            2434     10.5042E-03     10.3440E-03
            1860            2435     10.9194E-03     10.4899E-03
            1868            2435     10.9194E-03     10.4899E-03
            1859            2435     10.9194E-03     10.4899E-03
            1869            2435     10.9194E-03     10.4899E-03
            1870            2436     11.0381E-03     10.5248E-03
            1861            2436     11.0381E-03     10.5248E-03
            1869            2436     11.0381E-03     10.5248E-03
            1860            2436     11.0381E-03     10.5248E-03
            1871            2437     11.1835E-03     10.6745E-03
            1861            2437     11.1835E-03     10.6745E-03
            1862            2437     11.1835E-03     10.6745E-03
            1870            2437     11.1835E-03     10.6745E-03
            1872            2438     11.3414E-03     10.9273E-03
            1863            2438     11.3414E-03     10.9273E-03
            1871            2438     11.3414E-03     10.9273E-03
            1862            2438     11.3414E-03     10.9273E-03
            1872            2439     11.1990E-03     11.0790E-03
            1873            2439     11.1990E-03     11.0790E-03
            1864            2439     11.1990E-03     11.0790E-03
            1863            2439     11.1990E-03     11.0790E-03
            1873            2440     10.3473E-03     10.6080E-03
            1874            2440     10.3473E-03     10.6080E-03
            1865            2440     10.3473E-03     10.6080E-03
            1864            2440     10.3473E-03     10.6080E-03
            1866            2441     10.1514E-03     10.3070E-03
            1876            2441     10.1514E-03     10.3070E-03
            1875            2441     10.1514E-03     10.3070E-03
            1867            2441     10.1514E-03     10.3070E-03
            1867            2442     10.7109E-03     10.7342E-03
            1876            2442     10.7109E-03     10.7342E-03
            1877            2442     10.7109E-03     10.7342E-03
            1868            2442     10.7109E-03     10.7342E-03
            1869            2443     11.1445E-03     10.8682E-03
            1878            2443     11.1445E-03     10.8682E-03
            1877            2443     11.1445E-03     10.8682E-03
            1868            2443     11.1445E-03     10.8682E-03
            1870            2444     11.3173E-03     10.8872E-03
            1878            2444     11.3173E-03     10.8872E-03
            1879            2444     11.3173E-03     10.8872E-03
            1869            2444     11.3173E-03     10.8872E-03
            1879            2445     11.4999E-03     11.0882E-03
            1870            2445     11.4999E-03     11.0882E-03
            1871            2445     11.4999E-03     11.0882E-03
            1880            2445     11.4999E-03     11.0882E-03
            1871            2446     11.6873E-03     11.4645E-03
            1880            2446     11.6873E-03     11.4645E-03
            1872            2446     11.6873E-03     11.4645E-03
            1881            2446     11.6873E-03     11.4645E-03
            1872            2447     11.6273E-03     11.7109E-03
            1873            2447     11.6273E-03     11.7109E-03
            1882            2447     11.6273E-03     11.7109E-03
            1881            2447     11.6273E-03     11.7109E-03
            1873            2448     11.4698E-03     11.6361E-03
            1874            2448     11.4698E-03     11.6361E-03
            1883            2448     11.4698E-03     11.6361E-03
            1882            2448     11.4698E-03     11.6361E-03
            1885            2449     11.2083E-03     11.2475E-03
            1876            2449     11.2083E-03     11.2475E-03
            1884            2449     11.2083E-03     11.2475E-03
            1875            2449     11.2083E-03     11.2475E-03
            1877            2450     11.1208E-03     11.1528E-03
            1885            2450     11.1208E-03     11.1528E-03
            1876            2450     11.1208E-03     11.1528E-03
            1886            2450     11.1208E-03     11.1528E-03
            1878            2451     11.3072E-03     11.1860E-03
            1877            2451     11.3072E-03     11.1860E-03
            1887            2451     11.3072E-03     11.1860E-03
            1886            2451     11.3072E-03     11.1860E-03
            1887            2452     11.5277E-03     11.2750E-03
            1888            2452     11.5277E-03     11.2750E-03
            1878            2452     11.5277E-03     11.2750E-03
            1879            2452     11.5277E-03     11.2750E-03
            1889            2453     11.7488E-03     11.5171E-03
            1880            2453     11.7488E-03     11.5171E-03
            1888            2453     11.7488E-03     11.5171E-03
            1879            2453     11.7488E-03     11.5171E-03
            1881            2454     11.9668E-03     11.8934E-03
            1880            2454     11.9668E-03     11.8934E-03
            1890            2454     11.9668E-03     11.8934E-03
            1889            2454     11.9668E-03     11.8934E-03
            1881            2455     12.2064E-03     12.2742E-03
            1882            2455     12.2064E-03     12.2742E-03
            1891            2455     12.2064E-03     12.2742E-03
            1890            2455     12.2064E-03     12.2742E-03
            1882            2456     12.6708E-03     12.7090E-03
            1891            2456     12.6708E-03     12.7090E-03
            1883            2456     12.6708E-03     12.7090E-03
            1892            2456     12.6708E-03     12.7090E-03
            1893            2457     12.3378E-03     12.2968E-03
            1894            2457     12.3378E-03     12.2968E-03
            1885            2457     12.3378E-03     12.2968E-03
            1884            2457     12.3378E-03     12.2968E-03
            1895            2458     11.6771E-03     11.7024E-03
            1886            2458     11.6771E-03     11.7024E-03
            1885            2458     11.6771E-03     11.7024E-03
            1894            2458     11.6771E-03     11.7024E-03
            1886            2459     11.5391E-03     11.5222E-03
            1896            2459     11.5391E-03     11.5222E-03
            1895            2459     11.5391E-03     11.5222E-03
            1887            2459     11.5391E-03     11.5222E-03
            1887            2460     11.6438E-03     11.5739E-03
            1896            2460     11.6438E-03     11.5739E-03
            1897            2460     11.6438E-03     11.5739E-03
            1888            2460     11.6438E-03     11.5739E-03
            1888            2461     11.9031E-03     11.8471E-03
            1897            2461     11.9031E-03     11.8471E-03
            1898            2461     11.9031E-03     11.8471E-03
            1889            2461     11.9031E-03     11.8471E-03
            1898            2462     12.3023E-03     12.3130E-03
            1899            2462     12.3023E-03     12.3130E-03
            1890            2462     12.3023E-03     12.3130E-03
            1889            2462     12.3023E-03     12.3130E-03
            1890            2463     12.8907E-03     12.9321E-03
            1899            2463     12.8907E-03     12.9321E-03
            1891            2463     12.8907E-03     12.9321E-03
            1900            2463     12.8907E-03     12.9321E-03
            1900            2464     13.8977E-03     13.8475E-03
            1891            2464     13.8977E-03     13.8475E-03
            1892            2464     13.8977E-03     13.8475E-03
            1901            2464     13.8977E-03     13.8475E-03
            1894            2465     13.5395E-03     13.4548E-03
            1902            2465     13.5395E-03     13.4548E-03
            1903            2465     13.5395E-03     13.4548E-03
            1893            2465     13.5395E-03     13.4548E-03
            1894            2466     12.3546E-03     12.3843E-03
            1903            2466     12.3546E-03     12.3843E-03
            1895            2466     12.3546E-03     12.3843E-03
            1904            2466     12.3546E-03     12.3843E-03
            1895            2467     11.7918E-03     11.8742E-03
            1904            2467     11.7918E-03     11.8742E-03
            1905            2467     11.7918E-03     11.8742E-03
            1896            2467     11.7918E-03     11.8742E-03
            1906            2468     11.7248E-03     11.8234E-03
            1897            2468     11.7248E-03     11.8234E-03
            1905            2468     11.7248E-03     11.8234E-03
            1896            2468     11.7248E-03     11.8234E-03
            1906            2469     12.0206E-03     12.1254E-03
            1907            2469     12.0206E-03     12.1254E-03
            1898            2469     12.0206E-03     12.1254E-03
            1897            2469     12.0206E-03     12.1254E-03
            1898            2470     12.6462E-03     12.7402E-03
            1899            2470     12.6462E-03     12.7402E-03
            1908            2470     12.6462E-03     12.7402E-03
            1907            2470     12.6462E-03     12.7402E-03
            1908            2471     13.6698E-03     13.7017E-03
            1899            2471     13.6698E-03     13.7017E-03
            1900            2471     13.6698E-03     13.7017E-03
            1909            2471     13.6698E-03     13.7017E-03
            1901            2472     15.1682E-03     15.0681E-03
            1900            2472     15.1682E-03     15.0681E-03
            1909            2472     15.1682E-03     15.0681E-03
            1910            2472     15.1682E-03     15.0681E-03
            1912            2473     14.8123E-03     14.7059E-03
            1902            2473     14.8123E-03     14.7059E-03
            1911            2473     14.8123E-03     14.7059E-03
            1903            2473     14.8123E-03     14.7059E-03
            1904            2474     13.0620E-03     13.1170E-03
            1912            2474     13.0620E-03     13.1170E-03
            1913            2474     13.0620E-03     13.1170E-03
            1903            2474     13.0620E-03     13.1170E-03
            1904            2475     12.0552E-03     12.2511E-03
            1913            2475     12.0552E-03     12.2511E-03
            1905            2475     12.0552E-03     12.2511E-03
            1914            2475     12.0552E-03     12.2511E-03
            1915            2476     11.7467E-03     12.0392E-03
            1914            2476     11.7467E-03     12.0392E-03
            1905            2476     11.7467E-03     12.0392E-03
            1906            2476     11.7467E-03     12.0392E-03
            1907            2477     12.0800E-03     12.3762E-03
            1906            2477     12.0800E-03     12.3762E-03
            1916            2477     12.0800E-03     12.3762E-03
            1915            2477     12.0800E-03     12.3762E-03
            1907            2478     12.9932E-03     13.1937E-03
            1917            2478     12.9932E-03     13.1937E-03
            1908            2478     12.9932E-03     13.1937E-03
            1916            2478     12.9932E-03     13.1937E-03
            1909            2479     14.4598E-03     14.5098E-03
            1918            2479     14.4598E-03     14.5098E-03
            1917            2479     14.4598E-03     14.5098E-03
            1908            2479     14.4598E-03     14.5098E-03
            1910            2480     16.4953E-03     16.3688E-03
            1919            2480     16.4953E-03     16.3688E-03
            1918            2480     16.4953E-03     16.3688E-03
            1909            2480     16.4953E-03     16.3688E-03
            1921            2481     16.0962E-03     16.0106E-03
            1911            2481     16.0962E-03     16.0106E-03
            1912            2481     16.0962E-03     16.0106E-03
            1920            2481     16.0962E-03     16.0106E-03
            1922            2482     13.8514E-03     14.0037E-03
            1912            2482     13.8514E-03     14.0037E-03
            1913            2482     13.8514E-03     14.0037E-03
            1921            2482     13.8514E-03     14.0037E-03
            1922            2483     12.2773E-03     12.6593E-03
            1913            2483     12.2773E-03     12.6593E-03
            1923            2483     12.2773E-03     12.6593E-03
            1914            2483     12.2773E-03     12.6593E-03
            1923            2484     11.5281E-03     12.0057E-03
            1914            2484     11.5281E-03     12.0057E-03
            1924            2484     11.5281E-03     12.0057E-03
            1915            2484     11.5281E-03     12.0057E-03
            1924            2485     11.8842E-03     12.3583E-03
            1916            2485     11.8842E-03     12.3583E-03
            1925            2485     11.8842E-03     12.3583E-03
            1915            2485     11.8842E-03     12.3583E-03
            1916            2486     13.2851E-03     13.6654E-03
            1925            2486     13.2851E-03     13.6654E-03
            1926            2486     13.2851E-03     13.6654E-03
            1917            2486     13.2851E-03     13.6654E-03
            1926            2487     15.3284E-03     15.4792E-03
            1917            2487     15.3284E-03     15.4792E-03
            1918            2487     15.3284E-03     15.4792E-03
            1927            2487     15.3284E-03     15.4792E-03
            1927            2488     17.8243E-03     17.7214E-03
            1928            2488     17.8243E-03     17.7214E-03
            1918            2488     17.8243E-03     17.7214E-03
            1919            2488     17.8243E-03     17.7214E-03
            1929            2489     17.7777E-03     17.8234E-03
            1921            2489     17.7777E-03     17.8234E-03
            1930            2489     17.7777E-03     17.8234E-03
            1920            2489     17.7777E-03     17.8234E-03
            1921            2490     14.5933E-03     14.8918E-03
            1930            2490     14.5933E-03     14.8918E-03
            1922            2490     14.5933E-03     14.8918E-03
            1931            2490     14.5933E-03     14.8918E-03
            1923            2491     12.0017E-03     12.4663E-03
            1922            2491     12.0017E-03     12.4663E-03
            1931            2491     12.0017E-03     12.4663E-03
            1932            2491     12.0017E-03     12.4663E-03
            1933            2492     10.8981E-03     11.4435E-03
            1923            2492     10.8981E-03     11.4435E-03
            1932            2492     10.8981E-03     11.4435E-03
            1924            2492     10.8981E-03     11.4435E-03
            1925            2493     11.2830E-03     11.8102E-03
            1933            2493     11.2830E-03     11.8102E-03
            1924            2493     11.2830E-03     11.8102E-03
            1934            2493     11.2830E-03     11.8102E-03
            1935            2494     13.0546E-03     13.4866E-03
            1934            2494     13.0546E-03     13.4866E-03
            1926            2494     13.0546E-03     13.4866E-03
            1925            2494     13.0546E-03     13.4866E-03
            1927            2495     16.1266E-03     16.4110E-03
            1926            2495     16.1266E-03     16.4110E-03
            1936            2495     16.1266E-03     16.4110E-03
            1935            2495     16.1266E-03     16.4110E-03
            1936            2496     19.5754E-03     19.6130E-03
            1928            2496     19.5754E-03     19.6130E-03
            1927            2496     19.5754E-03     19.6130E-03
            1937            2496     19.5754E-03     19.6130E-03
            1938            2497     19.3782E-03     18.9894E-03
            1939            2497     19.3782E-03     18.9894E-03
            1929            2497     19.3782E-03     18.9894E-03
            1930            2497     19.3782E-03     18.9894E-03
            1930            2498     14.3516E-03     14.3077E-03
            1931            2498     14.3516E-03     14.3077E-03
            1939            2498     14.3516E-03     14.3077E-03
            1940            2498     14.3516E-03     14.3077E-03
            1931            2499     11.0740E-03     11.2573E-03
            1941            2499     11.0740E-03     11.2573E-03
            1932            2499     11.0740E-03     11.2573E-03
            1940            2499     11.0740E-03     11.2573E-03
            1942            2500     9.68859E-03     10.0524E-03
            1933            2500     9.68859E-03     10.0524E-03
            1932            2500     9.68859E-03     10.0524E-03
            1941            2500     9.68859E-03     10.0524E-03
            1933            2501     10.1025E-03     10.4267E-03
            1942            2501     10.1025E-03     10.4267E-03
            1934            2501     10.1025E-03     10.4267E-03
            1943            2501     10.1025E-03     10.4267E-03
            1943            2502     12.1738E-03     12.2680E-03
            1934            2502     12.1738E-03     12.2680E-03
            1935            2502     12.1738E-03     12.2680E-03
            1944            2502     12.1738E-03     12.2680E-03
            1944            2503     15.9062E-03     15.7768E-03
            1936            2503     15.9062E-03     15.7768E-03
            1945            2503     15.9062E-03     15.7768E-03
            1935            2503     15.9062E-03     15.7768E-03
            1937            2504     21.2465E-03     20.7856E-03
            1936            2504     21.2465E-03     20.7856E-03
            1945            2504     21.2465E-03     20.7856E-03
            1946            2504     21.2465E-03     20.7856E-03
            1938            2505     17.5915E-03     16.1059E-03
            1948            2505     17.5915E-03     16.1059E-03
            1947            2505     17.5915E-03     16.1059E-03
            1939            2505     17.5915E-03     16.1059E-03
            1949            2506     14.4237E-03     13.4401E-03
            1948            2506     14.4237E-03     13.4401E-03
            1939            2506     14.4237E-03     13.4401E-03
            1940            2506     14.4237E-03     13.4401E-03
            1950            2507     12.2689E-03     11.8026E-03
            1941            2507     12.2689E-03     11.8026E-03
            1949            2507     12.2689E-03     11.8026E-03
            1940            2507     12.2689E-03     11.8026E-03
            1951            2508     11.2522E-03     11.0695E-03
            1941            2508     11.2522E-03     11.0695E-03
            1942            2508     11.2522E-03     11.0695E-03
            1950            2508     11.2522E-03     11.0695E-03
            1951            2509     11.5735E-03     11.3384E-03
            1943            2509     11.5735E-03     11.3384E-03
            1942            2509     11.5735E-03     11.3384E-03
            1952            2509     11.5735E-03     11.3384E-03
            1943            2510     13.1576E-03     12.5629E-03
            1953            2510     13.1576E-03     12.5629E-03
            1944            2510     13.1576E-03     12.5629E-03
            1952            2510     13.1576E-03     12.5629E-03
            1945            2511     15.7003E-03     14.5529E-03
            1954            2511     15.7003E-03     14.5529E-03
            1953            2511     15.7003E-03     14.5529E-03
            1944            2511     15.7003E-03     14.5529E-03
            1946            2512     19.2584E-03     17.5978E-03
            1945            2512     19.2584E-03     17.5978E-03
            1954            2512     19.2584E-03     17.5978E-03
            1955            2512     19.2584E-03     17.5978E-03
            1956            2513     16.3167E-03     15.5424E-03
            1947            2513     16.3167E-03     15.5424E-03
            1948            2513     16.3167E-03     15.5424E-03
            1957            2513     16.3167E-03     15.5424E-03
            1948            2514     15.4278E-03     14.4159E-03
            1957            2514     15.4278E-03     14.4159E-03
            1958            2514     15.4278E-03     14.4159E-03
            1949            2514     15.4278E-03     14.4159E-03
            1950            2515     14.0614E-03     13.1581E-03
            1949            2515     14.0614E-03     13.1581E-03
            1959            2515     14.0614E-03     13.1581E-03
            1958            2515     14.0614E-03     13.1581E-03
            1960            2516     13.3197E-03     12.5198E-03
            1959            2516     13.3197E-03     12.5198E-03
            1951            2516     13.3197E-03     12.5198E-03
            1950            2516     13.3197E-03     12.5198E-03
            1960            2517     13.5796E-03     12.7557E-03
            1951            2517     13.5796E-03     12.7557E-03
            1952            2517     13.5796E-03     12.7557E-03
            1961            2517     13.5796E-03     12.7557E-03
            1962            2518     14.7931E-03     13.8244E-03
            1953            2518     14.7931E-03     13.8244E-03
            1952            2518     14.7931E-03     13.8244E-03
            1961            2518     14.7931E-03     13.8244E-03
            1954            2519     16.5365E-03     15.4401E-03
            1962            2519     16.5365E-03     15.4401E-03
            1963            2519     16.5365E-03     15.4401E-03
            1953            2519     16.5365E-03     15.4401E-03
            1963            2520     17.8235E-03     16.9529E-03
            1955            2520     17.8235E-03     16.9529E-03
            1954            2520     17.8235E-03     16.9529E-03
            1964            2520     17.8235E-03     16.9529E-03
            1965            2521     18.2026E-03     18.5981E-03
            1966            2521     18.2026E-03     18.5981E-03
            1956            2521     18.2026E-03     18.5981E-03
            1957            2521     18.2026E-03     18.5981E-03
            1966            2522     16.1580E-03     16.0282E-03
            1958            2522     16.1580E-03     16.0282E-03
            1957            2522     16.1580E-03     16.0282E-03
            1967            2522     16.1580E-03     16.0282E-03
            1967            2523     14.2340E-03     13.4803E-03
            1968            2523     14.2340E-03     13.4803E-03
            1959            2523     14.2340E-03     13.4803E-03
            1958            2523     14.2340E-03     13.4803E-03
            1960            2524     13.1056E-03     12.0920E-03
            1959            2524     13.1056E-03     12.0920E-03
            1969            2524     13.1056E-03     12.0920E-03
            1968            2524     13.1056E-03     12.0920E-03
            1970            2525     13.4299E-03     12.4358E-03
            1969            2525     13.4299E-03     12.4358E-03
            1961            2525     13.4299E-03     12.4358E-03
            1960            2525     13.4299E-03     12.4358E-03
            1962            2526     15.1180E-03     14.4073E-03
            1970            2526     15.1180E-03     14.4073E-03
            1971            2526     15.1180E-03     14.4073E-03
            1961            2526     15.1180E-03     14.4073E-03
            1972            2527     17.4596E-03     17.3744E-03
            1962            2527     17.4596E-03     17.3744E-03
            1971            2527     17.4596E-03     17.3744E-03
            1963            2527     17.4596E-03     17.3744E-03
            1964            2528     19.8220E-03     20.2275E-03
            1973            2528     19.8220E-03     20.2275E-03
            1963            2528     19.8220E-03     20.2275E-03
            1972            2528     19.8220E-03     20.2275E-03
            1975            2529     19.8042E-03     20.0060E-03
            1966            2529     19.8042E-03     20.0060E-03
            1974            2529     19.8042E-03     20.0060E-03
            1965            2529     19.8042E-03     20.0060E-03
            1976            2530     16.8326E-03     17.0165E-03
            1967            2530     16.8326E-03     17.0165E-03
            1975            2530     16.8326E-03     17.0165E-03
            1966            2530     16.8326E-03     17.0165E-03
            1977            2531     14.5709E-03     14.1801E-03
            1968            2531     14.5709E-03     14.1801E-03
            1967            2531     14.5709E-03     14.1801E-03
            1976            2531     14.5709E-03     14.1801E-03
            1978            2532     13.2931E-03     12.4692E-03
            1977            2532     13.2931E-03     12.4692E-03
            1968            2532     13.2931E-03     12.4692E-03
            1969            2532     13.2931E-03     12.4692E-03
            1969            2533     13.6611E-03     12.8762E-03
            1978            2533     13.6611E-03     12.8762E-03
            1970            2533     13.6611E-03     12.8762E-03
            1979            2533     13.6611E-03     12.8762E-03
            1971            2534     15.5724E-03     15.2617E-03
            1970            2534     15.5724E-03     15.2617E-03
            1979            2534     15.5724E-03     15.2617E-03
            1980            2534     15.5724E-03     15.2617E-03
            1980            2535     18.2683E-03     18.5069E-03
            1981            2535     18.2683E-03     18.5069E-03
            1972            2535     18.2683E-03     18.5069E-03
            1971            2535     18.2683E-03     18.5069E-03
            1973            2536     21.4968E-03     21.6998E-03
            1982            2536     21.4968E-03     21.6998E-03
            1972            2536     21.4968E-03     21.6998E-03
            1981            2536     21.4968E-03     21.6998E-03
            1983            2537     21.3909E-03     21.3789E-03
            1974            2537     21.3909E-03     21.3789E-03
            1984            2537     21.3909E-03     21.3789E-03
            1975            2537     21.3909E-03     21.3789E-03
            1985            2538     17.6477E-03     17.7456E-03
            1976            2538     17.6477E-03     17.7456E-03
            1975            2538     17.6477E-03     17.7456E-03
            1984            2538     17.6477E-03     17.7456E-03
            1976            2539     14.9135E-03     14.7658E-03
            1986            2539     14.9135E-03     14.7658E-03
            1977            2539     14.9135E-03     14.7658E-03
            1985            2539     14.9135E-03     14.7658E-03
            1986            2540     13.5477E-03     13.0764E-03
            1977            2540     13.5477E-03     13.0764E-03
            1978            2540     13.5477E-03     13.0764E-03
            1987            2540     13.5477E-03     13.0764E-03
            1978            2541     13.9543E-03     13.5190E-03
            1987            2541     13.9543E-03     13.5190E-03
            1979            2541     13.9543E-03     13.5190E-03
            1988            2541     13.9543E-03     13.5190E-03
            1989            2542     16.0043E-03     15.9206E-03
            1979            2542     16.0043E-03     15.9206E-03
            1980            2542     16.0043E-03     15.9206E-03
            1988            2542     16.0043E-03     15.9206E-03
            1989            2543     19.1715E-03     19.3025E-03
            1980            2543     19.1715E-03     19.3025E-03
            1981            2543     19.1715E-03     19.3025E-03
            1990            2543     19.1715E-03     19.3025E-03
            1990            2544     23.1361E-03     23.1188E-03
            1981            2544     23.1361E-03     23.1188E-03
            1991            2544     23.1361E-03     23.1188E-03
            1982            2544     23.1361E-03     23.1188E-03
            1992            2545     22.9433E-03     22.8053E-03
            1984            2545     22.9433E-03     22.8053E-03
            1983            2545     22.9433E-03     22.8053E-03
            1993            2545     22.9433E-03     22.8053E-03
            1994            2546     18.5725E-03     18.6168E-03
            1985            2546     18.5725E-03     18.6168E-03
            1993            2546     18.5725E-03     18.6168E-03
            1984            2546     18.5725E-03     18.6168E-03
            1995            2547     15.3641E-03     15.3634E-03
            1985            2547     15.3641E-03     15.3634E-03
            1994            2547     15.3641E-03     15.3634E-03
            1986            2547     15.3641E-03     15.3634E-03
            1996            2548     13.7456E-03     13.6222E-03
            1986            2548     13.7456E-03     13.6222E-03
            1987            2548     13.7456E-03     13.6222E-03
            1995            2548     13.7456E-03     13.6222E-03
            1997            2549     14.1826E-03     14.0807E-03
            1988            2549     14.1826E-03     14.0807E-03
            1996            2549     14.1826E-03     14.0807E-03
            1987            2549     14.1826E-03     14.0807E-03
            1997            2550     16.5243E-03     16.5606E-03
            1989            2550     16.5243E-03     16.5606E-03
            1998            2550     16.5243E-03     16.5606E-03
            1988            2550     16.5243E-03     16.5606E-03
            1998            2551     20.1588E-03     20.2207E-03
            1989            2551     20.1588E-03     20.2207E-03
            1999            2551     20.1588E-03     20.2207E-03
            1990            2551     20.1588E-03     20.2207E-03
            1991            2552     24.7211E-03     24.5744E-03
            1999            2552     24.7211E-03     24.5744E-03
            1990            2552     24.7211E-03     24.5744E-03
            2000            2552     24.7211E-03     24.5744E-03
            2002            2553     24.5114E-03     24.3171E-03
            1992            2553     24.5114E-03     24.3171E-03
            1993            2553     24.5114E-03     24.3171E-03
            2001            2553     24.5114E-03     24.3171E-03
            1993            2554     19.5982E-03     19.6496E-03
            1994            2554     19.5982E-03     19.6496E-03
            2002            2554     19.5982E-03     19.6496E-03
            2003            2554     19.5982E-03     19.6496E-03
            2004            2555     15.8295E-03     16.0014E-03
            1994            2555     15.8295E-03     16.0014E-03
            2003            2555     15.8295E-03     16.0014E-03
            1995            2555     15.8295E-03     16.0014E-03
            1996            2556     13.9211E-03     14.1239E-03
            2004            2556     13.9211E-03     14.1239E-03
            2005            2556     13.9211E-03     14.1239E-03
            1995            2556     13.9211E-03     14.1239E-03
            2006            2557     14.3874E-03     14.5991E-03
            1996            2557     14.3874E-03     14.5991E-03
            2005            2557     14.3874E-03     14.5991E-03
            1997            2557     14.3874E-03     14.5991E-03
            2007            2558     17.0473E-03     17.2356E-03
            1997            2558     17.0473E-03     17.2356E-03
            1998            2558     17.0473E-03     17.2356E-03
            2006            2558     17.0473E-03     17.2356E-03
            2008            2559     21.2292E-03     21.2869E-03
            2007            2559     21.2292E-03     21.2869E-03
            1998            2559     21.2292E-03     21.2869E-03
            1999            2559     21.2292E-03     21.2869E-03
            2000            2560     26.3115E-03     26.1050E-03
            2009            2560     26.3115E-03     26.1050E-03
            1999            2560     26.3115E-03     26.1050E-03
            2008            2560     26.3115E-03     26.1050E-03
            2011            2561     26.1132E-03     25.9138E-03
            2002            2561     26.1132E-03     25.9138E-03
            2001            2561     26.1132E-03     25.9138E-03
            2010            2561     26.1132E-03     25.9138E-03
            2011            2562     20.6032E-03     20.7297E-03
            2012            2562     20.6032E-03     20.7297E-03
            2002            2562     20.6032E-03     20.7297E-03
            2003            2562     20.6032E-03     20.7297E-03
            2003            2563     16.3007E-03     16.7059E-03
            2012            2563     16.3007E-03     16.7059E-03
            2004            2563     16.3007E-03     16.7059E-03
            2013            2563     16.3007E-03     16.7059E-03
            2005            2564     14.0252E-03     14.6115E-03
            2013            2564     14.0252E-03     14.6115E-03
            2014            2564     14.0252E-03     14.6115E-03
            2004            2564     14.0252E-03     14.6115E-03
            2005            2565     14.5205E-03     15.1092E-03
            2006            2565     14.5205E-03     15.1092E-03
            2015            2565     14.5205E-03     15.1092E-03
            2014            2565     14.5205E-03     15.1092E-03
            2006            2566     17.5693E-03     17.9799E-03
            2015            2566     17.5693E-03     17.9799E-03
            2007            2566     17.5693E-03     17.9799E-03
            2016            2566     17.5693E-03     17.9799E-03
            2017            2567     22.2688E-03     22.3955E-03
            2016            2567     22.2688E-03     22.3955E-03
            2008            2567     22.2688E-03     22.3955E-03
            2007            2567     22.2688E-03     22.3955E-03
            2018            2568     27.9317E-03     27.7171E-03
            2008            2568     27.9317E-03     27.7171E-03
            2009            2568     27.9317E-03     27.7171E-03
            2017            2568     27.9317E-03     27.7171E-03
            2011            2569     27.6620E-03     27.5459E-03
            2010            2569     27.6620E-03     27.5459E-03
            2019            2569     27.6620E-03     27.5459E-03
            2020            2569     27.6620E-03     27.5459E-03
            2021            2570     21.6746E-03     22.0339E-03
            2012            2570     21.6746E-03     22.0339E-03
            2011            2570     21.6746E-03     22.0339E-03
            2020            2570     21.6746E-03     22.0339E-03
            2012            2571     16.6843E-03     17.4389E-03
            2021            2571     16.6843E-03     17.4389E-03
            2022            2571     16.6843E-03     17.4389E-03
            2013            2571     16.6843E-03     17.4389E-03
            2023            2572     13.7805E-03     14.7172E-03
            2014            2572     13.7805E-03     14.7172E-03
            2013            2572     13.7805E-03     14.7172E-03
            2022            2572     13.7805E-03     14.7172E-03
            2015            2573     14.2896E-03     15.2138E-03
            2024            2573     14.2896E-03     15.2138E-03
            2023            2573     14.2896E-03     15.2138E-03
            2014            2573     14.2896E-03     15.2138E-03
            2016            2574     17.9910E-03     18.7339E-03
            2015            2574     17.9910E-03     18.7339E-03
            2024            2574     17.9910E-03     18.7339E-03
            2025            2574     17.9910E-03     18.7339E-03
            2025            2575     23.3769E-03     23.7371E-03
            2017            2575     23.3769E-03     23.7371E-03
            2026            2575     23.3769E-03     23.7371E-03
            2016            2575     23.3769E-03     23.7371E-03
            2018            2576     29.4963E-03     29.3681E-03
            2026            2576     29.4963E-03     29.3681E-03
            2017            2576     29.4963E-03     29.3681E-03
            2027            2576     29.4963E-03     29.3681E-03
            2019            2577     29.6872E-03     29.8395E-03
            2028            2577     29.6872E-03     29.8395E-03
            2020            2577     29.6872E-03     29.8395E-03
            2029            2577     29.6872E-03     29.8395E-03
            2020            2578     22.5764E-03     23.1312E-03
            2030            2578     22.5764E-03     23.1312E-03
            2021            2578     22.5764E-03     23.1312E-03
            2029            2578     22.5764E-03     23.1312E-03
            2030            2579     16.3082E-03     17.1221E-03
            2031            2579     16.3082E-03     17.1221E-03
            2021            2579     16.3082E-03     17.1221E-03
            2022            2579     16.3082E-03     17.1221E-03
            2032            2580     12.9400E-03     13.9828E-03
            2022            2580     12.9400E-03     13.9828E-03
            2031            2580     12.9400E-03     13.9828E-03
            2023            2580     12.9400E-03     13.9828E-03
            2032            2581     13.4755E-03     14.4828E-03
            2023            2581     13.4755E-03     14.4828E-03
            2033            2581     13.4755E-03     14.4828E-03
            2024            2581     13.4755E-03     14.4828E-03
            2025            2582     17.6395E-03     18.3972E-03
            2024            2582     17.6395E-03     18.3972E-03
            2034            2582     17.6395E-03     18.3972E-03
            2033            2582     17.6395E-03     18.3972E-03
            2035            2583     24.3000E-03     24.8351E-03
            2025            2583     24.3000E-03     24.8351E-03
            2034            2583     24.3000E-03     24.8351E-03
            2026            2583     24.3000E-03     24.8351E-03
            2035            2584     31.5655E-03     31.7125E-03
            2027            2584     31.5655E-03     31.7125E-03
            2036            2584     31.5655E-03     31.7125E-03
            2026            2584     31.5655E-03     31.7125E-03
            2029            2585     31.4617E-03     30.6086E-03
            2037            2585     31.4617E-03     30.6086E-03
            2038            2585     31.4617E-03     30.6086E-03
            2028            2585     31.4617E-03     30.6086E-03
            2038            2586     22.0579E-03     21.7078E-03
            2030            2586     22.0579E-03     21.7078E-03
            2039            2586     22.0579E-03     21.7078E-03
            2029            2586     22.0579E-03     21.7078E-03
            2039            2587     15.0040E-03     15.1382E-03
            2031            2587     15.0040E-03     15.1382E-03
            2030            2587     15.0040E-03     15.1382E-03
            2040            2587     15.0040E-03     15.1382E-03
            2041            2588     11.1518E-03     11.7939E-03
            2040            2588     11.1518E-03     11.7939E-03
            2031            2588     11.1518E-03     11.7939E-03
            2032            2588     11.1518E-03     11.7939E-03
            2033            2589     11.7191E-03     12.2985E-03
            2032            2589     11.7191E-03     12.2985E-03
            2041            2589     11.7191E-03     12.2985E-03
            2042            2589     11.7191E-03     12.2985E-03
            2042            2590     16.3675E-03     16.3831E-03
            2033            2590     16.3675E-03     16.3831E-03
            2034            2590     16.3675E-03     16.3831E-03
            2043            2590     16.3675E-03     16.3831E-03
            2034            2591     23.7716E-03     23.3286E-03
            2035            2591     23.7716E-03     23.3286E-03
            2043            2591     23.7716E-03     23.3286E-03
            2044            2591     23.7716E-03     23.3286E-03
            2045            2592     33.3893E-03     32.4637E-03
            2036            2592     33.3893E-03     32.4637E-03
            2035            2592     33.3893E-03     32.4637E-03
            2044            2592     33.3893E-03     32.4637E-03
            2047            2593     28.9826E-03     26.1785E-03
            2037            2593     28.9826E-03     26.1785E-03
            2038            2593     28.9826E-03     26.1785E-03
            2046            2593     28.9826E-03     26.1785E-03
            2039            2594     21.7356E-03     19.7535E-03
            2038            2594     21.7356E-03     19.7535E-03
            2047            2594     21.7356E-03     19.7535E-03
            2048            2594     21.7356E-03     19.7535E-03
            2048            2595     16.4270E-03     15.4363E-03
            2049            2595     16.4270E-03     15.4363E-03
            2040            2595     16.4270E-03     15.4363E-03
            2039            2595     16.4270E-03     15.4363E-03
            2050            2596     13.3393E-03     13.0079E-03
            2040            2596     13.3393E-03     13.0079E-03
            2049            2596     13.3393E-03     13.0079E-03
            2041            2596     13.3393E-03     13.0079E-03
            2042            2597     13.7905E-03     13.3905E-03
            2041            2597     13.7905E-03     13.3905E-03
            2050            2597     13.7905E-03     13.3905E-03
            2051            2597     13.7905E-03     13.3905E-03
            2042            2598     17.5645E-03     16.4294E-03
            2051            2598     17.5645E-03     16.4294E-03
            2043            2598     17.5645E-03     16.4294E-03
            2052            2598     17.5645E-03     16.4294E-03
            2043            2599     23.2213E-03     21.0853E-03
            2044            2599     23.2213E-03     21.0853E-03
            2052            2599     23.2213E-03     21.0853E-03
            2053            2599     23.2213E-03     21.0853E-03
            2054            2600     30.7904E-03     27.8308E-03
            2053            2600     30.7904E-03     27.8308E-03
            2044            2600     30.7904E-03     27.8308E-03
            2045            2600     30.7904E-03     27.8308E-03
            2047            2601     27.4365E-03     26.0367E-03
            2055            2601     27.4365E-03     26.0367E-03
            2056            2601     27.4365E-03     26.0367E-03
            2046            2601     27.4365E-03     26.0367E-03
            2057            2602     22.9075E-03     21.2550E-03
            2056            2602     22.9075E-03     21.2550E-03
            2047            2602     22.9075E-03     21.2550E-03
            2048            2602     22.9075E-03     21.2550E-03
            2049            2603     18.6182E-03     17.1533E-03
            2058            2603     18.6182E-03     17.1533E-03
            2048            2603     18.6182E-03     17.1533E-03
            2057            2603     18.6182E-03     17.1533E-03
            2050            2604     16.1383E-03     14.8656E-03
            2059            2604     16.1383E-03     14.8656E-03
            2058            2604     16.1383E-03     14.8656E-03
            2049            2604     16.1383E-03     14.8656E-03
            2059            2605     16.5137E-03     15.2196E-03
            2060            2605     16.5137E-03     15.2196E-03
            2051            2605     16.5137E-03     15.2196E-03
            2050            2605     16.5137E-03     15.2196E-03
            2060            2606     19.6046E-03     18.0816E-03
            2051            2606     19.6046E-03     18.0816E-03
            2052            2606     19.6046E-03     18.0816E-03
            2061            2606     19.6046E-03     18.0816E-03
            2062            2607     24.2850E-03     22.5609E-03
            2052            2607     24.2850E-03     22.5609E-03
            2061            2607     24.2850E-03     22.5609E-03
            2053            2607     24.2850E-03     22.5609E-03
            2053            2608     29.1461E-03     27.6685E-03
            2054            2608     29.1461E-03     27.6685E-03
            2062            2608     29.1461E-03     27.6685E-03
            2063            2608     29.1461E-03     27.6685E-03
            2065            2609     29.9093E-03     30.4741E-03
            2055            2609     29.9093E-03     30.4741E-03
            2064            2609     29.9093E-03     30.4741E-03
            2056            2609     29.9093E-03     30.4741E-03
            2065            2610     24.0849E-03     24.0516E-03
            2066            2610     24.0849E-03     24.0516E-03
            2057            2610     24.0849E-03     24.0516E-03
            2056            2610     24.0849E-03     24.0516E-03
            2057            2611     18.7803E-03     17.7715E-03
            2066            2611     18.7803E-03     17.7715E-03
            2067            2611     18.7803E-03     17.7715E-03
            2058            2611     18.7803E-03     17.7715E-03
            2068            2612     15.5163E-03     13.9785E-03
            2067            2612     15.5163E-03     13.9785E-03
            2059            2612     15.5163E-03     13.9785E-03
            2058            2612     15.5163E-03     13.9785E-03
            2069            2613     15.9712E-03     14.4674E-03
            2068            2613     15.9712E-03     14.4674E-03
            2060            2613     15.9712E-03     14.4674E-03
            2059            2613     15.9712E-03     14.4674E-03
            2060            2614     19.9354E-03     18.9857E-03
            2070            2614     19.9354E-03     18.9857E-03
            2061            2614     19.9354E-03     18.9857E-03
            2069            2614     19.9354E-03     18.9857E-03
            2070            2615     25.6302E-03     25.6375E-03
            2061            2615     25.6302E-03     25.6375E-03
            2062            2615     25.6302E-03     25.6375E-03
            2071            2615     25.6302E-03     25.6375E-03
            2071            2616     31.6728E-03     32.2437E-03
            2072            2616     31.6728E-03     32.2437E-03
            2062            2616     31.6728E-03     32.2437E-03
            2063            2616     31.6728E-03     32.2437E-03
            2074            2617     31.8821E-03     32.1215E-03
            2073            2617     31.8821E-03     32.1215E-03
            2065            2617     31.8821E-03     32.1215E-03
            2064            2617     31.8821E-03     32.1215E-03
            2066            2618     25.0629E-03     25.4463E-03
            2074            2618     25.0629E-03     25.4463E-03
            2075            2618     25.0629E-03     25.4463E-03
            2065            2618     25.0629E-03     25.4463E-03
            2067            2619     19.2328E-03     18.8082E-03
            2066            2619     19.2328E-03     18.8082E-03
            2075            2619     19.2328E-03     18.8082E-03
            2076            2619     19.2328E-03     18.8082E-03
            2077            2620     15.6041E-03     14.3867E-03
            2076            2620     15.6041E-03     14.3867E-03
            2067            2620     15.6041E-03     14.3867E-03
            2068            2620     15.6041E-03     14.3867E-03
            2077            2621     16.1088E-03     14.9459E-03
            2069            2621     16.1088E-03     14.9459E-03
            2068            2621     16.1088E-03     14.9459E-03
            2078            2621     16.1088E-03     14.9459E-03
            2079            2622     20.5014E-03     20.1694E-03
            2078            2622     20.5014E-03     20.1694E-03
            2069            2622     20.5014E-03     20.1694E-03
            2070            2622     20.5014E-03     20.1694E-03
            2071            2623     26.7047E-03     27.1355E-03
            2079            2623     26.7047E-03     27.1355E-03
            2070            2623     26.7047E-03     27.1355E-03
            2080            2623     26.7047E-03     27.1355E-03
            2080            2624     33.6773E-03     33.9147E-03
            2072            2624     33.6773E-03     33.9147E-03
            2081            2624     33.6773E-03     33.9147E-03
            2071            2624     33.6773E-03     33.9147E-03
            2083            2625     33.8126E-03     33.7360E-03
            2082            2625     33.8126E-03     33.7360E-03
            2073            2625     33.8126E-03     33.7360E-03
            2074            2625     33.8126E-03     33.7360E-03
            2084            2626     26.1232E-03     26.3020E-03
            2075            2626     26.1232E-03     26.3020E-03
            2074            2626     26.1232E-03     26.3020E-03
            2083            2626     26.1232E-03     26.3020E-03
            2075            2627     19.7056E-03     19.5765E-03
            2076            2627     19.7056E-03     19.5765E-03
            2085            2627     19.7056E-03     19.5765E-03
            2084            2627     19.7056E-03     19.5765E-03
            2086            2628     15.9024E-03     15.2175E-03
            2076            2628     15.9024E-03     15.2175E-03
            2085            2628     15.9024E-03     15.2175E-03
            2077            2628     15.9024E-03     15.2175E-03
            2087            2629     16.4443E-03     15.8055E-03
            2086            2629     16.4443E-03     15.8055E-03
            2077            2629     16.4443E-03     15.8055E-03
            2078            2629     16.4443E-03     15.8055E-03
            2088            2630     21.0468E-03     20.9895E-03
            2087            2630     21.0468E-03     20.9895E-03
            2078            2630     21.0468E-03     20.9895E-03
            2079            2630     21.0468E-03     20.9895E-03
            2079            2631     27.8219E-03     28.0302E-03
            2088            2631     27.8219E-03     28.0302E-03
            2080            2631     27.8219E-03     28.0302E-03
            2089            2631     27.8219E-03     28.0302E-03
            2080            2632     35.6384E-03     35.5552E-03
            2081            2632     35.6384E-03     35.5552E-03
            2090            2632     35.6384E-03     35.5552E-03
            2089            2632     35.6384E-03     35.5552E-03
            2082            2633     35.6462E-03     35.3993E-03
            2092            2633     35.6462E-03     35.3993E-03
            2083            2633     35.6462E-03     35.3993E-03
            2091            2633     35.6462E-03     35.3993E-03
            2084            2634     27.2896E-03     27.3594E-03
            2092            2634     27.2896E-03     27.3594E-03
            2093            2634     27.2896E-03     27.3594E-03
            2083            2634     27.2896E-03     27.3594E-03
            2084            2635     20.3225E-03     20.3593E-03
            2093            2635     20.3225E-03     20.3593E-03
            2085            2635     20.3225E-03     20.3593E-03
            2094            2635     20.3225E-03     20.3593E-03
            2095            2636     16.1758E-03     16.0046E-03
            2086            2636     16.1758E-03     16.0046E-03
            2094            2636     16.1758E-03     16.0046E-03
            2085            2636     16.1758E-03     16.0046E-03
            2087            2637     16.7411E-03     16.5959E-03
            2095            2637     16.7411E-03     16.5959E-03
            2086            2637     16.7411E-03     16.5959E-03
            2096            2637     16.7411E-03     16.5959E-03
            2087            2638     21.7127E-03     21.7910E-03
            2096            2638     21.7127E-03     21.7910E-03
            2088            2638     21.7127E-03     21.7910E-03
            2097            2638     21.7127E-03     21.7910E-03
            2097            2639     29.0266E-03     29.1139E-03
            2088            2639     29.0266E-03     29.1139E-03
            2089            2639     29.0266E-03     29.1139E-03
            2098            2639     29.0266E-03     29.1139E-03
            2089            2640     37.4892E-03     37.2338E-03
            2090            2640     37.4892E-03     37.2338E-03
            2098            2640     37.4892E-03     37.2338E-03
            2099            2640     37.4892E-03     37.2338E-03
            2091            2641     37.4766E-03     37.1639E-03
            2092            2641     37.4766E-03     37.1639E-03
            2101            2641     37.4766E-03     37.1639E-03
            2100            2641     37.4766E-03     37.1639E-03
            2102            2642     28.5541E-03     28.6334E-03
            2092            2642     28.5541E-03     28.6334E-03
            2101            2642     28.5541E-03     28.6334E-03
            2093            2642     28.5541E-03     28.6334E-03
            2094            2643     20.9535E-03     21.2277E-03
            2102            2643     20.9535E-03     21.2277E-03
            2093            2643     20.9535E-03     21.2277E-03
            2103            2643     20.9535E-03     21.2277E-03
            2104            2644     16.4475E-03     16.7688E-03
            2094            2644     16.4475E-03     16.7688E-03
            2095            2644     16.4475E-03     16.7688E-03
            2103            2644     16.4475E-03     16.7688E-03
            2105            2645     17.0352E-03     17.3665E-03
            2096            2645     17.0352E-03     17.3665E-03
            2095            2645     17.0352E-03     17.3665E-03
            2104            2645     17.0352E-03     17.3665E-03
            2105            2646     22.3821E-03     22.6745E-03
            2097            2646     22.3821E-03     22.6745E-03
            2096            2646     22.3821E-03     22.6745E-03
            2106            2646     22.3821E-03     22.6745E-03
            2106            2647     30.3152E-03     30.4026E-03
            2107            2647     30.3152E-03     30.4026E-03
            2097            2647     30.3152E-03     30.4026E-03
            2098            2647     30.3152E-03     30.4026E-03
            2108            2648     39.3306E-03     39.0069E-03
            2098            2648     39.3306E-03     39.0069E-03
            2099            2648     39.3306E-03     39.0069E-03
            2107            2648     39.3306E-03     39.0069E-03
            2100            2649     39.3286E-03     39.0348E-03
            2110            2649     39.3286E-03     39.0348E-03
            2101            2649     39.3286E-03     39.0348E-03
            2109            2649     39.3286E-03     39.0348E-03
            2111            2650     29.7706E-03     29.9817E-03
            2101            2650     29.7706E-03     29.9817E-03
            2102            2650     29.7706E-03     29.9817E-03
            2110            2650     29.7706E-03     29.9817E-03
            2103            2651     21.5950E-03     22.2274E-03
            2112            2651     21.5950E-03     22.2274E-03
            2102            2651     21.5950E-03     22.2274E-03
            2111            2651     21.5950E-03     22.2274E-03
            2113            2652     16.6355E-03     17.5469E-03
            2112            2652     16.6355E-03     17.5469E-03
            2103            2652     16.6355E-03     17.5469E-03
            2104            2652     16.6355E-03     17.5469E-03
            2113            2653     17.2442E-03     18.1552E-03
            2104            2653     17.2442E-03     18.1552E-03
            2114            2653     17.2442E-03     18.1552E-03
            2105            2653     17.2442E-03     18.1552E-03
            2105            2654     23.0553E-03     23.6915E-03
            2115            2654     23.0553E-03     23.6915E-03
            2106            2654     23.0553E-03     23.6915E-03
            2114            2654     23.0553E-03     23.6915E-03
            2107            2655     31.5485E-03     31.7620E-03
            2116            2655     31.5485E-03     31.7620E-03
            2115            2655     31.5485E-03     31.7620E-03
            2106            2655     31.5485E-03     31.7620E-03
            2107            2656     41.1917E-03     40.8845E-03
            2116            2656     41.1917E-03     40.8845E-03
            2117            2656     41.1917E-03     40.8845E-03
            2108            2656     41.1917E-03     40.8845E-03
            2118            2657     41.0766E-03     40.9426E-03
            2110            2657     41.0766E-03     40.9426E-03
            2119            2657     41.0766E-03     40.9426E-03
            2109            2657     41.0766E-03     40.9426E-03
            2119            2658     31.0587E-03     31.6500E-03
            2111            2658     31.0587E-03     31.6500E-03
            2110            2658     31.0587E-03     31.6500E-03
            2120            2658     31.0587E-03     31.6500E-03
            2120            2659     22.1083E-03     23.2489E-03
            2111            2659     22.1083E-03     23.2489E-03
            2121            2659     22.1083E-03     23.2489E-03
            2112            2659     22.1083E-03     23.2489E-03
            2121            2660     16.3561E-03     17.7890E-03
            2113            2660     16.3561E-03     17.7890E-03
            2112            2660     16.3561E-03     17.7890E-03
            2122            2660     16.3561E-03     17.7890E-03
            2114            2661     16.9714E-03     18.3836E-03
            2122            2661     16.9714E-03     18.3836E-03
            2123            2661     16.9714E-03     18.3836E-03
            2113            2661     16.9714E-03     18.3836E-03
            2115            2662     23.5883E-03     24.7089E-03
            2124            2662     23.5883E-03     24.7089E-03
            2114            2662     23.5883E-03     24.7089E-03
            2123            2662     23.5883E-03     24.7089E-03
            2115            2663     32.8562E-03     33.4492E-03
            2124            2663     32.8562E-03     33.4492E-03
            2125            2663     32.8562E-03     33.4492E-03
            2116            2663     32.8562E-03     33.4492E-03
            2125            2664     42.9469E-03     42.8025E-03
            2116            2664     42.9469E-03     42.8025E-03
            2117            2664     42.9469E-03     42.8025E-03
            2126            2664     42.9469E-03     42.8025E-03
            2127            2665     43.4026E-03     43.6876E-03
            2119            2665     43.4026E-03     43.6876E-03
            2128            2665     43.4026E-03     43.6876E-03
            2118            2665     43.4026E-03     43.6876E-03
            2119            2666     32.0678E-03     32.8767E-03
            2128            2666     32.0678E-03     32.8767E-03
            2120            2666     32.0678E-03     32.8767E-03
            2129            2666     32.0678E-03     32.8767E-03
            2120            2667     21.6040E-03     22.7345E-03
            2130            2667     21.6040E-03     22.7345E-03
            2121            2667     21.6040E-03     22.7345E-03
            2129            2667     21.6040E-03     22.7345E-03
            2131            2668     15.2952E-03     16.8587E-03
            2130            2668     15.2952E-03     16.8587E-03
            2121            2668     15.2952E-03     16.8587E-03
            2122            2668     15.2952E-03     16.8587E-03
            2123            2669     15.9331E-03     17.4490E-03
            2132            2669     15.9331E-03     17.4490E-03
            2122            2669     15.9331E-03     17.4490E-03
            2131            2669     15.9331E-03     17.4490E-03
            2123            2670     23.0962E-03     24.1572E-03
            2124            2670     23.0962E-03     24.1572E-03
            2132            2670     23.0962E-03     24.1572E-03
            2133            2670     23.0962E-03     24.1572E-03
            2124            2671     33.8720E-03     34.6602E-03
            2125            2671     33.8720E-03     34.6602E-03
            2133            2671     33.8720E-03     34.6602E-03
            2134            2671     33.8720E-03     34.6602E-03
            2126            2672     45.3084E-03     45.5890E-03
            2125            2672     45.3084E-03     45.5890E-03
            2135            2672     45.3084E-03     45.5890E-03
            2134            2672     45.3084E-03     45.5890E-03
            2136            2673     45.3020E-03     43.9073E-03
            2128            2673     45.3020E-03     43.9073E-03
            2127            2673     45.3020E-03     43.9073E-03
            2137            2673     45.3020E-03     43.9073E-03
            2128            2674     31.2074E-03     30.4453E-03
            2137            2674     31.2074E-03     30.4453E-03
            2129            2674     31.2074E-03     30.4453E-03
            2138            2674     31.2074E-03     30.4453E-03
            2129            2675     19.9091E-03     19.8793E-03
            2139            2675     19.9091E-03     19.8793E-03
            2130            2675     19.9091E-03     19.8793E-03
            2138            2675     19.9091E-03     19.8793E-03
            2131            2676     12.8968E-03     13.7904E-03
            2140            2676     12.8968E-03     13.7904E-03
            2139            2676     12.8968E-03     13.7904E-03
            2130            2676     12.8968E-03     13.7904E-03
            2131            2677     13.5664E-03     14.3853E-03
            2141            2677     13.5664E-03     14.3853E-03
            2140            2677     13.5664E-03     14.3853E-03
            2132            2677     13.5664E-03     14.3853E-03
            2132            2678     21.4220E-03     21.2623E-03
            2133            2678     21.4220E-03     21.2623E-03
            2142            2678     21.4220E-03     21.2623E-03
            2141            2678     21.4220E-03     21.2623E-03
            2142            2679     32.9845E-03     32.1310E-03
            2133            2679     32.9845E-03     32.1310E-03
            2143            2679     32.9845E-03     32.1310E-03
            2134            2679     32.9845E-03     32.1310E-03
            2144            2680     47.2487E-03     45.7825E-03
            2143            2680     47.2487E-03     45.7825E-03
            2135            2680     47.2487E-03     45.7825E-03
            2134            2680     47.2487E-03     45.7825E-03
            2146            2681     42.2506E-03     38.0542E-03
            2137            2681     42.2506E-03     38.0542E-03
            2145            2681     42.2506E-03     38.0542E-03
            2136            2681     42.2506E-03     38.0542E-03
            2146            2682     30.5246E-03     27.4499E-03
            2138            2682     30.5246E-03     27.4499E-03
            2137            2682     30.5246E-03     27.4499E-03
            2147            2682     30.5246E-03     27.4499E-03
            2138            2683     21.5705E-03     19.9521E-03
            2139            2683     21.5705E-03     19.9521E-03
            2148            2683     21.5705E-03     19.9521E-03
            2147            2683     21.5705E-03     19.9521E-03
            2148            2684     15.7844E-03     15.2566E-03
            2140            2684     15.7844E-03     15.2566E-03
            2149            2684     15.7844E-03     15.2566E-03
            2139            2684     15.7844E-03     15.2566E-03
            2149            2685     16.3224E-03     15.7207E-03
            2150            2685     16.3224E-03     15.7207E-03
            2141            2685     16.3224E-03     15.7207E-03
            2140            2685     16.3224E-03     15.7207E-03
            2151            2686     22.8528E-03     21.0905E-03
            2142            2686     22.8528E-03     21.0905E-03
            2141            2686     22.8528E-03     21.0905E-03
            2150            2686     22.8528E-03     21.0905E-03
            2143            2687     32.1035E-03     28.8871E-03
            2151            2687     32.1035E-03     28.8871E-03
            2152            2687     32.1035E-03     28.8871E-03
            2142            2687     32.1035E-03     28.8871E-03
            2153            2688     44.1086E-03     39.7662E-03
            2143            2688     44.1086E-03     39.7662E-03
            2152            2688     44.1086E-03     39.7662E-03
            2144            2688     44.1086E-03     39.7662E-03
            2155            2689     40.6245E-03     38.6362E-03
            2146            2689     40.6245E-03     38.6362E-03
            2154            2689     40.6245E-03     38.6362E-03
            2145            2689     40.6245E-03     38.6362E-03
            2147            2690     32.0135E-03     29.7600E-03
            2156            2690     32.0135E-03     29.7600E-03
            2155            2690     32.0135E-03     29.7600E-03
            2146            2690     32.0135E-03     29.7600E-03
            2156            2691     24.1812E-03     22.1710E-03
            2157            2691     24.1812E-03     22.1710E-03
            2148            2691     24.1812E-03     22.1710E-03
            2147            2691     24.1812E-03     22.1710E-03
            2158            2692     19.4121E-03     17.6691E-03
            2157            2692     19.4121E-03     17.6691E-03
            2149            2692     19.4121E-03     17.6691E-03
            2148            2692     19.4121E-03     17.6691E-03
            2149            2693     19.8711E-03     18.1120E-03
            2150            2693     19.8711E-03     18.1120E-03
            2159            2693     19.8711E-03     18.1120E-03
            2158            2693     19.8711E-03     18.1120E-03
            2151            2694     25.3251E-03     23.2672E-03
            2159            2694     25.3251E-03     23.2672E-03
            2160            2694     25.3251E-03     23.2672E-03
            2150            2694     25.3251E-03     23.2672E-03
            2152            2695     33.5191E-03     31.2035E-03
            2151            2695     33.5191E-03     31.2035E-03
            2160            2695     33.5191E-03     31.2035E-03
            2161            2695     33.5191E-03     31.2035E-03
            2162            2696     42.4107E-03     40.3527E-03
            2161            2696     42.4107E-03     40.3527E-03
            2152            2696     42.4107E-03     40.3527E-03
            2153            2696     42.4107E-03     40.3527E-03
            2164            2697     43.6533E-03     44.4380E-03
            2155            2697     43.6533E-03     44.4380E-03
            2154            2697     43.6533E-03     44.4380E-03
            2163            2697     43.6533E-03     44.4380E-03
            2156            2698     33.7012E-03     33.8520E-03
            2165            2698     33.7012E-03     33.8520E-03
            2155            2698     33.7012E-03     33.8520E-03
            2164            2698     33.7012E-03     33.8520E-03
            2157            2699     24.4197E-03     23.2746E-03
            2156            2699     24.4197E-03     23.2746E-03
            2166            2699     24.4197E-03     23.2746E-03
            2165            2699     24.4197E-03     23.2746E-03
            2157            2700     18.3397E-03     16.3383E-03
            2158            2700     18.3397E-03     16.3383E-03
            2167            2700     18.3397E-03     16.3383E-03
            2166            2700     18.3397E-03     16.3383E-03
            2159            2701     18.8881E-03     16.9300E-03
            2167            2701     18.8881E-03     16.9300E-03
            2158            2701     18.8881E-03     16.9300E-03
            2168            2701     18.8881E-03     16.9300E-03
            2168            2702     25.7426E-03     24.6645E-03
            2160            2702     25.7426E-03     24.6645E-03
            2159            2702     25.7426E-03     24.6645E-03
            2169            2702     25.7426E-03     24.6645E-03
            2161            2703     35.3634E-03     35.5507E-03
            2160            2703     35.3634E-03     35.5507E-03
            2170            2703     35.3634E-03     35.5507E-03
            2169            2703     35.3634E-03     35.5507E-03
            2171            2704     45.4708E-03     46.2605E-03
            2170            2704     45.4708E-03     46.2605E-03
            2161            2704     45.4708E-03     46.2605E-03
            2162            2704     45.4708E-03     46.2605E-03
            2163            2705     45.9592E-03     46.2737E-03
            2172            2705     45.9592E-03     46.2737E-03
            2164            2705     45.9592E-03     46.2737E-03
            2173            2705     45.9592E-03     46.2737E-03
            2165            2706     34.9647E-03     35.6581E-03
            2173            2706     34.9647E-03     35.6581E-03
            2164            2706     34.9647E-03     35.6581E-03
            2174            2706     34.9647E-03     35.6581E-03
            2166            2707     24.9852E-03     24.6937E-03
            2165            2707     24.9852E-03     24.6937E-03
            2174            2707     24.9852E-03     24.6937E-03
            2175            2707     24.9852E-03     24.6937E-03
            2175            2708     18.3664E-03     16.8969E-03
            2167            2708     18.3664E-03     16.8969E-03
            2176            2708     18.3664E-03     16.8969E-03
            2166            2708     18.3664E-03     16.8969E-03
            2177            2709     18.9725E-03     17.5655E-03
            2167            2709     18.9725E-03     17.5655E-03
            2176            2709     18.9725E-03     17.5655E-03
            2168            2709     18.9725E-03     17.5655E-03
            2168            2710     26.4228E-03     26.2281E-03
            2177            2710     26.4228E-03     26.2281E-03
            2178            2710     26.4228E-03     26.2281E-03
            2169            2710     26.4228E-03     26.2281E-03
            2179            2711     36.7047E-03     37.4407E-03
            2178            2711     36.7047E-03     37.4407E-03
            2169            2711     36.7047E-03     37.4407E-03
            2170            2711     36.7047E-03     37.4407E-03
            2170            2712     47.7924E-03     48.1038E-03
            2171            2712     47.7924E-03     48.1038E-03
            2179            2712     47.7924E-03     48.1038E-03
            2180            2712     47.7924E-03     48.1038E-03
            2181            2713     48.1934E-03     48.1376E-03
            2172            2713     48.1934E-03     48.1376E-03
            2173            2713     48.1934E-03     48.1376E-03
            2182            2713     48.1934E-03     48.1376E-03
            2173            2714     36.2242E-03     36.6300E-03
            2183            2714     36.2242E-03     36.6300E-03
            2182            2714     36.2242E-03     36.6300E-03
            2174            2714     36.2242E-03     36.6300E-03
            2175            2715     25.6380E-03     25.7593E-03
            2184            2715     25.6380E-03     25.7593E-03
            2183            2715     25.6380E-03     25.7593E-03
            2174            2715     25.6380E-03     25.7593E-03
            2185            2716     18.6851E-03     18.0154E-03
            2184            2716     18.6851E-03     18.0154E-03
            2176            2716     18.6851E-03     18.0154E-03
            2175            2716     18.6851E-03     18.0154E-03
            2186            2717     19.3239E-03     18.7034E-03
            2176            2717     19.3239E-03     18.7034E-03
            2177            2717     19.3239E-03     18.7034E-03
            2185            2717     19.3239E-03     18.7034E-03
            2187            2718     27.1369E-03     27.3315E-03
            2186            2718     27.1369E-03     27.3315E-03
            2177            2718     27.1369E-03     27.3315E-03
            2178            2718     27.1369E-03     27.3315E-03
            2179            2719     38.0081E-03     38.4421E-03
            2187            2719     38.0081E-03     38.4421E-03
            2178            2719     38.0081E-03     38.4421E-03
            2188            2719     38.0081E-03     38.4421E-03
            2188            2720     50.0471E-03     49.9854E-03
            2189            2720     50.0471E-03     49.9854E-03
            2180            2720     50.0471E-03     49.9854E-03
            2179            2720     50.0471E-03     49.9854E-03
            2190            2721     50.3566E-03     50.1039E-03
            2181            2721     50.3566E-03     50.1039E-03
            2182            2721     50.3566E-03     50.1039E-03
            2191            2721     50.3566E-03     50.1039E-03
            2182            2722     37.6512E-03     37.9905E-03
            2192            2722     37.6512E-03     37.9905E-03
            2183            2722     37.6512E-03     37.9905E-03
            2191            2722     37.6512E-03     37.9905E-03
            2183            2723     26.3416E-03     26.7404E-03
            2193            2723     26.3416E-03     26.7404E-03
            2192            2723     26.3416E-03     26.7404E-03
            2184            2723     26.3416E-03     26.7404E-03
            2193            2724     19.0611E-03     19.2351E-03
            2194            2724     19.0611E-03     19.2351E-03
            2184            2724     19.0611E-03     19.2351E-03
            2185            2724     19.0611E-03     19.2351E-03
            2186            2725     19.7202E-03     19.9200E-03
            2195            2725     19.7202E-03     19.9200E-03
            2185            2725     19.7202E-03     19.9200E-03
            2194            2725     19.7202E-03     19.9200E-03
            2196            2726     27.8798E-03     28.3198E-03
            2186            2726     27.8798E-03     28.3198E-03
            2187            2726     27.8798E-03     28.3198E-03
            2195            2726     27.8798E-03     28.3198E-03
            2188            2727     39.4634E-03     39.8218E-03
            2197            2727     39.4634E-03     39.8218E-03
            2196            2727     39.4634E-03     39.8218E-03
            2187            2727     39.4634E-03     39.8218E-03
            2188            2728     52.2230E-03     51.9633E-03
            2189            2728     52.2230E-03     51.9633E-03
            2198            2728     52.2230E-03     51.9633E-03
            2197            2728     52.2230E-03     51.9633E-03
            2191            2729     52.4501E-03     52.1791E-03
            2199            2729     52.4501E-03     52.1791E-03
            2190            2729     52.4501E-03     52.1791E-03
            2200            2729     52.4501E-03     52.1791E-03
            2201            2730     39.0412E-03     39.4705E-03
            2200            2730     39.0412E-03     39.4705E-03
            2191            2730     39.0412E-03     39.4705E-03
            2192            2730     39.0412E-03     39.4705E-03
            2202            2731     27.0958E-03     27.9828E-03
            2192            2731     27.0958E-03     27.9828E-03
            2193            2731     27.0958E-03     27.9828E-03
            2201            2731     27.0958E-03     27.9828E-03
            2194            2732     19.3364E-03     20.4349E-03
            2202            2732     19.3364E-03     20.4349E-03
            2203            2732     19.3364E-03     20.4349E-03
            2193            2732     19.3364E-03     20.4349E-03
            2195            2733     20.0155E-03     21.1213E-03
            2204            2733     20.0155E-03     21.1213E-03
            2203            2733     20.0155E-03     21.1213E-03
            2194            2733     20.0155E-03     21.1213E-03
            2205            2734     28.6627E-03     29.5675E-03
            2196            2734     28.6627E-03     29.5675E-03
            2195            2734     28.6627E-03     29.5675E-03
            2204            2734     28.6627E-03     29.5675E-03
            2205            2735     40.8677E-03     41.3089E-03
            2206            2735     40.8677E-03     41.3089E-03
            2196            2735     40.8677E-03     41.3089E-03
            2197            2735     40.8677E-03     41.3089E-03
            2198            2736     54.3242E-03     54.0447E-03
            2207            2736     54.3242E-03     54.0447E-03
            2197            2736     54.3242E-03     54.0447E-03
            2206            2736     54.3242E-03     54.0447E-03
            2208            2737     54.4252E-03     54.3265E-03
            2209            2737     54.4252E-03     54.3265E-03
            2200            2737     54.4252E-03     54.3265E-03
            2199            2737     54.4252E-03     54.3265E-03
            2210            2738     40.5159E-03     41.4166E-03
            2200            2738     40.5159E-03     41.4166E-03
            2209            2738     40.5159E-03     41.4166E-03
            2201            2738     40.5159E-03     41.4166E-03
            2210            2739     27.7144E-03     29.2487E-03
            2211            2739     27.7144E-03     29.2487E-03
            2202            2739     27.7144E-03     29.2487E-03
            2201            2739     27.7144E-03     29.2487E-03
            2211            2740     19.0098E-03     20.8751E-03
            2212            2740     19.0098E-03     20.8751E-03
            2203            2740     19.0098E-03     20.8751E-03
            2202            2740     19.0098E-03     20.8751E-03
            2212            2741     19.6911E-03     21.5362E-03
            2203            2741     19.6911E-03     21.5362E-03
            2213            2741     19.6911E-03     21.5362E-03
            2204            2741     19.6911E-03     21.5362E-03
            2214            2742     29.2931E-03     30.8124E-03
            2205            2742     29.2931E-03     30.8124E-03
            2204            2742     29.2931E-03     30.8124E-03
            2213            2742     29.2931E-03     30.8124E-03
            2205            2743     42.3569E-03     43.2666E-03
            2206            2743     42.3569E-03     43.2666E-03
            2214            2743     42.3569E-03     43.2666E-03
            2215            2743     42.3569E-03     43.2666E-03
            2215            2744     56.3062E-03     56.2010E-03
            2207            2744     56.3062E-03     56.2010E-03
            2206            2744     56.3062E-03     56.2010E-03
            2216            2744     56.3062E-03     56.2010E-03
            2218            2745     57.0505E-03     57.4996E-03
            2209            2745     57.0505E-03     57.4996E-03
            2217            2745     57.0505E-03     57.4996E-03
            2208            2745     57.0505E-03     57.4996E-03
            2209            2746     41.6337E-03     42.7207E-03
            2218            2746     41.6337E-03     42.7207E-03
            2219            2746     41.6337E-03     42.7207E-03
            2210            2746     41.6337E-03     42.7207E-03
            2219            2747     27.0759E-03     28.5076E-03
            2210            2747     27.0759E-03     28.5076E-03
            2211            2747     27.0759E-03     28.5076E-03
            2220            2747     27.0759E-03     28.5076E-03
            2211            2748     17.7342E-03     19.7897E-03
            2220            2748     17.7342E-03     19.7897E-03
            2221            2748     17.7342E-03     19.7897E-03
            2212            2748     17.7342E-03     19.7897E-03
            2221            2749     18.4353E-03     20.4402E-03
            2222            2749     18.4353E-03     20.4402E-03
            2213            2749     18.4353E-03     20.4402E-03
            2212            2749     18.4353E-03     20.4402E-03
            2223            2750     28.6600E-03     30.0226E-03
            2222            2750     28.6600E-03     30.0226E-03
            2213            2750     28.6600E-03     30.0226E-03
            2214            2750     28.6600E-03     30.0226E-03
            2224            2751     43.4754E-03     44.5477E-03
            2215            2751     43.4754E-03     44.5477E-03
            2214            2751     43.4754E-03     44.5477E-03
            2223            2751     43.4754E-03     44.5477E-03
            2216            2752     58.9644E-03     59.4126E-03
            2224            2752     58.9644E-03     59.4126E-03
            2225            2752     58.9644E-03     59.4126E-03
            2215            2752     58.9644E-03     59.4126E-03
            2218            2753     59.0876E-03     57.1413E-03
            2226            2753     59.0876E-03     57.1413E-03
            2227            2753     59.0876E-03     57.1413E-03
            2217            2753     59.0876E-03     57.1413E-03
            2219            2754     40.4455E-03     39.2510E-03
            2218            2754     40.4455E-03     39.2510E-03
            2228            2754     40.4455E-03     39.2510E-03
            2227            2754     40.4455E-03     39.2510E-03
            2228            2755     25.0332E-03     24.7951E-03
            2220            2755     25.0332E-03     24.7951E-03
            2229            2755     25.0332E-03     24.7951E-03
            2219            2755     25.0332E-03     24.7951E-03
            2221            2756     14.7608E-03     15.8775E-03
            2230            2756     14.7608E-03     15.8775E-03
            2229            2756     14.7608E-03     15.8775E-03
            2220            2756     14.7608E-03     15.8775E-03
            2230            2757     15.4910E-03     16.5313E-03
            2222            2757     15.4910E-03     16.5313E-03
            2221            2757     15.4910E-03     16.5313E-03
            2231            2757     15.4910E-03     16.5313E-03
            2231            2758     26.6278E-03     26.2629E-03
            2232            2758     26.6278E-03     26.2629E-03
            2222            2758     26.6278E-03     26.2629E-03
            2223            2758     26.6278E-03     26.2629E-03
            2223            2759     42.2500E-03     40.9717E-03
            2232            2759     42.2500E-03     40.9717E-03
            2224            2759     42.2500E-03     40.9717E-03
            2233            2759     42.2500E-03     40.9717E-03
            2224            2760     61.0398E-03     59.0260E-03
            2225            2760     61.0398E-03     59.0260E-03
            2234            2760     61.0398E-03     59.0260E-03
            2233            2760     61.0398E-03     59.0260E-03
            2245            2761     680.642E-06     681.526E-06
            2244            2761     680.642E-06     681.526E-06
            2236            2761     680.642E-06     681.526E-06
            2235            2761     680.642E-06     681.526E-06
            2237            2762     731.923E-06     738.000E-06
            2245            2762     731.923E-06     738.000E-06
            2236            2762     731.923E-06     738.000E-06
            2246            2762     731.923E-06     738.000E-06
            2238            2763     733.758E-06     738.233E-06
            2246            2763     733.758E-06     738.233E-06
            2247            2763     733.758E-06     738.233E-06
            2237            2763     733.758E-06     738.233E-06
            2248            2764     730.520E-06     734.557E-06
            2238            2764     730.520E-06     734.557E-06
            2239            2764     730.520E-06     734.557E-06
            2247            2764     730.520E-06     734.557E-06
            2249            2765     730.520E-06     734.557E-06
            2248            2765     730.520E-06     734.557E-06
            2239            2765     730.520E-06     734.557E-06
            2240            2765     730.520E-06     734.557E-06
            2249            2766     733.758E-06     738.233E-06
            2241            2766     733.758E-06     738.233E-06
            2240            2766     733.758E-06     738.233E-06
            2250            2766     733.758E-06     738.233E-06
            2242            2767     731.923E-06     738.000E-06
            2250            2767     731.923E-06     738.000E-06
            2251            2767     731.923E-06     738.000E-06
            2241            2767     731.923E-06     738.000E-06
            2243            2768     680.642E-06     681.526E-06
            2242            2768     680.642E-06     681.526E-06
            2252            2768     680.642E-06     681.526E-06
            2251            2768     680.642E-06     681.526E-06
            2254            2769     627.627E-06     631.767E-06
            2253            2769     627.627E-06     631.767E-06
            2245            2769     627.627E-06     631.767E-06
            2244            2769     627.627E-06     631.767E-06
            2246            2770     750.269E-06     755.515E-06
            2254            2770     750.269E-06     755.515E-06
            2245            2770     750.269E-06     755.515E-06
            2255            2770     750.269E-06     755.515E-06
            2255            2771     750.177E-06     756.965E-06
            2247            2771     750.177E-06     756.965E-06
            2256            2771     750.177E-06     756.965E-06
            2246            2771     750.177E-06     756.965E-06
            2247            2772     741.374E-06     746.949E-06
            2248            2772     741.374E-06     746.949E-06
            2257            2772     741.374E-06     746.949E-06
            2256            2772     741.374E-06     746.949E-06
            2257            2773     741.374E-06     746.949E-06
            2258            2773     741.374E-06     746.949E-06
            2249            2773     741.374E-06     746.949E-06
            2248            2773     741.374E-06     746.949E-06
            2258            2774     750.177E-06     756.965E-06
            2259            2774     750.177E-06     756.965E-06
            2250            2774     750.177E-06     756.965E-06
            2249            2774     750.177E-06     756.965E-06
            2251            2775     750.269E-06     755.515E-06
            2260            2775     750.269E-06     755.515E-06
            2259            2775     750.269E-06     755.515E-06
            2250            2775     750.269E-06     755.515E-06
            2251            2776     627.627E-06     631.767E-06
            2252            2776     627.627E-06     631.767E-06
            2260            2776     627.627E-06     631.767E-06
            2261            2776     627.627E-06     631.767E-06
            2254            2777     610.215E-06     612.452E-06
            2253            2777     610.215E-06     612.452E-06
            2263            2777     610.215E-06     612.452E-06
            2262            2777     610.215E-06     612.452E-06
            2264            2778     727.152E-06     729.291E-06
            2263            2778     727.152E-06     729.291E-06
            2254            2778     727.152E-06     729.291E-06
            2255            2778     727.152E-06     729.291E-06
            2256            2779     748.166E-06     752.021E-06
            2255            2779     748.166E-06     752.021E-06
            2265            2779     748.166E-06     752.021E-06
            2264            2779     748.166E-06     752.021E-06
            2265            2780     749.820E-06     754.184E-06
            2266            2780     749.820E-06     754.184E-06
            2256            2780     749.820E-06     754.184E-06
            2257            2780     749.820E-06     754.184E-06
            2267            2781     749.820E-06     754.184E-06
            2258            2781     749.820E-06     754.184E-06
            2257            2781     749.820E-06     754.184E-06
            2266            2781     749.820E-06     754.184E-06
            2267            2782     748.166E-06     752.021E-06
            2259            2782     748.166E-06     752.021E-06
            2268            2782     748.166E-06     752.021E-06
            2258            2782     748.166E-06     752.021E-06
            2268            2783     727.152E-06     729.291E-06
            2269            2783     727.152E-06     729.291E-06
            2260            2783     727.152E-06     729.291E-06
            2259            2783     727.152E-06     729.291E-06
            2261            2784     610.215E-06     612.452E-06
            2269            2784     610.215E-06     612.452E-06
            2260            2784     610.215E-06     612.452E-06
            2270            2784     610.215E-06     612.452E-06
            3851            4163     83.2611E-03     68.8553E-03
            3860            4163     83.2611E-03     68.8553E-03
            3852            4163     83.2611E-03     68.8553E-03
            3861            4163     83.2611E-03     68.8553E-03
            3852            4164     62.3818E-03     47.1575E-03
            3853            4164     62.3818E-03     47.1575E-03
            3862            4164     62.3818E-03     47.1575E-03
            3861            4164     62.3818E-03     47.1575E-03
            3862            4165     43.5648E-03     30.8406E-03
            3853            4165     43.5648E-03     30.8406E-03
            3854            4165     43.5648E-03     30.8406E-03
            3863            4165     43.5648E-03     30.8406E-03
            3854            4166     27.1684E-03     20.5646E-03
            3855            4166     27.1684E-03     20.5646E-03
            3864            4166     27.1684E-03     20.5646E-03
            3863            4166     27.1684E-03     20.5646E-03
            3864            4167     16.2737E-03     19.0870E-03
            3855            4167     16.2737E-03     19.0870E-03
            3856            4167     16.2737E-03     19.0870E-03
            3865            4167     16.2737E-03     19.0870E-03
            3856            4168     18.9638E-03     27.4608E-03
            3866            4168     18.9638E-03     27.4608E-03
            3857            4168     18.9638E-03     27.4608E-03
            3865            4168     18.9638E-03     27.4608E-03
            3867            4169     34.5185E-03     41.7759E-03
            3857            4169     34.5185E-03     41.7759E-03
            3866            4169     34.5185E-03     41.7759E-03
            3858            4169     34.5185E-03     41.7759E-03
            3858            4170     56.0702E-03     59.6471E-03
            3868            4170     56.0702E-03     59.6471E-03
            3867            4170     56.0702E-03     59.6471E-03
            3859            4170     56.0702E-03     59.6471E-03
            3860            4171     73.5301E-03     74.8436E-03
            3870            4171     73.5301E-03     74.8436E-03
            3869            4171     73.5301E-03     74.8436E-03
            3861            4171     73.5301E-03     74.8436E-03
            3871            4172     58.2687E-03     57.0458E-03
            3861            4172     58.2687E-03     57.0458E-03
            3870            4172     58.2687E-03     57.0458E-03
            3862            4172     58.2687E-03     57.0458E-03
            3871            4173     41.9317E-03     39.0208E-03
            3863            4173     41.9317E-03     39.0208E-03
            3862            4173     41.9317E-03     39.0208E-03
            3872            4173     41.9317E-03     39.0208E-03
            3872            4174     26.5035E-03     26.7966E-03
            3863            4174     26.5035E-03     26.7966E-03
            3873            4174     26.5035E-03     26.7966E-03
            3864            4174     26.5035E-03     26.7966E-03
            3873            4175     17.8289E-03     23.5340E-03
            3864            4175     17.8289E-03     23.5340E-03
            3865            4175     17.8289E-03     23.5340E-03
            3874            4175     17.8289E-03     23.5340E-03
            3865            4176     22.4478E-03     30.8595E-03
            3866            4176     22.4478E-03     30.8595E-03
            3875            4176     22.4478E-03     30.8595E-03
            3874            4176     22.4478E-03     30.8595E-03
            3866            4177     37.4768E-03     44.8575E-03
            3876            4177     37.4768E-03     44.8575E-03
            3867            4177     37.4768E-03     44.8575E-03
            3875            4177     37.4768E-03     44.8575E-03
            3868            4178     54.9313E-03     59.2467E-03
            3867            4178     54.9313E-03     59.2467E-03
            3876            4178     54.9313E-03     59.2467E-03
            3877            4178     54.9313E-03     59.2467E-03
            3870            4179     70.0428E-03     70.5225E-03
            3879            4179     70.0428E-03     70.5225E-03
            3869            4179     70.0428E-03     70.5225E-03
            3878            4179     70.0428E-03     70.5225E-03
            3879            4180     55.0583E-03     57.9544E-03
            3870            4180     55.0583E-03     57.9544E-03
            3871            4180     55.0583E-03     57.9544E-03
            3880            4180     55.0583E-03     57.9544E-03
            3880            4181     38.9777E-03     43.5630E-03
            3871            4181     38.9777E-03     43.5630E-03
            3872            4181     38.9777E-03     43.5630E-03
            3881            4181     38.9777E-03     43.5630E-03
            3882            4182     24.9177E-03     29.9486E-03
            3872            4182     24.9177E-03     29.9486E-03
            3881            4182     24.9177E-03     29.9486E-03
            3873            4182     24.9177E-03     29.9486E-03
            3883            4183     19.0174E-03     24.7049E-03
            3882            4183     19.0174E-03     24.7049E-03
            3873            4183     19.0174E-03     24.7049E-03
            3874            4183     19.0174E-03     24.7049E-03
            3875            4184     25.0009E-03     31.0229E-03
            3883            4184     25.0009E-03     31.0229E-03
            3874            4184     25.0009E-03     31.0229E-03
            3884            4184     25.0009E-03     31.0229E-03
            3875            4185     37.9626E-03     43.3834E-03
            3876            4185     37.9626E-03     43.3834E-03
            3884            4185     37.9626E-03     43.3834E-03
            3885            4185     37.9626E-03     43.3834E-03
            3877            4186     52.4527E-03     55.8546E-03
            3876            4186     52.4527E-03     55.8546E-03
            3885            4186     52.4527E-03     55.8546E-03
            3886            4186     52.4527E-03     55.8546E-03
            3888            4187     66.8897E-03     68.3364E-03
            3878            4187     66.8897E-03     68.3364E-03
            3887            4187     66.8897E-03     68.3364E-03
            3879            4187     66.8897E-03     68.3364E-03
            3888            4188     50.0698E-03     57.6672E-03
            3880            4188     50.0698E-03     57.6672E-03
            3879            4188     50.0698E-03     57.6672E-03
            3889            4188     50.0698E-03     57.6672E-03
            3890            4189     34.7487E-03     44.3736E-03
            3880            4189     34.7487E-03     44.3736E-03
            3881            4189     34.7487E-03     44.3736E-03
            3889            4189     34.7487E-03     44.3736E-03
            3890            4190     23.8703E-03     31.6583E-03
            3881            4190     23.8703E-03     31.6583E-03
            3891            4190     23.8703E-03     31.6583E-03
            3882            4190     23.8703E-03     31.6583E-03
            3891            4191     20.5657E-03     24.9529E-03
            3892            4191     20.5657E-03     24.9529E-03
            3883            4191     20.5657E-03     24.9529E-03
            3882            4191     20.5657E-03     24.9529E-03
            3892            4192     26.8971E-03     28.1945E-03
            3893            4192     26.8971E-03     28.1945E-03
            3883            4192     26.8971E-03     28.1945E-03
            3884            4192     26.8971E-03     28.1945E-03
            3893            4193     38.2806E-03     39.5098E-03
            3885            4193     38.2806E-03     39.5098E-03
            3884            4193     38.2806E-03     39.5098E-03
            3894            4193     38.2806E-03     39.5098E-03
            3895            4194     50.7702E-03     52.8156E-03
            3885            4194     50.7702E-03     52.8156E-03
            3886            4194     50.7702E-03     52.8156E-03
            3894            4194     50.7702E-03     52.8156E-03
            3888            4195     54.3687E-03     69.4894E-03
            3887            4195     54.3687E-03     69.4894E-03
            3896            4195     54.3687E-03     69.4894E-03
            3897            4195     54.3687E-03     69.4894E-03
            3897            4196     40.9333E-03     57.5654E-03
            3889            4196     40.9333E-03     57.5654E-03
            3898            4196     40.9333E-03     57.5654E-03
            3888            4196     40.9333E-03     57.5654E-03
            3889            4197     31.2952E-03     44.3671E-03
            3899            4197     31.2952E-03     44.3671E-03
            3890            4197     31.2952E-03     44.3671E-03
            3898            4197     31.2952E-03     44.3671E-03
            3900            4198     24.7481E-03     33.4958E-03
            3899            4198     24.7481E-03     33.4958E-03
            3891            4198     24.7481E-03     33.4958E-03
            3890            4198     24.7481E-03     33.4958E-03
            3891            4199     23.9187E-03     26.4974E-03
            3892            4199     23.9187E-03     26.4974E-03
            3901            4199     23.9187E-03     26.4974E-03
            3900            4199     23.9187E-03     26.4974E-03
            3893            4200     29.5238E-03     26.2669E-03
            3892            4200     29.5238E-03     26.2669E-03
            3901            4200     29.5238E-03     26.2669E-03
            3902            4200     29.5238E-03     26.2669E-03
            3902            4201     38.8498E-03     33.1140E-03
            3894            4201     38.8498E-03     33.1140E-03
            3893            4201     38.8498E-03     33.1140E-03
            3903            4201     38.8498E-03     33.1140E-03
            3895            4202     48.7481E-03     43.8609E-03
            3894            4202     48.7481E-03     43.8609E-03
            3904            4202     48.7481E-03     43.8609E-03
            3903            4202     48.7481E-03     43.8609E-03
            3905            4203     50.8153E-03     66.4818E-03
            3906            4203     50.8153E-03     66.4818E-03
            3915            4203     50.8153E-03     66.4818E-03
            3914            4203     50.8153E-03     66.4818E-03
            3915            4204     39.5658E-03     50.9440E-03
            3916            4204     39.5658E-03     50.9440E-03
            3907            4204     39.5658E-03     50.9440E-03
            3906            4204     39.5658E-03     50.9440E-03
            3907            4205     29.1693E-03     38.0744E-03
            3917            4205     29.1693E-03     38.0744E-03
            3916            4205     29.1693E-03     38.0744E-03
            3908            4205     29.1693E-03     38.0744E-03
            3909            4206     22.0356E-03     27.9041E-03
            3917            4206     22.0356E-03     27.9041E-03
            3918            4206     22.0356E-03     27.9041E-03
            3908            4206     22.0356E-03     27.9041E-03
            3918            4207     21.9026E-03     23.0543E-03
            3910            4207     21.9026E-03     23.0543E-03
            3919            4207     21.9026E-03     23.0543E-03
            3909            4207     21.9026E-03     23.0543E-03
            3919            4208     28.5315E-03     25.8421E-03
            3910            4208     28.5315E-03     25.8421E-03
            3920            4208     28.5315E-03     25.8421E-03
            3911            4208     28.5315E-03     25.8421E-03
            3921            4209     39.1389E-03     34.2433E-03
            3911            4209     39.1389E-03     34.2433E-03
            3920            4209     39.1389E-03     34.2433E-03
            3912            4209     39.1389E-03     34.2433E-03
            3913            4210     50.8941E-03     45.4796E-03
            3921            4210     50.8941E-03     45.4796E-03
            3912            4210     50.8941E-03     45.4796E-03
            3922            4210     50.8941E-03     45.4796E-03
            3915            4211     58.0547E-03     74.3834E-03
            3923            4211     58.0547E-03     74.3834E-03
            3924            4211     58.0547E-03     74.3834E-03
            3914            4211     58.0547E-03     74.3834E-03
            3916            4212     43.1441E-03     61.2375E-03
            3925            4212     43.1441E-03     61.2375E-03
            3915            4212     43.1441E-03     61.2375E-03
            3924            4212     43.1441E-03     61.2375E-03
            3916            4213     31.7058E-03     47.3885E-03
            3917            4213     31.7058E-03     47.3885E-03
            3925            4213     31.7058E-03     47.3885E-03
            3926            4213     31.7058E-03     47.3885E-03
            3926            4214     23.6558E-03     34.8518E-03
            3918            4214     23.6558E-03     34.8518E-03
            3917            4214     23.6558E-03     34.8518E-03
            3927            4214     23.6558E-03     34.8518E-03
            3919            4215     22.0819E-03     26.0946E-03
            3928            4215     22.0819E-03     26.0946E-03
            3918            4215     22.0819E-03     26.0946E-03
            3927            4215     22.0819E-03     26.0946E-03
            3929            4216     27.9330E-03     25.3697E-03
            3920            4216     27.9330E-03     25.3697E-03
            3928            4216     27.9330E-03     25.3697E-03
            3919            4216     27.9330E-03     25.3697E-03
            3930            4217     38.0948E-03     32.7688E-03
            3920            4217     38.0948E-03     32.7688E-03
            3929            4217     38.0948E-03     32.7688E-03
            3921            4217     38.0948E-03     32.7688E-03
            3930            4218     49.1645E-03     44.6042E-03
            3931            4218     49.1645E-03     44.6042E-03
            3922            4218     49.1645E-03     44.6042E-03
            3921            4218     49.1645E-03     44.6042E-03
            3923            4219     71.3137E-03     72.0920E-03
            3933            4219     71.3137E-03     72.0920E-03
            3924            4219     71.3137E-03     72.0920E-03
            3932            4219     71.3137E-03     72.0920E-03
            3925            4220     52.9423E-03     61.4034E-03
            3934            4220     52.9423E-03     61.4034E-03
            3933            4220     52.9423E-03     61.4034E-03
            3924            4220     52.9423E-03     61.4034E-03
            3926            4221     36.7203E-03     45.6318E-03
            3934            4221     36.7203E-03     45.6318E-03
            3935            4221     36.7203E-03     45.6318E-03
            3925            4221     36.7203E-03     45.6318E-03
            3926            4222     23.5764E-03     30.7066E-03
            3935            4222     23.5764E-03     30.7066E-03
            3936            4222     23.5764E-03     30.7066E-03
            3927            4222     23.5764E-03     30.7066E-03
            3927            4223     17.9820E-03     23.3818E-03
            3936            4223     17.9820E-03     23.3818E-03
            3937            4223     17.9820E-03     23.3818E-03
            3928            4223     17.9820E-03     23.3818E-03
            3929            4224     24.3058E-03     27.2465E-03
            3937            4224     24.3058E-03     27.2465E-03
            3928            4224     24.3058E-03     27.2465E-03
            3938            4224     24.3058E-03     27.2465E-03
            3938            4225     37.2346E-03     39.5131E-03
            3930            4225     37.2346E-03     39.5131E-03
            3929            4225     37.2346E-03     39.5131E-03
            3939            4225     37.2346E-03     39.5131E-03
            3931            4226     50.7256E-03     53.4235E-03
            3930            4226     50.7256E-03     53.4235E-03
            3939            4226     50.7256E-03     53.4235E-03
            3940            4226     50.7256E-03     53.4235E-03
            3932            4227     74.0291E-03     76.1599E-03
            3941            4227     74.0291E-03     76.1599E-03
            3933            4227     74.0291E-03     76.1599E-03
            3942            4227     74.0291E-03     76.1599E-03
            3933            4228     59.7576E-03     58.2043E-03
            3943            4228     59.7576E-03     58.2043E-03
            3942            4228     59.7576E-03     58.2043E-03
            3934            4228     59.7576E-03     58.2043E-03
            3935            4229     42.0356E-03     40.1306E-03
            3934            4229     42.0356E-03     40.1306E-03
            3943            4229     42.0356E-03     40.1306E-03
            3944            4229     42.0356E-03     40.1306E-03
            3945            4230     25.7685E-03     26.2299E-03
            3944            4230     25.7685E-03     26.2299E-03
            3935            4230     25.7685E-03     26.2299E-03
            3936            4230     25.7685E-03     26.2299E-03
            3946            4231     16.2360E-03     21.0810E-03
            3945            4231     16.2360E-03     21.0810E-03
            3936            4231     16.2360E-03     21.0810E-03
            3937            4231     16.2360E-03     21.0810E-03
            3947            4232     20.5564E-03     28.0474E-03
            3938            4232     20.5564E-03     28.0474E-03
            3937            4232     20.5564E-03     28.0474E-03
            3946            4232     20.5564E-03     28.0474E-03
            3938            4233     35.6491E-03     42.8482E-03
            3948            4233     35.6491E-03     42.8482E-03
            3947            4233     35.6491E-03     42.8482E-03
            3939            4233     35.6491E-03     42.8482E-03
            3939            4234     52.6550E-03     57.1948E-03
            3948            4234     52.6550E-03     57.1948E-03
            3940            4234     52.6550E-03     57.1948E-03
            3949            4234     52.6550E-03     57.1948E-03
            3950            4235     84.2464E-03     68.7810E-03
            3951            4235     84.2464E-03     68.7810E-03
            3941            4235     84.2464E-03     68.7810E-03
            3942            4235     84.2464E-03     68.7810E-03
            3951            4236     64.1182E-03     47.5188E-03
            3952            4236     64.1182E-03     47.5188E-03
            3942            4236     64.1182E-03     47.5188E-03
            3943            4236     64.1182E-03     47.5188E-03
            3944            4237     45.5720E-03     30.6680E-03
            3952            4237     45.5720E-03     30.6680E-03
            3943            4237     45.5720E-03     30.6680E-03
            3953            4237     45.5720E-03     30.6680E-03
            3954            4238     28.1717E-03     19.1225E-03
            3944            4238     28.1717E-03     19.1225E-03
            3953            4238     28.1717E-03     19.1225E-03
            3945            4238     28.1717E-03     19.1225E-03
            3945            4239     15.3130E-03     16.7533E-03
            3954            4239     15.3130E-03     16.7533E-03
            3955            4239     15.3130E-03     16.7533E-03
            3946            4239     15.3130E-03     16.7533E-03
            3946            4240     16.4420E-03     25.6531E-03
            3956            4240     16.4420E-03     25.6531E-03
            3955            4240     16.4420E-03     25.6531E-03
            3947            4240     16.4420E-03     25.6531E-03
            3957            4241     31.7320E-03     40.2245E-03
            3948            4241     31.7320E-03     40.2245E-03
            3947            4241     31.7320E-03     40.2245E-03
            3956            4241     31.7320E-03     40.2245E-03
            3949            4242     53.1228E-03     57.6614E-03
            3948            4242     53.1228E-03     57.6614E-03
            3958            4242     53.1228E-03     57.6614E-03
            3957            4242     53.1228E-03     57.6614E-03
            5325            5425     778.707E-06     774.817E-06
            5334            5425     778.707E-06     774.817E-06
            5326            5425     778.707E-06     774.817E-06
            5335            5425     778.707E-06     774.817E-06
            5326            5426     752.189E-06     759.781E-06
            5336            5426     752.189E-06     759.781E-06
            5327            5426     752.189E-06     759.781E-06
            5335            5426     752.189E-06     759.781E-06
            5328            5427     743.212E-06     751.038E-06
            5337            5427     743.212E-06     751.038E-06
            5336            5427     743.212E-06     751.038E-06
            5327            5427     743.212E-06     751.038E-06
            5337            5428     748.326E-06     755.870E-06
            5338            5428     748.326E-06     755.870E-06
            5328            5428     748.326E-06     755.870E-06
            5329            5428     748.326E-06     755.870E-06
            5339            5429     748.326E-06     755.870E-06
            5338            5429     748.326E-06     755.870E-06
            5329            5429     748.326E-06     755.870E-06
            5330            5429     748.326E-06     755.870E-06
            5331            5430     743.212E-06     751.038E-06
            5339            5430     743.212E-06     751.038E-06
            5340            5430     743.212E-06     751.038E-06
            5330            5430     743.212E-06     751.038E-06
            5340            5431     752.189E-06     759.781E-06
            5331            5431     752.189E-06     759.781E-06
            5341            5431     752.189E-06     759.781E-06
            5332            5431     752.189E-06     759.781E-06
            5333            5432     778.707E-06     774.817E-06
            5342            5432     778.707E-06     774.817E-06
            5332            5432     778.707E-06     774.817E-06
            5341            5432     778.707E-06     774.817E-06
            5334            5433     671.191E-06     675.670E-06
            5335            5433     671.191E-06     675.670E-06
            5343            5433     671.191E-06     675.670E-06
            5344            5433     671.191E-06     675.670E-06
            5335            5434     754.741E-06     764.167E-06
            5336            5434     754.741E-06     764.167E-06
            5345            5434     754.741E-06     764.167E-06
            5344            5434     754.741E-06     764.167E-06
            5345            5435     781.889E-06     792.900E-06
            5346            5435     781.889E-06     792.900E-06
            5337            5435     781.889E-06     792.900E-06
            5336            5435     781.889E-06     792.900E-06
            5338            5436     790.430E-06     800.151E-06
            5337            5436     790.430E-06     800.151E-06
            5346            5436     790.430E-06     800.151E-06
            5347            5436     790.430E-06     800.151E-06
            5339            5437     790.430E-06     800.151E-06
            5338            5437     790.430E-06     800.151E-06
            5347            5437     790.430E-06     800.151E-06
            5348            5437     790.430E-06     800.151E-06
            5349            5438     781.889E-06     792.900E-06
            5340            5438     781.889E-06     792.900E-06
            5339            5438     781.889E-06     792.900E-06
            5348            5438     781.889E-06     792.900E-06
            5341            5439     754.741E-06     764.167E-06
            5349            5439     754.741E-06     764.167E-06
            5340            5439     754.741E-06     764.167E-06
            5350            5439     754.741E-06     764.167E-06
            5351            5440     671.191E-06     675.670E-06
            5341            5440     671.191E-06     675.670E-06
            5342            5440     671.191E-06     675.670E-06
            5350            5440     671.191E-06     675.670E-06
            5352            5441     591.078E-06     595.511E-06
            5353            5441     591.078E-06     595.511E-06
            5343            5441     591.078E-06     595.511E-06
            5344            5441     591.078E-06     595.511E-06
            5353            5442     730.739E-06     734.629E-06
            5345            5442     730.739E-06     734.629E-06
            5354            5442     730.739E-06     734.629E-06
            5344            5442     730.739E-06     734.629E-06
            5355            5443     796.331E-06     802.108E-06
            5346            5443     796.331E-06     802.108E-06
            5354            5443     796.331E-06     802.108E-06
            5345            5443     796.331E-06     802.108E-06
            5356            5444     808.876E-06     815.317E-06
            5347            5444     808.876E-06     815.317E-06
            5346            5444     808.876E-06     815.317E-06
            5355            5444     808.876E-06     815.317E-06
            5347            5445     808.876E-06     815.317E-06
            5356            5445     808.876E-06     815.317E-06
            5348            5445     808.876E-06     815.317E-06
            5357            5445     808.876E-06     815.317E-06
            5348            5446     796.331E-06     802.108E-06
            5349            5446     796.331E-06     802.108E-06
            5357            5446     796.331E-06     802.108E-06
            5358            5446     796.331E-06     802.108E-06
            5358            5447     730.739E-06     734.629E-06
            5350            5447     730.739E-06     734.629E-06
            5349            5447     730.739E-06     734.629E-06
            5359            5447     730.739E-06     734.629E-06
            5351            5448     591.078E-06     595.511E-06
            5359            5448     591.078E-06     595.511E-06
            5350            5448     591.078E-06     595.511E-06
            5360            5448     591.078E-06     595.511E-06
            5352            5449     569.989E-06     576.958E-06
            5361            5449     569.989E-06     576.958E-06
            5353            5449     569.989E-06     576.958E-06
            5362            5449     569.989E-06     576.958E-06
            5353            5450     723.645E-06     724.825E-06
            5363            5450     723.645E-06     724.825E-06
            5362            5450     723.645E-06     724.825E-06
            5354            5450     723.645E-06     724.825E-06
            5355            5451     781.931E-06     782.187E-06
            5363            5451     781.931E-06     782.187E-06
            5364            5451     781.931E-06     782.187E-06
            5354            5451     781.931E-06     782.187E-06
            5365            5452     799.296E-06     800.562E-06
            5355            5452     799.296E-06     800.562E-06
            5356            5452     799.296E-06     800.562E-06
            5364            5452     799.296E-06     800.562E-06
            5365            5453     799.296E-06     800.562E-06
            5366            5453     799.296E-06     800.562E-06
            5357            5453     799.296E-06     800.562E-06
            5356            5453     799.296E-06     800.562E-06
            5358            5454     781.931E-06     782.187E-06
            5366            5454     781.931E-06     782.187E-06
            5357            5454     781.931E-06     782.187E-06
            5367            5454     781.931E-06     782.187E-06
            5368            5455     723.645E-06     724.825E-06
            5359            5455     723.645E-06     724.825E-06
            5358            5455     723.645E-06     724.825E-06
            5367            5455     723.645E-06     724.825E-06
            5368            5456     569.989E-06     576.958E-06
            5360            5456     569.989E-06     576.958E-06
            5359            5456     569.989E-06     576.958E-06
            5369            5456     569.989E-06     576.958E-06
            5361            5457     587.845E-06     592.823E-06
            5370            5457     587.845E-06     592.823E-06
            5362            5457     587.845E-06     592.823E-06
            5371            5457     587.845E-06     592.823E-06
            5362            5458     708.650E-06     708.319E-06
            5372            5458     708.650E-06     708.319E-06
            5363            5458     708.650E-06     708.319E-06
            5371            5458     708.650E-06     708.319E-06
            5373            5459     754.655E-06     753.199E-06
            5363            5459     754.655E-06     753.199E-06
            5372            5459     754.655E-06     753.199E-06
            5364            5459     754.655E-06     753.199E-06
            5373            5460     777.094E-06     775.800E-06
            5365            5460     777.094E-06     775.800E-06
            5364            5460     777.094E-06     775.800E-06
            5374            5460     777.094E-06     775.800E-06
            5366            5461     777.094E-06     775.800E-06
            5375            5461     777.094E-06     775.800E-06
            5374            5461     777.094E-06     775.800E-06
            5365            5461     777.094E-06     775.800E-06
            5367            5462     754.655E-06     753.199E-06
            5375            5462     754.655E-06     753.199E-06
            5366            5462     754.655E-06     753.199E-06
            5376            5462     754.655E-06     753.199E-06
            5377            5463     708.650E-06     708.319E-06
            5368            5463     708.650E-06     708.319E-06
            5376            5463     708.650E-06     708.319E-06
            5367            5463     708.650E-06     708.319E-06
            5378            5464     587.845E-06     592.823E-06
            5377            5464     587.845E-06     592.823E-06
            5369            5464     587.845E-06     592.823E-06
            5368            5464     587.845E-06     592.823E-06
            5388            5465     53.4339E-03     51.2653E-03
            5389            5465     53.4339E-03     51.2653E-03
            5379            5465     53.4339E-03     51.2653E-03
            5380            5465     53.4339E-03     51.2653E-03
            5389            5466     36.6687E-03     35.2323E-03
            5380            5466     36.6687E-03     35.2323E-03
            5390            5466     36.6687E-03     35.2323E-03
            5381            5466     36.6687E-03     35.2323E-03
            5381            5467     22.9970E-03     22.4022E-03
            5390            5467     22.9970E-03     22.4022E-03
            5382            5467     22.9970E-03     22.4022E-03
            5391            5467     22.9970E-03     22.4022E-03
            5392            5468     13.3348E-03     13.4844E-03
            5383            5468     13.3348E-03     13.4844E-03
            5382            5468     13.3348E-03     13.4844E-03
            5391            5468     13.3348E-03     13.4844E-03
            5383            5469     14.2181E-03     14.3077E-03
            5392            5469     14.2181E-03     14.3077E-03
            5393            5469     14.2181E-03     14.3077E-03
            5384            5469     14.2181E-03     14.3077E-03
            5385            5470     24.9293E-03     24.2276E-03
            5393            5470     24.9293E-03     24.2276E-03
            5394            5470     24.9293E-03     24.2276E-03
            5384            5470     24.9293E-03     24.2276E-03
            5386            5471     38.8158E-03     37.2845E-03
            5394            5471     38.8158E-03     37.2845E-03
            5385            5471     38.8158E-03     37.2845E-03
            5395            5471     38.8158E-03     37.2845E-03
            5395            5472     55.7297E-03     53.4629E-03
            5396            5472     55.7297E-03     53.4629E-03
            5386            5472     55.7297E-03     53.4629E-03
            5387            5472     55.7297E-03     53.4629E-03
            5397            5473     56.9714E-03     55.1730E-03
            5398            5473     56.9714E-03     55.1730E-03
            5388            5473     56.9714E-03     55.1730E-03
            5389            5473     56.9714E-03     55.1730E-03
            5399            5474     39.1768E-03     38.1735E-03
            5390            5474     39.1768E-03     38.1735E-03
            5398            5474     39.1768E-03     38.1735E-03
            5389            5474     39.1768E-03     38.1735E-03
            5391            5475     24.9335E-03     24.8613E-03
            5390            5475     24.9335E-03     24.8613E-03
            5400            5475     24.9335E-03     24.8613E-03
            5399            5475     24.9335E-03     24.8613E-03
            5400            5476     16.0721E-03     17.1771E-03
            5391            5476     16.0721E-03     17.1771E-03
            5392            5476     16.0721E-03     17.1771E-03
            5401            5476     16.0721E-03     17.1771E-03
            5401            5477     16.9171E-03     17.9280E-03
            5402            5477     16.9171E-03     17.9280E-03
            5393            5477     16.9171E-03     17.9280E-03
            5392            5477     16.9171E-03     17.9280E-03
            5393            5478     26.8388E-03     26.6031E-03
            5403            5478     26.8388E-03     26.6031E-03
            5394            5478     26.8388E-03     26.6031E-03
            5402            5478     26.8388E-03     26.6031E-03
            5394            5479     41.4103E-03     40.2918E-03
            5404            5479     41.4103E-03     40.2918E-03
            5395            5479     41.4103E-03     40.2918E-03
            5403            5479     41.4103E-03     40.2918E-03
            5396            5480     59.4181E-03     57.5291E-03
            5404            5480     59.4181E-03     57.5291E-03
            5395            5480     59.4181E-03     57.5291E-03
            5405            5480     59.4181E-03     57.5291E-03
            5406            5481     54.6508E-03     55.0068E-03
            5407            5481     54.6508E-03     55.0068E-03
            5398            5481     54.6508E-03     55.0068E-03
            5397            5481     54.6508E-03     55.0068E-03
            5398            5482     40.3004E-03     41.3089E-03
            5399            5482     40.3004E-03     41.3089E-03
            5407            5482     40.3004E-03     41.3089E-03
            5408            5482     40.3004E-03     41.3089E-03
            5408            5483     27.0564E-03     28.4620E-03
            5399            5483     27.0564E-03     28.4620E-03
            5409            5483     27.0564E-03     28.4620E-03
            5400            5483     27.0564E-03     28.4620E-03
            5401            5484     19.0707E-03     21.0304E-03
            5409            5484     19.0707E-03     21.0304E-03
            5410            5484     19.0707E-03     21.0304E-03
            5400            5484     19.0707E-03     21.0304E-03
            5410            5485     19.8762E-03     21.7755E-03
            5411            5485     19.8762E-03     21.7755E-03
            5402            5485     19.8762E-03     21.7755E-03
            5401            5485     19.8762E-03     21.7755E-03
            5402            5486     28.9363E-03     30.2534E-03
            5412            5486     28.9363E-03     30.2534E-03
            5411            5486     28.9363E-03     30.2534E-03
            5403            5486     28.9363E-03     30.2534E-03
            5403            5487     42.5687E-03     43.5510E-03
            5404            5487     42.5687E-03     43.5510E-03
            5413            5487     42.5687E-03     43.5510E-03
            5412            5487     42.5687E-03     43.5510E-03
            5414            5488     57.0463E-03     57.3969E-03
            5405            5488     57.0463E-03     57.3969E-03
            5404            5488     57.0463E-03     57.3969E-03
            5413            5488     57.0463E-03     57.3969E-03
            5406            5489     51.7766E-03     51.6336E-03
            5407            5489     51.7766E-03     51.6336E-03
            5415            5489     51.7766E-03     51.6336E-03
            5416            5489     51.7766E-03     51.6336E-03
            5408            5490     39.0991E-03     39.8770E-03
            5417            5490     39.0991E-03     39.8770E-03
            5416            5490     39.0991E-03     39.8770E-03
            5407            5490     39.0991E-03     39.8770E-03
            5408            5491     27.7418E-03     29.2018E-03
            5417            5491     27.7418E-03     29.2018E-03
            5409            5491     27.7418E-03     29.2018E-03
            5418            5491     27.7418E-03     29.2018E-03
            5409            5492     20.4304E-03     22.2505E-03
            5410            5492     20.4304E-03     22.2505E-03
            5418            5492     20.4304E-03     22.2505E-03
            5419            5492     20.4304E-03     22.2505E-03
            5419            5493     21.2072E-03     23.0008E-03
            5420            5493     21.2072E-03     23.0008E-03
            5410            5493     21.2072E-03     23.0008E-03
            5411            5493     21.2072E-03     23.0008E-03
            5412            5494     29.6070E-03     31.0417E-03
            5421            5494     29.6070E-03     31.0417E-03
            5411            5494     29.6070E-03     31.0417E-03
            5420            5494     29.6070E-03     31.0417E-03
            5412            5495     41.3603E-03     42.1416E-03
            5422            5495     41.3603E-03     42.1416E-03
            5421            5495     41.3603E-03     42.1416E-03
            5413            5495     41.3603E-03     42.1416E-03
            5422            5496     54.1269E-03     53.9722E-03
            5413            5496     54.1269E-03     53.9722E-03
            5423            5496     54.1269E-03     53.9722E-03
            5414            5496     54.1269E-03     53.9722E-03
            5415            5497     49.6222E-03     49.2737E-03
            5416            5497     49.6222E-03     49.2737E-03
            5425            5497     49.6222E-03     49.2737E-03
            5424            5497     49.6222E-03     49.2737E-03
            5417            5498     37.5211E-03     37.8272E-03
            5425            5498     37.5211E-03     37.8272E-03
            5416            5498     37.5211E-03     37.8272E-03
            5426            5498     37.5211E-03     37.8272E-03
            5426            5499     27.1456E-03     27.9825E-03
            5417            5499     27.1456E-03     27.9825E-03
            5418            5499     27.1456E-03     27.9825E-03
            5427            5499     27.1456E-03     27.9825E-03
            5419            5500     20.8233E-03     21.9998E-03
            5427            5500     20.8233E-03     21.9998E-03
            5418            5500     20.8233E-03     21.9998E-03
            5428            5500     20.8233E-03     21.9998E-03
            5429            5501     21.5925E-03     22.7693E-03
            5428            5501     21.5925E-03     22.7693E-03
            5419            5501     21.5925E-03     22.7693E-03
            5420            5501     21.5925E-03     22.7693E-03
            5420            5502     28.9874E-03     29.8309E-03
            5429            5502     28.9874E-03     29.8309E-03
            5430            5502     28.9874E-03     29.8309E-03
            5421            5502     28.9874E-03     29.8309E-03
            5421            5503     39.7583E-03     40.0695E-03
            5422            5503     39.7583E-03     40.0695E-03
            5431            5503     39.7583E-03     40.0695E-03
            5430            5503     39.7583E-03     40.0695E-03
            5432            5504     51.9629E-03     51.5987E-03
            5431            5504     51.9629E-03     51.5987E-03
            5422            5504     51.9629E-03     51.5987E-03
            5423            5504     51.9629E-03     51.5987E-03
            5434            5505     47.3450E-03     46.9749E-03
            5433            5505     47.3450E-03     46.9749E-03
            5425            5505     47.3450E-03     46.9749E-03
            5424            5505     47.3450E-03     46.9749E-03
            5425            5506     36.0297E-03     36.1685E-03
            5434            5506     36.0297E-03     36.1685E-03
            5435            5506     36.0297E-03     36.1685E-03
            5426            5506     36.0297E-03     36.1685E-03
            5435            5507     26.3646E-03     26.7412E-03
            5436            5507     26.3646E-03     26.7412E-03
            5426            5507     26.3646E-03     26.7412E-03
            5427            5507     26.3646E-03     26.7412E-03
            5436            5508     20.6143E-03     21.0347E-03
            5428            5508     20.6143E-03     21.0347E-03
            5427            5508     20.6143E-03     21.0347E-03
            5437            5508     20.6143E-03     21.0347E-03
            5438            5509     21.3578E-03     21.7925E-03
            5437            5509     21.3578E-03     21.7925E-03
            5428            5509     21.3578E-03     21.7925E-03
            5429            5509     21.3578E-03     21.7925E-03
            5438            5510     28.1674E-03     28.5702E-03
            5430            5510     28.1674E-03     28.5702E-03
            5429            5510     28.1674E-03     28.5702E-03
            5439            5510     28.1674E-03     28.5702E-03
            5440            5511     38.2458E-03     38.3970E-03
            5431            5511     38.2458E-03     38.3970E-03
            5430            5511     38.2458E-03     38.3970E-03
            5439            5511     38.2458E-03     38.3970E-03
            5440            5512     49.6741E-03     49.2911E-03
            5431            5512     49.6741E-03     49.2911E-03
            5432            5512     49.6741E-03     49.2911E-03
            5441            5512     49.6741E-03     49.2911E-03
            5443            5513     45.0869E-03     44.8038E-03
            5434            5513     45.0869E-03     44.8038E-03
            5433            5513     45.0869E-03     44.8038E-03
            5442            5513     45.0869E-03     44.8038E-03
            5444            5514     34.4759E-03     34.6033E-03
            5434            5514     34.4759E-03     34.6033E-03
            5435            5514     34.4759E-03     34.6033E-03
            5443            5514     34.4759E-03     34.6033E-03
            5435            5515     25.5959E-03     25.6639E-03
            5436            5515     25.5959E-03     25.6639E-03
            5444            5515     25.5959E-03     25.6639E-03
            5445            5515     25.5959E-03     25.6639E-03
            5436            5516     20.2787E-03     20.0531E-03
            5446            5516     20.2787E-03     20.0531E-03
            5445            5516     20.2787E-03     20.0531E-03
            5437            5516     20.2787E-03     20.0531E-03
            5438            5517     20.9941E-03     20.8034E-03
            5447            5517     20.9941E-03     20.8034E-03
            5437            5517     20.9941E-03     20.8034E-03
            5446            5517     20.9941E-03     20.8034E-03
            5439            5518     27.3506E-03     27.4744E-03
            5447            5518     27.3506E-03     27.4744E-03
            5448            5518     27.3506E-03     27.4744E-03
            5438            5518     27.3506E-03     27.4744E-03
            5440            5519     36.6620E-03     36.8132E-03
            5448            5519     36.6620E-03     36.8132E-03
            5439            5519     36.6620E-03     36.8132E-03
            5449            5519     36.6620E-03     36.8132E-03
            5440            5520     47.4020E-03     47.1090E-03
            5449            5520     47.4020E-03     47.1090E-03
            5441            5520     47.4020E-03     47.1090E-03
            5450            5520     47.4020E-03     47.1090E-03
            5443            5521     42.8221E-03     42.7559E-03
            5451            5521     42.8221E-03     42.7559E-03
            5452            5521     42.8221E-03     42.7559E-03
            5442            5521     42.8221E-03     42.7559E-03
            5443            5522     33.0433E-03     33.3048E-03
            5444            5522     33.0433E-03     33.3048E-03
            5453            5522     33.0433E-03     33.3048E-03
            5452            5522     33.0433E-03     33.3048E-03
            5444            5523     24.8385E-03     24.6846E-03
            5454            5523     24.8385E-03     24.6846E-03
            5453            5523     24.8385E-03     24.6846E-03
            5445            5523     24.8385E-03     24.6846E-03
            5454            5524     19.9391E-03     19.0493E-03
            5446            5524     19.9391E-03     19.0493E-03
            5445            5524     19.9391E-03     19.0493E-03
            5455            5524     19.9391E-03     19.0493E-03
            5455            5525     20.6256E-03     19.7957E-03
            5456            5525     20.6256E-03     19.7957E-03
            5447            5525     20.6256E-03     19.7957E-03
            5446            5525     20.6256E-03     19.7957E-03
            5447            5526     26.5321E-03     26.4715E-03
            5456            5526     26.5321E-03     26.4715E-03
            5457            5526     26.5321E-03     26.4715E-03
            5448            5526     26.5321E-03     26.4715E-03
            5449            5527     35.1810E-03     35.4812E-03
            5457            5527     35.1810E-03     35.4812E-03
            5458            5527     35.1810E-03     35.4812E-03
            5448            5527     35.1810E-03     35.4812E-03
            5458            5528     45.1157E-03     45.0418E-03
            5449            5528     45.1157E-03     45.0418E-03
            5450            5528     45.1157E-03     45.0418E-03
            5459            5528     45.1157E-03     45.0418E-03
            5460            5529     40.4358E-03     40.7656E-03
            5452            5529     40.4358E-03     40.7656E-03
            5461            5529     40.4358E-03     40.7656E-03
            5451            5529     40.4358E-03     40.7656E-03
            5461            5530     31.7409E-03     32.2424E-03
            5453            5530     31.7409E-03     32.2424E-03
            5462            5530     31.7409E-03     32.2424E-03
            5452            5530     31.7409E-03     32.2424E-03
            5462            5531     24.2576E-03     23.7126E-03
            5453            5531     24.2576E-03     23.7126E-03
            5463            5531     24.2576E-03     23.7126E-03
            5454            5531     24.2576E-03     23.7126E-03
            5463            5532     19.5743E-03     18.0137E-03
            5464            5532     19.5743E-03     18.0137E-03
            5455            5532     19.5743E-03     18.0137E-03
            5454            5532     19.5743E-03     18.0137E-03
            5456            5533     20.2137E-03     18.7225E-03
            5455            5533     20.2137E-03     18.7225E-03
            5464            5533     20.2137E-03     18.7225E-03
            5465            5533     20.2137E-03     18.7225E-03
            5466            5534     25.8600E-03     25.4323E-03
            5457            5534     25.8600E-03     25.4323E-03
            5456            5534     25.8600E-03     25.4323E-03
            5465            5534     25.8600E-03     25.4323E-03
            5466            5535     33.8077E-03     34.3692E-03
            5458            5535     33.8077E-03     34.3692E-03
            5457            5535     33.8077E-03     34.3692E-03
            5467            5535     33.8077E-03     34.3692E-03
            5459            5536     42.6918E-03     43.0195E-03
            5467            5536     42.6918E-03     43.0195E-03
            5468            5536     42.6918E-03     43.0195E-03
            5458            5536     42.6918E-03     43.0195E-03
            5460            5537     37.9929E-03     38.7008E-03
            5469            5537     37.9929E-03     38.7008E-03
            5470            5537     37.9929E-03     38.7008E-03
            5461            5537     37.9929E-03     38.7008E-03
            5470            5538     30.5269E-03     30.4613E-03
            5462            5538     30.5269E-03     30.4613E-03
            5471            5538     30.5269E-03     30.4613E-03
            5461            5538     30.5269E-03     30.4613E-03
            5463            5539     23.7008E-03     22.4076E-03
            5472            5539     23.7008E-03     22.4076E-03
            5471            5539     23.7008E-03     22.4076E-03
            5462            5539     23.7008E-03     22.4076E-03
            5464            5540     19.4900E-03     17.5394E-03
            5472            5540     19.4900E-03     17.5394E-03
            5463            5540     19.4900E-03     17.5394E-03
            5473            5540     19.4900E-03     17.5394E-03
            5465            5541     20.0667E-03     18.1582E-03
            5474            5541     20.0667E-03     18.1582E-03
            5473            5541     20.0667E-03     18.1582E-03
            5464            5541     20.0667E-03     18.1582E-03
            5474            5542     25.1605E-03     23.9399E-03
            5475            5542     25.1605E-03     23.9399E-03
            5465            5542     25.1605E-03     23.9399E-03
            5466            5542     25.1605E-03     23.9399E-03
            5467            5543     32.4736E-03     32.4576E-03
            5475            5543     32.4736E-03     32.4576E-03
            5476            5543     32.4736E-03     32.4576E-03
            5466            5543     32.4736E-03     32.4576E-03
            5477            5544     40.2110E-03     40.9261E-03
            5476            5544     40.2110E-03     40.9261E-03
            5467            5544     40.2110E-03     40.9261E-03
            5468            5544     40.2110E-03     40.9261E-03
            5478            5545     34.9262E-03     33.0924E-03
            5470            5545     34.9262E-03     33.0924E-03
            5469            5545     34.9262E-03     33.0924E-03
            5479            5545     34.9262E-03     33.0924E-03
            5480            5546     29.0523E-03     26.9129E-03
            5470            5546     29.0523E-03     26.9129E-03
            5471            5546     29.0523E-03     26.9129E-03
            5479            5546     29.0523E-03     26.9129E-03
            5471            5547     23.5110E-03     21.6408E-03
            5481            5547     23.5110E-03     21.6408E-03
            5472            5547     23.5110E-03     21.6408E-03
            5480            5547     23.5110E-03     21.6408E-03
            5472            5548     20.3043E-03     18.6975E-03
            5481            5548     20.3043E-03     18.6975E-03
            5473            5548     20.3043E-03     18.6975E-03
            5482            5548     20.3043E-03     18.6975E-03
            5482            5549     20.7809E-03     19.1464E-03
            5483            5549     20.7809E-03     19.1464E-03
            5474            5549     20.7809E-03     19.1464E-03
            5473            5549     20.7809E-03     19.1464E-03
            5474            5550     24.7599E-03     22.8150E-03
            5484            5550     24.7599E-03     22.8150E-03
            5475            5550     24.7599E-03     22.8150E-03
            5483            5550     24.7599E-03     22.8150E-03
            5475            5551     30.7908E-03     28.5601E-03
            5476            5551     30.7908E-03     28.5601E-03
            5484            5551     30.7908E-03     28.5601E-03
            5485            5551     30.7908E-03     28.5601E-03
            5485            5552     37.0801E-03     35.1478E-03
            5477            5552     37.0801E-03     35.1478E-03
            5476            5552     37.0801E-03     35.1478E-03
            5486            5552     37.0801E-03     35.1478E-03
            5488            5553     37.0003E-03     33.4117E-03
            5479            5553     37.0003E-03     33.4117E-03
            5487            5553     37.0003E-03     33.4117E-03
            5478            5553     37.0003E-03     33.4117E-03
            5488            5554     27.6707E-03     25.1419E-03
            5489            5554     27.6707E-03     25.1419E-03
            5480            5554     27.6707E-03     25.1419E-03
            5479            5554     27.6707E-03     25.1419E-03
            5489            5555     20.8642E-03     19.6019E-03
            5480            5555     20.8642E-03     19.6019E-03
            5490            5555     20.8642E-03     19.6019E-03
            5481            5555     20.8642E-03     19.6019E-03
            5491            5556     16.9010E-03     16.4763E-03
            5481            5556     16.9010E-03     16.4763E-03
            5490            5556     16.9010E-03     16.4763E-03
            5482            5556     16.9010E-03     16.4763E-03
            5491            5557     17.4688E-03     16.9575E-03
            5492            5557     17.4688E-03     16.9575E-03
            5482            5557     17.4688E-03     16.9575E-03
            5483            5557     17.4688E-03     16.9575E-03
            5483            5558     22.2959E-03     20.8509E-03
            5484            5558     22.2959E-03     20.8509E-03
            5492            5558     22.2959E-03     20.8509E-03
            5493            5558     22.2959E-03     20.8509E-03
            5484            5559     29.5403E-03     26.8165E-03
            5485            5559     29.5403E-03     26.8165E-03
            5494            5559     29.5403E-03     26.8165E-03
            5493            5559     29.5403E-03     26.8165E-03
            5485            5560     39.2757E-03     35.4900E-03
            5495            5560     39.2757E-03     35.4900E-03
            5494            5560     39.2757E-03     35.4900E-03
            5486            5560     39.2757E-03     35.4900E-03
            5487            5561     40.2503E-03     39.1628E-03
            5488            5561     40.2503E-03     39.1628E-03
            5496            5561     40.2503E-03     39.1628E-03
            5497            5561     40.2503E-03     39.1628E-03
            5488            5562     28.2008E-03     27.7487E-03
            5497            5562     28.2008E-03     27.7487E-03
            5498            5562     28.2008E-03     27.7487E-03
            5489            5562     28.2008E-03     27.7487E-03
            5498            5563     19.1896E-03     19.3436E-03
            5489            5563     19.1896E-03     19.3436E-03
            5499            5563     19.1896E-03     19.3436E-03
            5490            5563     19.1896E-03     19.3436E-03
            5490            5564     14.2681E-03     15.0578E-03
            5499            5564     14.2681E-03     15.0578E-03
            5500            5564     14.2681E-03     15.0578E-03
            5491            5564     14.2681E-03     15.0578E-03
            5492            5565     14.9781E-03     15.6881E-03
            5501            5565     14.9781E-03     15.6881E-03
            5491            5565     14.9781E-03     15.6881E-03
            5500            5565     14.9781E-03     15.6881E-03
            5493            5566     20.8972E-03     20.8993E-03
            5501            5566     20.8972E-03     20.8993E-03
            5492            5566     20.8972E-03     20.8993E-03
            5502            5566     20.8972E-03     20.8993E-03
            5494            5567     30.3499E-03     29.7767E-03
            5493            5567     30.3499E-03     29.7767E-03
            5503            5567     30.3499E-03     29.7767E-03
            5502            5567     30.3499E-03     29.7767E-03
            5504            5568     42.6727E-03     41.4906E-03
            5495            5568     42.6727E-03     41.4906E-03
            5503            5568     42.6727E-03     41.4906E-03
            5494            5568     42.6727E-03     41.4906E-03
            5506            5569     38.0430E-03     38.2290E-03
            5496            5569     38.0430E-03     38.2290E-03
            5497            5569     38.0430E-03     38.2290E-03
            5505            5569     38.0430E-03     38.2290E-03
            5497            5570     28.9212E-03     29.6088E-03
            5506            5570     28.9212E-03     29.6088E-03
            5498            5570     28.9212E-03     29.6088E-03
            5507            5570     28.9212E-03     29.6088E-03
            5508            5571     20.8720E-03     21.8801E-03
            5498            5571     20.8720E-03     21.8801E-03
            5507            5571     20.8720E-03     21.8801E-03
            5499            5571     20.8720E-03     21.8801E-03
            5499            5572     16.5497E-03     17.8488E-03
            5509            5572     16.5497E-03     17.8488E-03
            5500            5572     16.5497E-03     17.8488E-03
            5508            5572     16.5497E-03     17.8488E-03
            5500            5573     17.2199E-03     18.4724E-03
            5510            5573     17.2199E-03     18.4724E-03
            5501            5573     17.2199E-03     18.4724E-03
            5509            5573     17.2199E-03     18.4724E-03
            5502            5574     22.5389E-03     23.4712E-03
            5501            5574     22.5389E-03     23.4712E-03
            5510            5574     22.5389E-03     23.4712E-03
            5511            5574     22.5389E-03     23.4712E-03
            5503            5575     31.0829E-03     31.7403E-03
            5502            5575     31.0829E-03     31.7403E-03
            5512            5575     31.0829E-03     31.7403E-03
            5511            5575     31.0829E-03     31.7403E-03
            5504            5576     40.4043E-03     40.5805E-03
            5503            5576     40.4043E-03     40.5805E-03
            5513            5576     40.4043E-03     40.5805E-03
            5512            5576     40.4043E-03     40.5805E-03
            5506            5577     35.4938E-03     35.3493E-03
            5515            5577     35.4938E-03     35.3493E-03
            5505            5577     35.4938E-03     35.3493E-03
            5514            5577     35.4938E-03     35.3493E-03
            5506            5578     27.8246E-03     28.2758E-03
            5515            5578     27.8246E-03     28.2758E-03
            5516            5578     27.8246E-03     28.2758E-03
            5507            5578     27.8246E-03     28.2758E-03
            5516            5579     21.3983E-03     22.3545E-03
            5507            5579     21.3983E-03     22.3545E-03
            5517            5579     21.3983E-03     22.3545E-03
            5508            5579     21.3983E-03     22.3545E-03
            5509            5580     17.6414E-03     18.8378E-03
            5517            5580     17.6414E-03     18.8378E-03
            5508            5580     17.6414E-03     18.8378E-03
            5518            5580     17.6414E-03     18.8378E-03
            5510            5581     18.2788E-03     19.4556E-03
            5509            5581     18.2788E-03     19.4556E-03
            5519            5581     18.2788E-03     19.4556E-03
            5518            5581     18.2788E-03     19.4556E-03
            5511            5582     23.0355E-03     23.9695E-03
            5519            5582     23.0355E-03     23.9695E-03
            5510            5582     23.0355E-03     23.9695E-03
            5520            5582     23.0355E-03     23.9695E-03
            5511            5583     29.9608E-03     30.4072E-03
            5521            5583     29.9608E-03     30.4072E-03
            5512            5583     29.9608E-03     30.4072E-03
            5520            5583     29.9608E-03     30.4072E-03
            5512            5584     37.8006E-03     37.6378E-03
            5522            5584     37.8006E-03     37.6378E-03
            5521            5584     37.8006E-03     37.6378E-03
            5513            5584     37.8006E-03     37.6378E-03
            5524            5585     33.5574E-03     33.2893E-03
            5523            5585     33.5574E-03     33.2893E-03
            5515            5585     33.5574E-03     33.2893E-03
            5514            5585     33.5574E-03     33.2893E-03
            5525            5586     26.4929E-03     26.6345E-03
            5515            5586     26.4929E-03     26.6345E-03
            5516            5586     26.4929E-03     26.6345E-03
            5524            5586     26.4929E-03     26.6345E-03
            5516            5587     20.9403E-03     21.4709E-03
            5526            5587     20.9403E-03     21.4709E-03
            5525            5587     20.9403E-03     21.4709E-03
            5517            5587     20.9403E-03     21.4709E-03
            5517            5588     17.9805E-03     18.7768E-03
            5518            5588     17.9805E-03     18.7768E-03
            5527            5588     17.9805E-03     18.7768E-03
            5526            5588     17.9805E-03     18.7768E-03
            5519            5589     18.6023E-03     19.3958E-03
            5528            5589     18.6023E-03     19.3958E-03
            5527            5589     18.6023E-03     19.3958E-03
            5518            5589     18.6023E-03     19.3958E-03
            5529            5590     22.5328E-03     23.0596E-03
            5520            5590     22.5328E-03     23.0596E-03
            5528            5590     22.5328E-03     23.0596E-03
            5519            5590     22.5328E-03     23.0596E-03
            5521            5591     28.5853E-03     28.7193E-03
            5530            5591     28.5853E-03     28.7193E-03
            5520            5591     28.5853E-03     28.7193E-03
            5529            5591     28.5853E-03     28.7193E-03
            5530            5592     35.8450E-03     35.5542E-03
            5522            5592     35.8450E-03     35.5542E-03
            5531            5592     35.8450E-03     35.5542E-03
            5521            5592     35.8450E-03     35.5542E-03
            5533            5593     31.5749E-03     31.2763E-03
            5523            5593     31.5749E-03     31.2763E-03
            5524            5593     31.5749E-03     31.2763E-03
            5532            5593     31.5749E-03     31.2763E-03
            5533            5594     25.2367E-03     25.2556E-03
            5534            5594     25.2367E-03     25.2556E-03
            5525            5594     25.2367E-03     25.2556E-03
            5524            5594     25.2367E-03     25.2556E-03
            5534            5595     20.3519E-03     20.5944E-03
            5535            5595     20.3519E-03     20.5944E-03
            5526            5595     20.3519E-03     20.5944E-03
            5525            5595     20.3519E-03     20.5944E-03
            5526            5596     17.8658E-03     18.2302E-03
            5535            5596     17.8658E-03     18.2302E-03
            5536            5596     17.8658E-03     18.2302E-03
            5527            5596     17.8658E-03     18.2302E-03
            5528            5597     18.4535E-03     18.8205E-03
            5536            5597     18.4535E-03     18.8205E-03
            5537            5597     18.4535E-03     18.8205E-03
            5527            5597     18.4535E-03     18.8205E-03
            5529            5598     21.8857E-03     22.1325E-03
            5528            5598     21.8857E-03     22.1325E-03
            5538            5598     21.8857E-03     22.1325E-03
            5537            5598     21.8857E-03     22.1325E-03
            5529            5599     27.2895E-03     27.3055E-03
            5530            5599     27.2895E-03     27.3055E-03
            5538            5599     27.2895E-03     27.3055E-03
            5539            5599     27.2895E-03     27.3055E-03
            5531            5600     33.8434E-03     33.5242E-03
            5540            5600     33.8434E-03     33.5242E-03
            5530            5600     33.8434E-03     33.5242E-03
            5539            5600     33.8434E-03     33.5242E-03
            5542            5601     29.6237E-03     29.3548E-03
            5541            5601     29.6237E-03     29.3548E-03
            5533            5601     29.6237E-03     29.3548E-03
            5532            5601     29.6237E-03     29.3548E-03
            5534            5602     23.9431E-03     23.9072E-03
            5533            5602     23.9431E-03     23.9072E-03
            5542            5602     23.9431E-03     23.9072E-03
            5543            5602     23.9431E-03     23.9072E-03
            5544            5603     19.7580E-03     19.8074E-03
            5535            5603     19.7580E-03     19.8074E-03
            5543            5603     19.7580E-03     19.8074E-03
            5534            5603     19.7580E-03     19.8074E-03
            5536            5604     17.6603E-03     17.6886E-03
            5545            5604     17.6603E-03     17.6886E-03
            5535            5604     17.6603E-03     17.6886E-03
            5544            5604     17.6603E-03     17.6886E-03
            5546            5605     18.2148E-03     18.2559E-03
            5536            5605     18.2148E-03     18.2559E-03
            5545            5605     18.2148E-03     18.2559E-03
            5537            5605     18.2148E-03     18.2559E-03
            5547            5606     21.2282E-03     21.3002E-03
            5538            5606     21.2282E-03     21.3002E-03
            5546            5606     21.2282E-03     21.3002E-03
            5537            5606     21.2282E-03     21.3002E-03
            5547            5607     25.9488E-03     25.9200E-03
            5548            5607     25.9488E-03     25.9200E-03
            5539            5607     25.9488E-03     25.9200E-03
            5538            5607     25.9488E-03     25.9200E-03
            5539            5608     31.8678E-03     31.5833E-03
            5540            5608     31.8678E-03     31.5833E-03
            5548            5608     31.8678E-03     31.5833E-03
            5549            5608     31.8678E-03     31.5833E-03
            5542            5609     27.7268E-03     27.5354E-03
            5551            5609     27.7268E-03     27.5354E-03
            5550            5609     27.7268E-03     27.5354E-03
            5541            5609     27.7268E-03     27.5354E-03
            5552            5610     22.7388E-03     22.7423E-03
            5542            5610     22.7388E-03     22.7423E-03
            5543            5610     22.7388E-03     22.7423E-03
            5551            5610     22.7388E-03     22.7423E-03
            5552            5611     19.1566E-03     19.0437E-03
            5543            5611     19.1566E-03     19.0437E-03
            5553            5611     19.1566E-03     19.0437E-03
            5544            5611     19.1566E-03     19.0437E-03
            5544            5612     17.4566E-03     17.1617E-03
            5545            5612     17.4566E-03     17.1617E-03
            5553            5612     17.4566E-03     17.1617E-03
            5554            5612     17.4566E-03     17.1617E-03
            5554            5613     17.9770E-03     17.7105E-03
            5545            5613     17.9770E-03     17.7105E-03
            5546            5613     17.9770E-03     17.7105E-03
            5555            5613     17.9770E-03     17.7105E-03
            5546            5614     20.5535E-03     20.4895E-03
            5556            5614     20.5535E-03     20.4895E-03
            5547            5614     20.5535E-03     20.4895E-03
            5555            5614     20.5535E-03     20.4895E-03
            5547            5615     24.6834E-03     24.7105E-03
            5556            5615     24.6834E-03     24.7105E-03
            5548            5615     24.6834E-03     24.7105E-03
            5557            5615     24.6834E-03     24.7105E-03
            5548            5616     29.9418E-03     29.7396E-03
            5557            5616     29.9418E-03     29.7396E-03
            5558            5616     29.9418E-03     29.7396E-03
            5549            5616     29.9418E-03     29.7396E-03
            5551            5617     25.7975E-03     25.7953E-03
            5550            5617     25.7975E-03     25.7953E-03
            5559            5617     25.7975E-03     25.7953E-03
            5560            5617     25.7975E-03     25.7953E-03
            5560            5618     21.6138E-03     21.6983E-03
            5552            5618     21.6138E-03     21.6983E-03
            5561            5618     21.6138E-03     21.6983E-03
            5551            5618     21.6138E-03     21.6983E-03
            5561            5619     18.6689E-03     18.4063E-03
            5562            5619     18.6689E-03     18.4063E-03
            5552            5619     18.6689E-03     18.4063E-03
            5553            5619     18.6689E-03     18.4063E-03
            5562            5620     17.2057E-03     16.5219E-03
            5554            5620     17.2057E-03     16.5219E-03
            5563            5620     17.2057E-03     16.5219E-03
            5553            5620     17.2057E-03     16.5219E-03
            5554            5621     17.6838E-03     17.0451E-03
            5564            5621     17.6838E-03     17.0451E-03
            5563            5621     17.6838E-03     17.0451E-03
            5555            5621     17.6838E-03     17.0451E-03
            5555            5622     19.9745E-03     19.7943E-03
            5564            5622     19.9745E-03     19.7943E-03
            5556            5622     19.9745E-03     19.7943E-03
            5565            5622     19.9745E-03     19.7943E-03
            5566            5623     23.4763E-03     23.6056E-03
            5556            5623     23.4763E-03     23.6056E-03
            5557            5623     23.4763E-03     23.6056E-03
            5565            5623     23.4763E-03     23.6056E-03
            5557            5624     27.9644E-03     27.9574E-03
            5566            5624     27.9644E-03     27.9574E-03
            5558            5624     27.9644E-03     27.9574E-03
            5567            5624     27.9644E-03     27.9574E-03
            5568            5625     23.8629E-03     24.1181E-03
            5569            5625     23.8629E-03     24.1181E-03
            5560            5625     23.8629E-03     24.1181E-03
            5559            5625     23.8629E-03     24.1181E-03
            5560            5626     20.6562E-03     20.8425E-03
            5561            5626     20.6562E-03     20.8425E-03
            5570            5626     20.6562E-03     20.8425E-03
            5569            5626     20.6562E-03     20.8425E-03
            5571            5627     18.2486E-03     17.6895E-03
            5570            5627     18.2486E-03     17.6895E-03
            5562            5627     18.2486E-03     17.6895E-03
            5561            5627     18.2486E-03     17.6895E-03
            5563            5628     16.9098E-03     15.8280E-03
            5571            5628     16.9098E-03     15.8280E-03
            5572            5628     16.9098E-03     15.8280E-03
            5562            5628     16.9098E-03     15.8280E-03
            5563            5629     17.3434E-03     16.3082E-03
            5572            5629     17.3434E-03     16.3082E-03
            5573            5629     17.3434E-03     16.3082E-03
            5564            5629     17.3434E-03     16.3082E-03
            5574            5630     19.4407E-03     18.9811E-03
            5573            5630     19.4407E-03     18.9811E-03
            5565            5630     19.4407E-03     18.9811E-03
            5564            5630     19.4407E-03     18.9811E-03
            5575            5631     22.3979E-03     22.6566E-03
            5574            5631     22.3979E-03     22.6566E-03
            5565            5631     22.3979E-03     22.6566E-03
            5566            5631     22.3979E-03     22.6566E-03
            5575            5632     25.9573E-03     26.2161E-03
            5566            5632     25.9573E-03     26.2161E-03
            5567            5632     25.9573E-03     26.2161E-03
            5576            5632     25.9573E-03     26.2161E-03
            5569            5633     21.8960E-03     22.3740E-03
            5568            5633     21.8960E-03     22.3740E-03
            5577            5633     21.8960E-03     22.3740E-03
            5578            5633     21.8960E-03     22.3740E-03
            5569            5634     19.8646E-03     19.6349E-03
            5578            5634     19.8646E-03     19.6349E-03
            5579            5634     19.8646E-03     19.6349E-03
            5570            5634     19.8646E-03     19.6349E-03
            5580            5635     17.8623E-03     16.8767E-03
            5570            5635     17.8623E-03     16.8767E-03
            5579            5635     17.8623E-03     16.8767E-03
            5571            5635     17.8623E-03     16.8767E-03
            5572            5636     16.6636E-03     15.3826E-03
            5581            5636     16.6636E-03     15.3826E-03
            5571            5636     16.6636E-03     15.3826E-03
            5580            5636     16.6636E-03     15.3826E-03
            5581            5637     17.0423E-03     15.7822E-03
            5582            5637     17.0423E-03     15.7822E-03
            5572            5637     17.0423E-03     15.7822E-03
            5573            5637     17.0423E-03     15.7822E-03
            5573            5638     18.9080E-03     17.9708E-03
            5582            5638     18.9080E-03     17.9708E-03
            5574            5638     18.9080E-03     17.9708E-03
            5583            5638     18.9080E-03     17.9708E-03
            5583            5639     21.4314E-03     21.2571E-03
            5574            5639     21.4314E-03     21.2571E-03
            5575            5639     21.4314E-03     21.2571E-03
            5584            5639     21.4314E-03     21.2571E-03
            5576            5640     23.8853E-03     24.3767E-03
            5584            5640     23.8853E-03     24.3767E-03
            5585            5640     23.8853E-03     24.3767E-03
            5575            5640     23.8853E-03     24.3767E-03
            5586            5641     19.6199E-03     18.6427E-03
            5577            5641     19.6199E-03     18.6427E-03
            5587            5641     19.6199E-03     18.6427E-03
            5578            5641     19.6199E-03     18.6427E-03
            5578            5642     19.0181E-03     17.7428E-03
            5579            5642     19.0181E-03     17.7428E-03
            5588            5642     19.0181E-03     17.7428E-03
            5587            5642     19.0181E-03     17.7428E-03
            5579            5643     17.6352E-03     16.5120E-03
            5588            5643     17.6352E-03     16.5120E-03
            5580            5643     17.6352E-03     16.5120E-03
            5589            5643     17.6352E-03     16.5120E-03
            5589            5644     16.8894E-03     15.9007E-03
            5580            5644     16.8894E-03     15.9007E-03
            5581            5644     16.8894E-03     15.9007E-03
            5590            5644     16.8894E-03     15.9007E-03
            5591            5645     17.1934E-03     16.1729E-03
            5581            5645     17.1934E-03     16.1729E-03
            5582            5645     17.1934E-03     16.1729E-03
            5590            5645     17.1934E-03     16.1729E-03
            5582            5646     18.4983E-03     17.2878E-03
            5591            5646     18.4983E-03     17.2878E-03
            5583            5646     18.4983E-03     17.2878E-03
            5592            5646     18.4983E-03     17.2878E-03
            5593            5647     20.3412E-03     18.9517E-03
            5584            5647     20.3412E-03     18.9517E-03
            5592            5647     20.3412E-03     18.9517E-03
            5583            5647     20.3412E-03     18.9517E-03
            5585            5648     21.4532E-03     20.3453E-03
            5593            5648     21.4532E-03     20.3453E-03
            5584            5648     21.4532E-03     20.3453E-03
            5594            5648     21.4532E-03     20.3453E-03
            5595            5649     21.4154E-03     19.6338E-03
            5586            5649     21.4154E-03     19.6338E-03
            5596            5649     21.4154E-03     19.6338E-03
            5587            5649     21.4154E-03     19.6338E-03
            5587            5650     17.9014E-03     16.7447E-03
            5597            5650     17.9014E-03     16.7447E-03
            5596            5650     17.9014E-03     16.7447E-03
            5588            5650     17.9014E-03     16.7447E-03
            5597            5651     15.5830E-03     15.0354E-03
            5598            5651     15.5830E-03     15.0354E-03
            5589            5651     15.5830E-03     15.0354E-03
            5588            5651     15.5830E-03     15.0354E-03
            5599            5652     14.5453E-03     14.3182E-03
            5598            5652     14.5453E-03     14.3182E-03
            5590            5652     14.5453E-03     14.3182E-03
            5589            5652     14.5453E-03     14.3182E-03
            5600            5653     14.9162E-03     14.6273E-03
            5599            5653     14.9162E-03     14.6273E-03
            5590            5653     14.9162E-03     14.6273E-03
            5591            5653     14.9162E-03     14.6273E-03
            5591            5654     16.6327E-03     15.9282E-03
            5600            5654     16.6327E-03     15.9282E-03
            5601            5654     16.6327E-03     15.9282E-03
            5592            5654     16.6327E-03     15.9282E-03
            5593            5655     19.4420E-03     18.0761E-03
            5601            5655     19.4420E-03     18.0761E-03
            5602            5655     19.4420E-03     18.0761E-03
            5592            5655     19.4420E-03     18.0761E-03
            5603            5656     23.4641E-03     21.4539E-03
            5602            5656     23.4641E-03     21.4539E-03
            5594            5656     23.4641E-03     21.4539E-03
            5593            5656     23.4641E-03     21.4539E-03
            5595            5657     23.7471E-03     23.3038E-03
            5605            5657     23.7471E-03     23.3038E-03
            5596            5657     23.7471E-03     23.3038E-03
            5604            5657     23.7471E-03     23.3038E-03
            5596            5658     17.9167E-03     17.8968E-03
            5606            5658     17.9167E-03     17.8968E-03
            5597            5658     17.9167E-03     17.8968E-03
            5605            5658     17.9167E-03     17.8968E-03
            5607            5659     14.2767E-03     14.5066E-03
            5606            5659     14.2767E-03     14.5066E-03
            5597            5659     14.2767E-03     14.5066E-03
            5598            5659     14.2767E-03     14.5066E-03
            5599            5660     12.8438E-03     13.2620E-03
            5607            5660     12.8438E-03     13.2620E-03
            5608            5660     12.8438E-03     13.2620E-03
            5598            5660     12.8438E-03     13.2620E-03
            5600            5661     13.3205E-03     13.6957E-03
            5609            5661     13.3205E-03     13.6957E-03
            5599            5661     13.3205E-03     13.6957E-03
            5608            5661     13.3205E-03     13.6957E-03
            5600            5662     15.5727E-03     15.7011E-03
            5610            5662     15.5727E-03     15.7011E-03
            5601            5662     15.5727E-03     15.7011E-03
            5609            5662     15.5727E-03     15.7011E-03
            5610            5663     19.8045E-03     19.6818E-03
            5602            5663     19.8045E-03     19.6818E-03
            5611            5663     19.8045E-03     19.6818E-03
            5601            5663     19.8045E-03     19.6818E-03
            5602            5664     26.0672E-03     25.5336E-03
            5612            5664     26.0672E-03     25.5336E-03
            5603            5664     26.0672E-03     25.5336E-03
            5611            5664     26.0672E-03     25.5336E-03
            5604            5665     21.6612E-03     21.7004E-03
            5614            5665     21.6612E-03     21.7004E-03
            5613            5665     21.6612E-03     21.7004E-03
            5605            5665     21.6612E-03     21.7004E-03
            5606            5666     18.2132E-03     18.5552E-03
            5614            5666     18.2132E-03     18.5552E-03
            5605            5666     18.2132E-03     18.5552E-03
            5615            5666     18.2132E-03     18.5552E-03
            5616            5667     15.4424E-03     15.9816E-03
            5615            5667     15.4424E-03     15.9816E-03
            5607            5667     15.4424E-03     15.9816E-03
            5606            5667     15.4424E-03     15.9816E-03
            5608            5668     14.3376E-03     14.9616E-03
            5607            5668     14.3376E-03     14.9616E-03
            5617            5668     14.3376E-03     14.9616E-03
            5616            5668     14.3376E-03     14.9616E-03
            5609            5669     14.7793E-03     15.3845E-03
            5617            5669     14.7793E-03     15.3845E-03
            5608            5669     14.7793E-03     15.3845E-03
            5618            5669     14.7793E-03     15.3845E-03
            5619            5670     16.6760E-03     17.1810E-03
            5609            5670     16.6760E-03     17.1810E-03
            5618            5670     16.6760E-03     17.1810E-03
            5610            5670     16.6760E-03     17.1810E-03
            5619            5671     20.0646E-03     20.3913E-03
            5620            5671     20.0646E-03     20.3913E-03
            5611            5671     20.0646E-03     20.3913E-03
            5610            5671     20.0646E-03     20.3913E-03
            5612            5672     23.8836E-03     23.9117E-03
            5620            5672     23.8836E-03     23.9117E-03
            5621            5672     23.8836E-03     23.9117E-03
            5611            5672     23.8836E-03     23.9117E-03
            5613            5673     19.4953E-03     19.3930E-03
            5622            5673     19.4953E-03     19.3930E-03
            5614            5673     19.4953E-03     19.3930E-03
            5623            5673     19.4953E-03     19.3930E-03
            5624            5674     17.2883E-03     17.4582E-03
            5623            5674     17.2883E-03     17.4582E-03
            5614            5674     17.2883E-03     17.4582E-03
            5615            5674     17.2883E-03     17.4582E-03
            5615            5675     15.8210E-03     16.2620E-03
            5624            5675     15.8210E-03     16.2620E-03
            5625            5675     15.8210E-03     16.2620E-03
            5616            5675     15.8210E-03     16.2620E-03
            5625            5676     15.1537E-03     15.7041E-03
            5626            5676     15.1537E-03     15.7041E-03
            5617            5676     15.1537E-03     15.7041E-03
            5616            5676     15.1537E-03     15.7041E-03
            5618            5677     15.5589E-03     16.1071E-03
            5627            5677     15.5589E-03     16.1071E-03
            5626            5677     15.5589E-03     16.1071E-03
            5617            5677     15.5589E-03     16.1071E-03
            5628            5678     16.9928E-03     17.4347E-03
            5619            5678     16.9928E-03     17.4347E-03
            5618            5678     16.9928E-03     17.4347E-03
            5627            5678     16.9928E-03     17.4347E-03
            5629            5679     19.0569E-03     19.2255E-03
            5628            5679     19.0569E-03     19.2255E-03
            5619            5679     19.0569E-03     19.2255E-03
            5620            5679     19.0569E-03     19.2255E-03
            5630            5680     21.6177E-03     21.4930E-03
            5621            5680     21.6177E-03     21.4930E-03
            5629            5680     21.6177E-03     21.4930E-03
            5620            5680     21.6177E-03     21.4930E-03
            5632            5681     17.8550E-03     17.7342E-03
            5631            5681     17.8550E-03     17.7342E-03
            5623            5681     17.8550E-03     17.7342E-03
            5622            5681     17.8550E-03     17.7342E-03
            5624            5682     16.3156E-03     16.3821E-03
            5623            5682     16.3156E-03     16.3821E-03
            5633            5682     16.3156E-03     16.3821E-03
            5632            5682     16.3156E-03     16.3821E-03
            5633            5683     15.5839E-03     15.8123E-03
            5625            5683     15.5839E-03     15.8123E-03
            5624            5683     15.5839E-03     15.8123E-03
            5634            5683     15.5839E-03     15.8123E-03
            5626            5684     15.4652E-03     15.8051E-03
            5635            5684     15.4652E-03     15.8051E-03
            5625            5684     15.4652E-03     15.8051E-03
            5634            5684     15.4652E-03     15.8051E-03
            5636            5685     15.8405E-03     16.1860E-03
            5635            5685     15.8405E-03     16.1860E-03
            5626            5685     15.8405E-03     16.1860E-03
            5627            5685     15.8405E-03     16.1860E-03
            5628            5686     16.6605E-03     16.8961E-03
            5627            5686     16.6605E-03     16.8961E-03
            5636            5686     16.6605E-03     16.8961E-03
            5637            5686     16.6605E-03     16.8961E-03
            5638            5687     17.9693E-03     18.0299E-03
            5628            5687     17.9693E-03     18.0299E-03
            5637            5687     17.9693E-03     18.0299E-03
            5629            5687     17.9693E-03     18.0299E-03
            5629            5688     19.9056E-03     19.7590E-03
            5638            5688     19.9056E-03     19.7590E-03
            5630            5688     19.9056E-03     19.7590E-03
            5639            5688     19.9056E-03     19.7590E-03
            5640            5689     16.2556E-03     16.1684E-03
            5632            5689     16.2556E-03     16.1684E-03
            5631            5689     16.2556E-03     16.1684E-03
            5641            5689     16.2556E-03     16.1684E-03
            5633            5690     15.4626E-03     15.5046E-03
            5632            5690     15.4626E-03     15.5046E-03
            5641            5690     15.4626E-03     15.5046E-03
            5642            5690     15.4626E-03     15.5046E-03
            5634            5691     15.2896E-03     15.3865E-03
            5643            5691     15.2896E-03     15.3865E-03
            5642            5691     15.2896E-03     15.3865E-03
            5633            5691     15.2896E-03     15.3865E-03
            5643            5692     15.4664E-03     15.5802E-03
            5635            5692     15.4664E-03     15.5802E-03
            5634            5692     15.4664E-03     15.5802E-03
            5644            5692     15.4664E-03     15.5802E-03
            5636            5693     15.7939E-03     15.9156E-03
            5644            5693     15.7939E-03     15.9156E-03
            5635            5693     15.7939E-03     15.9156E-03
            5645            5693     15.7939E-03     15.9156E-03
            5645            5694     16.2531E-03     16.3651E-03
            5637            5694     16.2531E-03     16.3651E-03
            5636            5694     16.2531E-03     16.3651E-03
            5646            5694     16.2531E-03     16.3651E-03
            5647            5695     16.9941E-03     17.0396E-03
            5638            5695     16.9941E-03     17.0396E-03
            5646            5695     16.9941E-03     17.0396E-03
            5637            5695     16.9941E-03     17.0396E-03
            5638            5696     18.2193E-03     18.1127E-03
            5639            5696     18.2193E-03     18.1127E-03
            5647            5696     18.2193E-03     18.1127E-03
            5648            5696     18.2193E-03     18.1127E-03
            5640            5697     14.7691E-03     14.7402E-03
            5650            5697     14.7691E-03     14.7402E-03
            5649            5697     14.7691E-03     14.7402E-03
            5641            5697     14.7691E-03     14.7402E-03
            5642            5698     14.6659E-03     14.7026E-03
            5651            5698     14.6659E-03     14.7026E-03
            5650            5698     14.6659E-03     14.7026E-03
            5641            5698     14.6659E-03     14.7026E-03
            5643            5699     15.0092E-03     14.9865E-03
            5651            5699     15.0092E-03     14.9865E-03
            5652            5699     15.0092E-03     14.9865E-03
            5642            5699     15.0092E-03     14.9865E-03
            5652            5700     15.3783E-03     15.2912E-03
            5644            5700     15.3783E-03     15.2912E-03
            5643            5700     15.3783E-03     15.2912E-03
            5653            5700     15.3783E-03     15.2912E-03
            5644            5701     15.6588E-03     15.5882E-03
            5645            5701     15.6588E-03     15.5882E-03
            5653            5701     15.6588E-03     15.5882E-03
            5654            5701     15.6588E-03     15.5882E-03
            5646            5702     15.8500E-03     15.8609E-03
            5655            5702     15.8500E-03     15.8609E-03
            5645            5702     15.8500E-03     15.8609E-03
            5654            5702     15.8500E-03     15.8609E-03
            5647            5703     16.0482E-03     16.1066E-03
            5656            5703     16.0482E-03     16.1066E-03
            5655            5703     16.0482E-03     16.1066E-03
            5646            5703     16.0482E-03     16.1066E-03
            5648            5704     16.6212E-03     16.5819E-03
            5656            5704     16.6212E-03     16.5819E-03
            5647            5704     16.6212E-03     16.5819E-03
            5657            5704     16.6212E-03     16.5819E-03
            5659            5705     13.4090E-03     13.4780E-03
            5649            5705     13.4090E-03     13.4780E-03
            5658            5705     13.4090E-03     13.4780E-03
            5650            5705     13.4090E-03     13.4780E-03
            5660            5706     14.0398E-03     14.0758E-03
            5650            5706     14.0398E-03     14.0758E-03
            5659            5706     14.0398E-03     14.0758E-03
            5651            5706     14.0398E-03     14.0758E-03
            5652            5707     14.7530E-03     14.5995E-03
            5651            5707     14.7530E-03     14.5995E-03
            5661            5707     14.7530E-03     14.5995E-03
            5660            5707     14.7530E-03     14.5995E-03
            5662            5708     15.2331E-03     14.9320E-03
            5653            5708     15.2331E-03     14.9320E-03
            5652            5708     15.2331E-03     14.9320E-03
            5661            5708     15.2331E-03     14.9320E-03
            5663            5709     15.4648E-03     15.1869E-03
            5662            5709     15.4648E-03     15.1869E-03
            5654            5709     15.4648E-03     15.1869E-03
            5653            5709     15.4648E-03     15.1869E-03
            5663            5710     15.4562E-03     15.3589E-03
            5664            5710     15.4562E-03     15.3589E-03
            5655            5710     15.4562E-03     15.3589E-03
            5654            5710     15.4562E-03     15.3589E-03
            5656            5711     15.2378E-03     15.3205E-03
            5655            5711     15.2378E-03     15.3205E-03
            5664            5711     15.2378E-03     15.3205E-03
            5665            5711     15.2378E-03     15.3205E-03
            5657            5712     15.1045E-03     15.1753E-03
            5656            5712     15.1045E-03     15.1753E-03
            5666            5712     15.1045E-03     15.1753E-03
            5665            5712     15.1045E-03     15.1753E-03
            5659            5713     12.1890E-03     12.3932E-03
            5658            5713     12.1890E-03     12.3932E-03
            5667            5713     12.1890E-03     12.3932E-03
            5668            5713     12.1890E-03     12.3932E-03
            5660            5714     13.6226E-03     13.6267E-03
            5659            5714     13.6226E-03     13.6267E-03
            5669            5714     13.6226E-03     13.6267E-03
            5668            5714     13.6226E-03     13.6267E-03
            5660            5715     14.5741E-03     14.2350E-03
            5669            5715     14.5741E-03     14.2350E-03
            5670            5715     14.5741E-03     14.2350E-03
            5661            5715     14.5741E-03     14.2350E-03
            5671            5716     14.9500E-03     14.4489E-03
            5661            5716     14.9500E-03     14.4489E-03
            5662            5716     14.9500E-03     14.4489E-03
            5670            5716     14.9500E-03     14.4489E-03
            5662            5717     15.1346E-03     14.6520E-03
            5663            5717     15.1346E-03     14.6520E-03
            5671            5717     15.1346E-03     14.6520E-03
            5672            5717     15.1346E-03     14.6520E-03
            5673            5718     15.1266E-03     14.8456E-03
            5664            5718     15.1266E-03     14.8456E-03
            5663            5718     15.1266E-03     14.8456E-03
            5672            5718     15.1266E-03     14.8456E-03
            5665            5719     14.5823E-03     14.6621E-03
            5664            5719     14.5823E-03     14.6621E-03
            5674            5719     14.5823E-03     14.6621E-03
            5673            5719     14.5823E-03     14.6621E-03
            5674            5720     13.6561E-03     13.8781E-03
            5675            5720     13.6561E-03     13.8781E-03
            5665            5720     13.6561E-03     13.8781E-03
            5666            5720     13.6561E-03     13.8781E-03
            5676            5721     11.3051E-03     11.5853E-03
            5677            5721     11.3051E-03     11.5853E-03
            5668            5721     11.3051E-03     11.5853E-03
            5667            5721     11.3051E-03     11.5853E-03
            5669            5722     13.4755E-03     13.2617E-03
            5677            5722     13.4755E-03     13.2617E-03
            5678            5722     13.4755E-03     13.2617E-03
            5668            5722     13.4755E-03     13.2617E-03
            5678            5723     14.2844E-03     13.7828E-03
            5679            5723     14.2844E-03     13.7828E-03
            5669            5723     14.2844E-03     13.7828E-03
            5670            5723     14.2844E-03     13.7828E-03
            5679            5724     14.5542E-03     13.9664E-03
            5670            5724     14.5542E-03     13.9664E-03
            5680            5724     14.5542E-03     13.9664E-03
            5671            5724     14.5542E-03     13.9664E-03
            5681            5725     14.6939E-03     14.1082E-03
            5671            5725     14.6939E-03     14.1082E-03
            5680            5725     14.6939E-03     14.1082E-03
            5672            5725     14.6939E-03     14.1082E-03
            5673            5726     14.6885E-03     14.1973E-03
            5672            5726     14.6885E-03     14.1973E-03
            5682            5726     14.6885E-03     14.1973E-03
            5681            5726     14.6885E-03     14.1973E-03
            5683            5727     14.1370E-03     13.9673E-03
            5673            5727     14.1370E-03     13.9673E-03
            5682            5727     14.1370E-03     13.9673E-03
            5674            5727     14.1370E-03     13.9673E-03
            5675            5728     12.3840E-03     12.7004E-03
            5674            5728     12.3840E-03     12.7004E-03
            5683            5728     12.3840E-03     12.7004E-03
            5684            5728     12.3840E-03     12.7004E-03
            5686            5729     10.7360E-03     10.7252E-03
            5677            5729     10.7360E-03     10.7252E-03
            5685            5729     10.7360E-03     10.7252E-03
            5676            5729     10.7360E-03     10.7252E-03
            5687            5730     13.1857E-03     12.7655E-03
            5677            5730     13.1857E-03     12.7655E-03
            5686            5730     13.1857E-03     12.7655E-03
            5678            5730     13.1857E-03     12.7655E-03
            5687            5731     13.9068E-03     13.4738E-03
            5679            5731     13.9068E-03     13.4738E-03
            5688            5731     13.9068E-03     13.4738E-03
            5678            5731     13.9068E-03     13.4738E-03
            5688            5732     14.2572E-03     13.8256E-03
            5680            5732     14.2572E-03     13.8256E-03
            5679            5732     14.2572E-03     13.8256E-03
            5689            5732     14.2572E-03     13.8256E-03
            5689            5733     14.3432E-03     13.8872E-03
            5680            5733     14.3432E-03     13.8872E-03
            5690            5733     14.3432E-03     13.8872E-03
            5681            5733     14.3432E-03     13.8872E-03
            5681            5734     14.1652E-03     13.6592E-03
            5691            5734     14.1652E-03     13.6592E-03
            5690            5734     14.1652E-03     13.6592E-03
            5682            5734     14.1652E-03     13.6592E-03
            5691            5735     13.5560E-03     13.0245E-03
            5682            5735     13.5560E-03     13.0245E-03
            5683            5735     13.5560E-03     13.0245E-03
            5692            5735     13.5560E-03     13.0245E-03
            5693            5736     11.1931E-03     11.0331E-03
            5692            5736     11.1931E-03     11.0331E-03
            5684            5736     11.1931E-03     11.0331E-03
            5683            5736     11.1931E-03     11.0331E-03
            5694            5737     11.0744E-03     10.8776E-03
            5686            5737     11.0744E-03     10.8776E-03
            5695            5737     11.0744E-03     10.8776E-03
            5685            5737     11.0744E-03     10.8776E-03
            5687            5738     12.0518E-03     11.8642E-03
            5696            5738     12.0518E-03     11.8642E-03
            5695            5738     12.0518E-03     11.8642E-03
            5686            5738     12.0518E-03     11.8642E-03
            5697            5739     12.5389E-03     12.3956E-03
            5696            5739     12.5389E-03     12.3956E-03
            5688            5739     12.5389E-03     12.3956E-03
            5687            5739     12.5389E-03     12.3956E-03
            5698            5740     12.9239E-03     12.7980E-03
            5688            5740     12.9239E-03     12.7980E-03
            5689            5740     12.9239E-03     12.7980E-03
            5697            5740     12.9239E-03     12.7980E-03
            5689            5741     13.0381E-03     12.8934E-03
            5690            5741     13.0381E-03     12.8934E-03
            5699            5741     13.0381E-03     12.8934E-03
            5698            5741     13.0381E-03     12.8934E-03
            5691            5742     12.8998E-03     12.6952E-03
            5690            5742     12.8998E-03     12.6952E-03
            5699            5742     12.8998E-03     12.6952E-03
            5700            5742     12.8998E-03     12.6952E-03
            5701            5743     12.6763E-03     12.3675E-03
            5700            5743     12.6763E-03     12.3675E-03
            5692            5743     12.6763E-03     12.3675E-03
            5691            5743     12.6763E-03     12.3675E-03
            5702            5744     12.0143E-03     11.6048E-03
            5693            5744     12.0143E-03     11.6048E-03
            5701            5744     12.0143E-03     11.6048E-03
            5692            5744     12.0143E-03     11.6048E-03
            5695            5745     11.1261E-03     11.1009E-03
            5704            5745     11.1261E-03     11.1009E-03
            5694            5745     11.1261E-03     11.1009E-03
            5703            5745     11.1261E-03     11.1009E-03
            5695            5746     11.5207E-03     11.6023E-03
            5696            5746     11.5207E-03     11.6023E-03
            5705            5746     11.5207E-03     11.6023E-03
            5704            5746     11.5207E-03     11.6023E-03
            5696            5747     11.7494E-03     11.7989E-03
            5705            5747     11.7494E-03     11.7989E-03
            5697            5747     11.7494E-03     11.7989E-03
            5706            5747     11.7494E-03     11.7989E-03
            5706            5748     11.9929E-03     12.0234E-03
            5707            5748     11.9929E-03     12.0234E-03
            5698            5748     11.9929E-03     12.0234E-03
            5697            5748     11.9929E-03     12.0234E-03
            5707            5749     12.1418E-03     12.1775E-03
            5698            5749     12.1418E-03     12.1775E-03
            5699            5749     12.1418E-03     12.1775E-03
            5708            5749     12.1418E-03     12.1775E-03
            5708            5750     12.2147E-03     12.2798E-03
            5699            5750     12.2147E-03     12.2798E-03
            5700            5750     12.2147E-03     12.2798E-03
            5709            5750     12.2147E-03     12.2798E-03
            5710            5751     12.4348E-03     12.5347E-03
            5709            5751     12.4348E-03     12.5347E-03
            5700            5751     12.4348E-03     12.5347E-03
            5701            5751     12.4348E-03     12.5347E-03
            5710            5752     12.7127E-03     12.6654E-03
            5701            5752     12.7127E-03     12.6654E-03
            5702            5752     12.7127E-03     12.6654E-03
            5711            5752     12.7127E-03     12.6654E-03
            5704            5753     9.87518E-03     9.91439E-03
            5712            5753     9.87518E-03     9.91439E-03
            5713            5753     9.87518E-03     9.91439E-03
            5703            5753     9.87518E-03     9.91439E-03
            5704            5754     11.8653E-03     11.9015E-03
            5713            5754     11.8653E-03     11.9015E-03
            5714            5754     11.8653E-03     11.9015E-03
            5705            5754     11.8653E-03     11.9015E-03
            5714            5755     12.3995E-03     12.4381E-03
            5715            5755     12.3995E-03     12.4381E-03
            5705            5755     12.3995E-03     12.4381E-03
            5706            5755     12.3995E-03     12.4381E-03
            5706            5756     12.4670E-03     12.4925E-03
            5707            5756     12.4670E-03     12.4925E-03
            5715            5756     12.4670E-03     12.4925E-03
            5716            5756     12.4670E-03     12.4925E-03
            5708            5757     12.5744E-03     12.6051E-03
            5716            5757     12.5744E-03     12.6051E-03
            5717            5757     12.5744E-03     12.6051E-03
            5707            5757     12.5744E-03     12.6051E-03
            5717            5758     12.7279E-03     12.7942E-03
            5709            5758     12.7279E-03     12.7942E-03
            5718            5758     12.7279E-03     12.7942E-03
            5708            5758     12.7279E-03     12.7942E-03
            5719            5759     12.5120E-03     12.6014E-03
            5718            5759     12.5120E-03     12.6014E-03
            5710            5759     12.5120E-03     12.6014E-03
            5709            5759     12.5120E-03     12.6014E-03
            5711            5760     10.9766E-03     11.0421E-03
            5720            5760     10.9766E-03     11.0421E-03
            5719            5760     10.9766E-03     11.0421E-03
            5710            5760     10.9766E-03     11.0421E-03
            5713            5761     9.39243E-03     9.42518E-03
            5712            5761     9.39243E-03     9.42518E-03
            5721            5761     9.39243E-03     9.42518E-03
            5722            5761     9.39243E-03     9.42518E-03
            5722            5762     11.8572E-03     11.8078E-03
            5713            5762     11.8572E-03     11.8078E-03
            5714            5762     11.8572E-03     11.8078E-03
            5723            5762     11.8572E-03     11.8078E-03
            5724            5763     12.5386E-03     12.5191E-03
            5723            5763     12.5386E-03     12.5191E-03
            5714            5763     12.5386E-03     12.5191E-03
            5715            5763     12.5386E-03     12.5191E-03
            5724            5764     12.6088E-03     12.6027E-03
            5715            5764     12.6088E-03     12.6027E-03
            5716            5764     12.6088E-03     12.6027E-03
            5725            5764     12.6088E-03     12.6027E-03
            5725            5765     12.6739E-03     12.6671E-03
            5717            5765     12.6739E-03     12.6671E-03
            5716            5765     12.6739E-03     12.6671E-03
            5726            5765     12.6739E-03     12.6671E-03
            5718            5766     12.7321E-03     12.7096E-03
            5727            5766     12.7321E-03     12.7096E-03
            5726            5766     12.7321E-03     12.7096E-03
            5717            5766     12.7321E-03     12.7096E-03
            5718            5767     12.1315E-03     12.0900E-03
            5719            5767     12.1315E-03     12.0900E-03
            5728            5767     12.1315E-03     12.0900E-03
            5727            5767     12.1315E-03     12.0900E-03
            5729            5768     9.79599E-03     9.85392E-03
            5728            5768     9.79599E-03     9.85392E-03
            5720            5768     9.79599E-03     9.85392E-03
            5719            5768     9.79599E-03     9.85392E-03
            5721            5769     9.84313E-03     9.84904E-03
            5722            5769     9.84313E-03     9.84904E-03
            5730            5769     9.84313E-03     9.84904E-03
            5731            5769     9.84313E-03     9.84904E-03
            5722            5770     11.6572E-03     11.6106E-03
            5732            5770     11.6572E-03     11.6106E-03
            5731            5770     11.6572E-03     11.6106E-03
            5723            5770     11.6572E-03     11.6106E-03
            5732            5771     12.2506E-03     12.2108E-03
            5723            5771     12.2506E-03     12.2108E-03
            5724            5771     12.2506E-03     12.2108E-03
            5733            5771     12.2506E-03     12.2108E-03
            5725            5772     12.5346E-03     12.5127E-03
            5734            5772     12.5346E-03     12.5127E-03
            5724            5772     12.5346E-03     12.5127E-03
            5733            5772     12.5346E-03     12.5127E-03
            5734            5773     12.5482E-03     12.5182E-03
            5725            5773     12.5482E-03     12.5182E-03
            5726            5773     12.5482E-03     12.5182E-03
            5735            5773     12.5482E-03     12.5182E-03
            5735            5774     12.2776E-03     12.2082E-03
            5736            5774     12.2776E-03     12.2082E-03
            5727            5774     12.2776E-03     12.2082E-03
            5726            5774     12.2776E-03     12.2082E-03
            5727            5775     11.5754E-03     11.4801E-03
            5736            5775     11.5754E-03     11.4801E-03
            5728            5775     11.5754E-03     11.4801E-03
            5737            5775     11.5754E-03     11.4801E-03
            5738            5776     9.39476E-03     9.39538E-03
            5729            5776     9.39476E-03     9.39538E-03
            5728            5776     9.39476E-03     9.39538E-03
            5737            5776     9.39476E-03     9.39538E-03


  Minimum                            462.302E-06     473.587E-06
      At Element                            5369            5369
            Node                             768             768

  Maximum                            109.795E-03     84.4819E-03
      At Element                            3950            3941
            Node                              22             523

           Total                         91.3430         91.3752


Field Output reported at element nodes for region: A320-1.Region_3
   Computation algorithm: EXTRAPOLATE_COMPUTE_AVERAGE
   Averaged at nodes
   Averaging regions: ODB_REGIONS

   Element Label      Node Label         S.Mises         S.Mises
                                          @Loc 1          @Loc 2
-----------------------------------------------------------------
            1760               1     639.683E-06     636.115E-06
               1               1     639.683E-06     636.115E-06
            3550               2     4.67047E-03     4.65716E-03
            1757               2     4.67047E-03     4.65716E-03
              29               2     4.67047E-03     4.65716E-03
               4               2     4.67047E-03     4.65716E-03
              28               3     708.060E-06     1.29224E-03
             329               3     708.060E-06     1.29224E-03
              25               4     152.641E-06     260.161E-06
              78               5     29.7983E-03     30.3595E-03
             379               5     29.7983E-03     30.3595E-03
            2348               5     29.7983E-03     30.3595E-03
            3501               5     29.7983E-03     30.3595E-03
             415               6     74.7005E-03     80.3377E-03
             378               6     74.7005E-03     80.3377E-03
            2343               7     69.8045E-03     85.7963E-03
            5288               7     69.8045E-03     85.7963E-03
             421               7     69.8045E-03     85.7963E-03
             384               7     69.8045E-03     85.7963E-03
             457               8     65.8292E-03     77.2915E-03
             420               8     65.8292E-03     77.2915E-03
             426               9     37.5755E-03     38.8500E-03
             505               9     37.5755E-03     38.8500E-03
            4106               9     37.5755E-03     38.8500E-03
            5283               9     37.5755E-03     38.8500E-03
             745              10     63.0086E-03     65.4510E-03
             462              10     63.0086E-03     65.4510E-03
             463              11     661.241E-06     657.087E-06
            6572              11     661.241E-06     657.087E-06
            4067              12     6.22363E-03     6.21945E-03
             468              12     6.22363E-03     6.21945E-03
            6567              12     6.22363E-03     6.21945E-03
             544              12     6.22363E-03     6.21945E-03
             504              13     1.87689E-03     2.87087E-03
            4307              13     1.87689E-03     2.87087E-03
             499              14     187.281E-06     290.524E-06
            6603              15     703.315E-06     1.52432E-03
             784              15     703.315E-06     1.52432E-03
            1781              17     1.61910E-03     2.37923E-03
            3850              17     1.61910E-03     2.37923E-03
            1784              18     152.641E-06     260.161E-06
            3801              21     92.9918E-03     98.6076E-03
            2384              21     92.9918E-03     98.6076E-03
            2379              22     214.329E-03     217.522E-03
            5324              22     214.329E-03     217.522E-03
            5319              25     111.873E-03     118.567E-03
            4346              25     111.873E-03     118.567E-03
            6608              27     187.281E-06     290.524E-06
            1760              29     645.134E-06     640.978E-06
               2              29     645.134E-06     640.978E-06
               1              29     645.134E-06     640.978E-06
            1759              29     645.134E-06     640.978E-06
            1759              30     654.147E-06     645.265E-06
               2              30     654.147E-06     645.265E-06
            1758              30     654.147E-06     645.265E-06
               3              30     654.147E-06     645.265E-06
               3              31     648.087E-06     636.370E-06
            1757              31     648.087E-06     636.370E-06
            1758              31     648.087E-06     636.370E-06
               4              31     648.087E-06     636.370E-06
               4              32     4.56884E-03     4.52804E-03
              29              32     4.56884E-03     4.52804E-03
               8              32     4.56884E-03     4.52804E-03
              79              32     4.56884E-03     4.52804E-03
               8              33     4.21787E-03     4.15192E-03
             129              33     4.21787E-03     4.15192E-03
              79              33     4.21787E-03     4.15192E-03
              12              33     4.21787E-03     4.15192E-03
              16              34     3.63410E-03     3.55648E-03
              12              34     3.63410E-03     3.55648E-03
             179              34     3.63410E-03     3.55648E-03
             129              34     3.63410E-03     3.55648E-03
              16              35     2.82511E-03     2.78208E-03
             229              35     2.82511E-03     2.78208E-03
              20              35     2.82511E-03     2.78208E-03
             179              35     2.82511E-03     2.78208E-03
              24              36     1.97790E-03     1.95794E-03
              20              36     1.97790E-03     1.95794E-03
             229              36     1.97790E-03     1.95794E-03
             279              36     1.97790E-03     1.95794E-03
             279              37     1.15066E-03     1.42605E-03
             329              37     1.15066E-03     1.42605E-03
              28              37     1.15066E-03     1.42605E-03
              24              37     1.15066E-03     1.42605E-03
              28              38     418.952E-06     431.992E-06
              27              38     418.952E-06     431.992E-06
              26              39     285.756E-06     250.868E-06
              27              39     285.756E-06     250.868E-06
              25              40     157.437E-06     241.974E-06
              26              40     157.437E-06     241.974E-06
              21              41     168.732E-06     207.222E-06
              25              41     168.732E-06     207.222E-06
              21              42     242.788E-06     222.341E-06
              17              42     242.788E-06     222.341E-06
              17              43     373.026E-06     364.016E-06
              13              43     373.026E-06     364.016E-06
               9              44     488.173E-06     481.635E-06
              13              44     488.173E-06     481.635E-06
               5              45     570.462E-06     564.900E-06
               9              45     570.462E-06     564.900E-06
               1              46     624.779E-06     620.138E-06
               5              46     624.779E-06     620.138E-06
              29              47     8.77731E-03     8.70282E-03
            3550              47     8.77731E-03     8.70282E-03
            3549              47     8.77731E-03     8.70282E-03
              30              47     8.77731E-03     8.70282E-03
            3549              48     8.82055E-03     8.76258E-03
              30              48     8.82055E-03     8.76258E-03
              31              48     8.82055E-03     8.76258E-03
            3548              48     8.82055E-03     8.76258E-03
            3547              49     8.77684E-03     8.75345E-03
            3548              49     8.77684E-03     8.75345E-03
              32              49     8.77684E-03     8.75345E-03
              31              49     8.77684E-03     8.75345E-03
            3547              50     8.74125E-03     8.76187E-03
            3546              50     8.74125E-03     8.76187E-03
              32              50     8.74125E-03     8.76187E-03
              33              50     8.74125E-03     8.76187E-03
              34              51     8.84432E-03     8.77826E-03
            3545              51     8.84432E-03     8.77826E-03
              33              51     8.84432E-03     8.77826E-03
            3546              51     8.84432E-03     8.77826E-03
              35              52     8.79941E-03     8.59620E-03
            3545              52     8.79941E-03     8.59620E-03
              34              52     8.79941E-03     8.59620E-03
            3544              52     8.79941E-03     8.59620E-03
            3544              53     9.49289E-03     9.41514E-03
            3543              53     9.49289E-03     9.41514E-03
              36              53     9.49289E-03     9.41514E-03
              35              53     9.49289E-03     9.41514E-03
              37              54     10.4193E-03     10.2893E-03
            3543              54     10.4193E-03     10.2893E-03
              36              54     10.4193E-03     10.2893E-03
            3542              54     10.4193E-03     10.2893E-03
              38              55     10.4982E-03     10.2538E-03
            3542              55     10.4982E-03     10.2538E-03
              37              55     10.4982E-03     10.2538E-03
            3541              55     10.4982E-03     10.2538E-03
              39              56     10.4961E-03     10.2999E-03
              38              56     10.4961E-03     10.2999E-03
            3540              56     10.4961E-03     10.2999E-03
            3541              56     10.4961E-03     10.2999E-03
            3540              57     10.4876E-03     10.3116E-03
              40              57     10.4876E-03     10.3116E-03
            3539              57     10.4876E-03     10.3116E-03
              39              57     10.4876E-03     10.3116E-03
            3539              58     10.4493E-03     10.3574E-03
              41              58     10.4493E-03     10.3574E-03
            3538              58     10.4493E-03     10.3574E-03
              40              58     10.4493E-03     10.3574E-03
            3537              59     10.4204E-03     10.4409E-03
            3538              59     10.4204E-03     10.4409E-03
              42              59     10.4204E-03     10.4409E-03
              41              59     10.4204E-03     10.4409E-03
            3537              60     10.3858E-03     10.4384E-03
              43              60     10.3858E-03     10.4384E-03
            3536              60     10.3858E-03     10.4384E-03
              42              60     10.3858E-03     10.4384E-03
              44              61     10.2625E-03     10.5416E-03
            3535              61     10.2625E-03     10.5416E-03
              43              61     10.2625E-03     10.5416E-03
            3536              61     10.2625E-03     10.5416E-03
            3535              62     10.5159E-03     10.6040E-03
            3534              62     10.5159E-03     10.6040E-03
              44              62     10.5159E-03     10.6040E-03
              45              62     10.5159E-03     10.6040E-03
            3534              63     10.4876E-03     10.1513E-03
            3533              63     10.4876E-03     10.1513E-03
              46              63     10.4876E-03     10.1513E-03
              45              63     10.4876E-03     10.1513E-03
              47              64     11.0829E-03     11.0245E-03
            3533              64     11.0829E-03     11.0245E-03
              46              64     11.0829E-03     11.0245E-03
            3532              64     11.0829E-03     11.0245E-03
              48              65     12.0381E-03     11.9535E-03
            3531              65     12.0381E-03     11.9535E-03
            3532              65     12.0381E-03     11.9535E-03
              47              65     12.0381E-03     11.9535E-03
            3531              66     12.1934E-03     11.7422E-03
              48              66     12.1934E-03     11.7422E-03
              49              66     12.1934E-03     11.7422E-03
            3530              66     12.1934E-03     11.7422E-03
              49              67     12.2754E-03     11.8815E-03
            3530              67     12.2754E-03     11.8815E-03
            3529              67     12.2754E-03     11.8815E-03
              50              67     12.2754E-03     11.8815E-03
              50              68     12.2396E-03     11.9447E-03
            3528              68     12.2396E-03     11.9447E-03
              51              68     12.2396E-03     11.9447E-03
            3529              68     12.2396E-03     11.9447E-03
            3528              69     12.1729E-03     12.0383E-03
            3527              69     12.1729E-03     12.0383E-03
              52              69     12.1729E-03     12.0383E-03
              51              69     12.1729E-03     12.0383E-03
              52              70     12.1175E-03     12.2024E-03
            3526              70     12.1175E-03     12.2024E-03
              53              70     12.1175E-03     12.2024E-03
            3527              70     12.1175E-03     12.2024E-03
            3525              71     12.0422E-03     12.1952E-03
              54              71     12.0422E-03     12.1952E-03
              53              71     12.0422E-03     12.1952E-03
            3526              71     12.0422E-03     12.1952E-03
              55              72     11.8207E-03     12.3587E-03
            3525              72     11.8207E-03     12.3587E-03
            3524              72     11.8207E-03     12.3587E-03
              54              72     11.8207E-03     12.3587E-03
              55              73     12.2335E-03     12.4342E-03
            3524              73     12.2335E-03     12.4342E-03
              56              73     12.2335E-03     12.4342E-03
            3523              73     12.2335E-03     12.4342E-03
              57              74     12.1758E-03     11.6904E-03
              56              74     12.1758E-03     11.6904E-03
            3522              74     12.1758E-03     11.6904E-03
            3523              74     12.1758E-03     11.6904E-03
            3521              75     12.7221E-03     12.7398E-03
            3522              75     12.7221E-03     12.7398E-03
              57              75     12.7221E-03     12.7398E-03
              58              75     12.7221E-03     12.7398E-03
              59              76     13.8385E-03     13.7921E-03
            3520              76     13.8385E-03     13.7921E-03
              58              76     13.8385E-03     13.7921E-03
            3521              76     13.8385E-03     13.7921E-03
              60              77     14.1014E-03     13.4095E-03
            3519              77     14.1014E-03     13.4095E-03
            3520              77     14.1014E-03     13.4095E-03
              59              77     14.1014E-03     13.4095E-03
            3518              78     14.2609E-03     13.6752E-03
            3519              78     14.2609E-03     13.6752E-03
              60              78     14.2609E-03     13.6752E-03
              61              78     14.2609E-03     13.6752E-03
            3517              79     14.2119E-03     13.7934E-03
              62              79     14.2119E-03     13.7934E-03
              61              79     14.2119E-03     13.7934E-03
            3518              79     14.2119E-03     13.7934E-03
            3517              80     14.1190E-03     13.9514E-03
            3516              80     14.1190E-03     13.9514E-03
              63              80     14.1190E-03     13.9514E-03
              62              80     14.1190E-03     13.9514E-03
            3516              81     14.0364E-03     14.2008E-03
            3515              81     14.0364E-03     14.2008E-03
              64              81     14.0364E-03     14.2008E-03
              63              81     14.0364E-03     14.2008E-03
              65              82     13.9148E-03     14.1757E-03
            3514              82     13.9148E-03     14.1757E-03
              64              82     13.9148E-03     14.1757E-03
            3515              82     13.9148E-03     14.1757E-03
            3514              83     13.5736E-03     14.4033E-03
            3513              83     13.5736E-03     14.4033E-03
              65              83     13.5736E-03     14.4033E-03
              66              83     13.5736E-03     14.4033E-03
              67              84     14.1684E-03     14.4685E-03
            3513              84     14.1684E-03     14.4685E-03
            3512              84     14.1684E-03     14.4685E-03
              66              84     14.1684E-03     14.4685E-03
              68              85     14.0503E-03     13.4023E-03
            3511              85     14.0503E-03     13.4023E-03
            3512              85     14.0503E-03     13.4023E-03
              67              85     14.0503E-03     13.4023E-03
              68              86     14.5085E-03     14.6928E-03
            3511              86     14.5085E-03     14.6928E-03
            3510              86     14.5085E-03     14.6928E-03
              69              86     14.5085E-03     14.6928E-03
            3509              87     15.8605E-03     15.9297E-03
            3510              87     15.8605E-03     15.9297E-03
              70              87     15.8605E-03     15.9297E-03
              69              87     15.8605E-03     15.9297E-03
              71              88     16.1941E-03     15.4059E-03
            3508              88     16.1941E-03     15.4059E-03
              70              88     16.1941E-03     15.4059E-03
            3509              88     16.1941E-03     15.4059E-03
            3508              89     16.4124E-03     15.8334E-03
              72              89     16.4124E-03     15.8334E-03
            3507              89     16.4124E-03     15.8334E-03
              71              89     16.4124E-03     15.8334E-03
            3507              90     16.2030E-03     16.0020E-03
              73              90     16.2030E-03     16.0020E-03
            3506              90     16.2030E-03     16.0020E-03
              72              90     16.2030E-03     16.0020E-03
              74              91     16.1488E-03     16.1879E-03
            3506              91     16.1488E-03     16.1879E-03
              73              91     16.1488E-03     16.1879E-03
            3505              91     16.1488E-03     16.1879E-03
            3505              92     15.9534E-03     16.1446E-03
              75              92     15.9534E-03     16.1446E-03
            3504              92     15.9534E-03     16.1446E-03
              74              92     15.9534E-03     16.1446E-03
              76              93     15.4484E-03     16.4148E-03
            3504              93     15.4484E-03     16.4148E-03
            3503              93     15.4484E-03     16.4148E-03
              75              93     15.4484E-03     16.4148E-03
              77              94     16.1612E-03     16.4480E-03
            3502              94     16.1612E-03     16.4480E-03
              76              94     16.1612E-03     16.4480E-03
            3503              94     16.1612E-03     16.4480E-03
            3501              95     15.9396E-03     15.1047E-03
              78              95     15.9396E-03     15.1047E-03
            3502              95     15.9396E-03     15.1047E-03
              77              95     15.9396E-03     15.1047E-03
             379              96     26.0538E-03     29.7081E-03
             385              96     26.0538E-03     29.7081E-03
              78              96     26.0538E-03     29.7081E-03
             128              96     26.0538E-03     29.7081E-03
             385              97     29.9221E-03     32.6717E-03
             391              97     29.9221E-03     32.6717E-03
             128              97     29.9221E-03     32.6717E-03
             178              97     29.9221E-03     32.6717E-03
             178              98     39.7082E-03     44.7288E-03
             391              98     39.7082E-03     44.7288E-03
             228              98     39.7082E-03     44.7288E-03
             397              98     39.7082E-03     44.7288E-03
             228              99     50.6251E-03     58.6733E-03
             403              99     50.6251E-03     58.6733E-03
             397              99     50.6251E-03     58.6733E-03
             278              99     50.6251E-03     58.6733E-03
             409             100     60.0878E-03     70.2756E-03
             278             100     60.0878E-03     70.2756E-03
             328             100     60.0878E-03     70.2756E-03
             403             100     60.0878E-03     70.2756E-03
             328             101     69.4851E-03     77.5882E-03
             378             101     69.4851E-03     77.5882E-03
             409             101     69.4851E-03     77.5882E-03
             415             101     69.4851E-03     77.5882E-03
             377             102     79.7463E-03     76.9088E-03
             378             102     79.7463E-03     76.9088E-03
             377             103     75.5011E-03     71.1820E-03
             376             103     75.5011E-03     71.1820E-03
             376             104     67.6226E-03     69.7196E-03
             375             104     67.6226E-03     69.7196E-03
             375             105     66.2089E-03     64.6546E-03
             374             105     66.2089E-03     64.6546E-03
             374             106     62.8035E-03     62.7567E-03
             373             106     62.8035E-03     62.7567E-03
             372             107     60.3200E-03     59.1917E-03
             373             107     60.3200E-03     59.1917E-03
             372             108     56.6241E-03     57.4831E-03
             371             108     56.6241E-03     57.4831E-03
             370             109     56.4050E-03     53.2769E-03
             371             109     56.4050E-03     53.2769E-03
             369             110     54.2938E-03     51.4289E-03
             370             110     54.2938E-03     51.4289E-03
             369             111     53.9560E-03     60.1841E-03
             368             111     53.9560E-03     60.1841E-03
             368             112     61.2529E-03     59.1522E-03
             367             112     61.2529E-03     59.1522E-03
             367             113     57.6330E-03     54.3927E-03
             366             113     57.6330E-03     54.3927E-03
             366             114     51.2448E-03     52.9128E-03
             365             114     51.2448E-03     52.9128E-03
             365             115     49.8573E-03     48.6815E-03
             364             115     49.8573E-03     48.6815E-03
             363             116     46.9499E-03     46.8662E-03
             364             116     46.9499E-03     46.8662E-03
             362             117     44.5880E-03     44.2809E-03
             363             117     44.5880E-03     44.2809E-03
             361             118     42.2755E-03     41.5333E-03
             362             118     42.2755E-03     41.5333E-03
             361             119     39.2693E-03     39.6993E-03
             360             119     39.2693E-03     39.6993E-03
             359             120     38.3913E-03     36.3047E-03
             360             120     38.3913E-03     36.3047E-03
             359             121     36.4598E-03     34.3364E-03
             358             121     36.4598E-03     34.3364E-03
             357             122     36.8815E-03     41.0903E-03
             358             122     36.8815E-03     41.0903E-03
             357             123     42.4811E-03     41.1370E-03
             356             123     42.4811E-03     41.1370E-03
             356             124     39.4705E-03     37.2484E-03
             355             124     39.4705E-03     37.2484E-03
             355             125     34.4822E-03     35.7113E-03
             354             125     34.4822E-03     35.7113E-03
             354             126     33.0658E-03     32.2551E-03
             353             126     33.0658E-03     32.2551E-03
             352             127     30.5655E-03     30.5376E-03
             353             127     30.5655E-03     30.5376E-03
             352             128     28.4750E-03     28.2493E-03
             351             128     28.4750E-03     28.2493E-03
             351             129     26.3564E-03     25.9272E-03
             350             129     26.3564E-03     25.9272E-03
             350             130     23.8813E-03     24.0130E-03
             349             130     23.8813E-03     24.0130E-03
             348             131     22.4384E-03     21.2453E-03
             349             131     22.4384E-03     21.2453E-03
             347             132     20.5609E-03     19.1861E-03
             348             132     20.5609E-03     19.1861E-03
             346             133     21.6682E-03     24.0965E-03
             347             133     21.6682E-03     24.0965E-03
             345             134     25.8050E-03     25.1266E-03
             346             134     25.8050E-03     25.1266E-03
             345             135     23.3649E-03     22.0485E-03
             344             135     23.3649E-03     22.0485E-03
             343             136     19.6599E-03     20.4959E-03
             344             136     19.6599E-03     20.4959E-03
             342             137     18.2521E-03     17.7663E-03
             343             137     18.2521E-03     17.7663E-03
             342             138     16.1492E-03     16.1687E-03
             341             138     16.1492E-03     16.1687E-03
             340             139     14.3335E-03     14.1812E-03
             341             139     14.3335E-03     14.1812E-03
             339             140     12.4249E-03     12.2676E-03
             340             140     12.4249E-03     12.2676E-03
             339             141     10.4432E-03     10.3278E-03
             338             141     10.4432E-03     10.3278E-03
             337             142     8.54643E-03     8.15374E-03
             338             142     8.54643E-03     8.15374E-03
             336             143     6.80951E-03     6.10965E-03
             337             143     6.80951E-03     6.10965E-03
             336             144     8.17894E-03     9.02521E-03
             335             144     8.17894E-03     9.02521E-03
             334             145     10.5364E-03     10.4185E-03
             335             145     10.5364E-03     10.4185E-03
             333             146     8.47158E-03     7.88072E-03
             334             146     8.47158E-03     7.88072E-03
             333             147     5.72997E-03     6.18855E-03
             332             147     5.72997E-03     6.18855E-03
             332             148     4.18712E-03     3.84647E-03
             331             148     4.18712E-03     3.84647E-03
             330             149     1.95207E-03     2.19727E-03
             331             149     1.95207E-03     2.19727E-03
             330             150     844.184E-06     1.70542E-03
             329             150     844.184E-06     1.70542E-03
            2348             151     53.7722E-03     54.2295E-03
             379             151     53.7722E-03     54.2295E-03
            2347             151     53.7722E-03     54.2295E-03
             380             151     53.7722E-03     54.2295E-03
             381             152     64.8264E-03     64.8100E-03
            2347             152     64.8264E-03     64.8100E-03
             380             152     64.8264E-03     64.8100E-03
            2346             152     64.8264E-03     64.8100E-03
            2345             153     66.7875E-03     69.3238E-03
             382             153     66.7875E-03     69.3238E-03
             381             153     66.7875E-03     69.3238E-03
            2346             153     66.7875E-03     69.3238E-03
            2345             154     71.3920E-03     70.1767E-03
             382             154     71.3920E-03     70.1767E-03
            2344             154     71.3920E-03     70.1767E-03
             383             154     71.3920E-03     70.1767E-03
             383             155     73.2470E-03     77.6845E-03
             384             155     73.2470E-03     77.6845E-03
            2343             155     73.2470E-03     77.6845E-03
            2344             155     73.2470E-03     77.6845E-03
             427             156     45.8198E-03     57.8775E-03
             390             156     45.8198E-03     57.8775E-03
             384             156     45.8198E-03     57.8775E-03
             421             156     45.8198E-03     57.8775E-03
             427             157     26.4259E-03     31.9130E-03
             390             157     26.4259E-03     31.9130E-03
             396             157     26.4259E-03     31.9130E-03
             433             157     26.4259E-03     31.9130E-03
             402             158     20.7294E-03     19.6411E-03
             396             158     20.7294E-03     19.6411E-03
             439             158     20.7294E-03     19.6411E-03
             433             158     20.7294E-03     19.6411E-03
             408             159     30.4886E-03     31.4498E-03
             439             159     30.4886E-03     31.4498E-03
             445             159     30.4886E-03     31.4498E-03
             402             159     30.4886E-03     31.4498E-03
             445             160     42.8599E-03     53.0449E-03
             414             160     42.8599E-03     53.0449E-03
             408             160     42.8599E-03     53.0449E-03
             451             160     42.8599E-03     53.0449E-03
             420             161     56.8951E-03     69.9713E-03
             414             161     56.8951E-03     69.9713E-03
             457             161     56.8951E-03     69.9713E-03
             451             161     56.8951E-03     69.9713E-03
             420             162     69.0694E-03     67.4345E-03
             419             162     69.0694E-03     67.4345E-03
             419             163     66.9027E-03     64.3292E-03
             418             163     66.9027E-03     64.3292E-03
             418             164     65.9076E-03     62.9978E-03
             417             164     65.9076E-03     62.9978E-03
             417             165     66.7351E-03     61.5584E-03
             416             165     66.7351E-03     61.5584E-03
             415             166     67.9101E-03     70.6516E-03
             416             166     67.9101E-03     70.6516E-03
             422             167     72.2348E-03     77.2398E-03
            5288             167     72.2348E-03     77.2398E-03
            5287             167     72.2348E-03     77.2398E-03
             421             167     72.2348E-03     77.2398E-03
            5287             168     70.9020E-03     68.8252E-03
            5286             168     70.9020E-03     68.8252E-03
             423             168     70.9020E-03     68.8252E-03
             422             168     70.9020E-03     68.8252E-03
            5286             169     64.5527E-03     67.0474E-03
             423             169     64.5527E-03     67.0474E-03
             424             169     64.5527E-03     67.0474E-03
            5285             169     64.5527E-03     67.0474E-03
            5284             170     62.8757E-03     64.6320E-03
             424             170     62.8757E-03     64.6320E-03
             425             170     62.8757E-03     64.6320E-03
            5285             170     62.8757E-03     64.6320E-03
             425             171     62.4581E-03     64.0459E-03
            5284             171     62.4581E-03     64.0459E-03
            5283             171     62.4581E-03     64.0459E-03
             426             171     62.4581E-03     64.0459E-03
             426             172     31.5855E-03     36.3405E-03
             432             172     31.5855E-03     36.3405E-03
             505             172     31.5855E-03     36.3405E-03
             545             172     31.5855E-03     36.3405E-03
             585             173     32.6832E-03     40.9008E-03
             545             173     32.6832E-03     40.9008E-03
             432             173     32.6832E-03     40.9008E-03
             438             173     32.6832E-03     40.9008E-03
             438             174     39.0036E-03     48.7859E-03
             625             174     39.0036E-03     48.7859E-03
             585             174     39.0036E-03     48.7859E-03
             444             174     39.0036E-03     48.7859E-03
             665             175     47.0812E-03     58.0185E-03
             625             175     47.0812E-03     58.0185E-03
             450             175     47.0812E-03     58.0185E-03
             444             175     47.0812E-03     58.0185E-03
             705             176     54.8855E-03     65.4500E-03
             456             176     54.8855E-03     65.4500E-03
             665             176     54.8855E-03     65.4500E-03
             450             176     54.8855E-03     65.4500E-03
             705             177     60.8834E-03     66.7739E-03
             745             177     60.8834E-03     66.7739E-03
             456             177     60.8834E-03     66.7739E-03
             462             177     60.8834E-03     66.7739E-03
             461             178     66.9166E-03     62.0397E-03
             462             178     66.9166E-03     62.0397E-03
             461             179     67.2722E-03     61.1846E-03
             460             179     67.2722E-03     61.1846E-03
             459             180     63.4236E-03     66.4812E-03
             460             180     63.4236E-03     66.4812E-03
             459             181     69.8793E-03     65.1477E-03
             458             181     69.8793E-03     65.1477E-03
             458             182     71.5621E-03     70.3866E-03
             457             182     71.5621E-03     70.3866E-03
            6572             183     667.222E-06     660.457E-06
             464             183     667.222E-06     660.457E-06
             463             183     667.222E-06     660.457E-06
            6571             183     667.222E-06     660.457E-06
             465             184     669.763E-06     663.193E-06
            6570             184     669.763E-06     663.193E-06
            6571             184     669.763E-06     663.193E-06
             464             184     669.763E-06     663.193E-06
             465             185     664.504E-06     664.842E-06
             466             185     664.504E-06     664.842E-06
            6570             185     664.504E-06     664.842E-06
            6569             185     664.504E-06     664.842E-06
            6569             186     672.013E-06     665.687E-06
             467             186     672.013E-06     665.687E-06
             466             186     672.013E-06     665.687E-06
            6568             186     672.013E-06     665.687E-06
             468             187     669.943E-06     653.142E-06
             467             187     669.943E-06     653.142E-06
            6567             187     669.943E-06     653.142E-06
            6568             187     669.943E-06     653.142E-06
             474             188     6.05236E-03     6.05868E-03
            4107             188     6.05236E-03     6.05868E-03
            4067             188     6.05236E-03     6.05868E-03
             468             188     6.05236E-03     6.05868E-03
             474             189     5.57677E-03     5.61217E-03
             480             189     5.57677E-03     5.61217E-03
            4147             189     5.57677E-03     5.61217E-03
            4107             189     5.57677E-03     5.61217E-03
             486             190     4.83358E-03     4.89154E-03
            4147             190     4.83358E-03     4.89154E-03
            4187             190     4.83358E-03     4.89154E-03
             480             190     4.83358E-03     4.89154E-03
            4187             191     3.79842E-03     3.90584E-03
             492             191     3.79842E-03     3.90584E-03
             486             191     3.79842E-03     3.90584E-03
            4227             191     3.79842E-03     3.90584E-03
             498             192     2.52097E-03     2.81435E-03
            4227             192     2.52097E-03     2.81435E-03
             492             192     2.52097E-03     2.81435E-03
            4267             192     2.52097E-03     2.81435E-03
            4307             193     1.86678E-03     2.57499E-03
             498             193     1.86678E-03     2.57499E-03
             504             193     1.86678E-03     2.57499E-03
            4267             193     1.86678E-03     2.57499E-03
             503             194     701.378E-06     696.900E-06
             504             194     701.378E-06     696.900E-06
             503             195     522.980E-06     493.299E-06
             502             195     522.980E-06     493.299E-06
             501             196     312.899E-06     343.698E-06
             502             196     312.899E-06     343.698E-06
             501             197     221.105E-06     200.413E-06
             500             197     221.105E-06     200.413E-06
             500             198     176.841E-06     234.172E-06
             499             198     176.841E-06     234.172E-06
             493             199     170.349E-06     228.477E-06
             499             199     170.349E-06     228.477E-06
             493             200     214.143E-06     225.814E-06
             487             200     214.143E-06     225.814E-06
             487             201     361.171E-06     360.971E-06
             481             201     361.171E-06     360.971E-06
             475             202     496.421E-06     488.243E-06
             481             202     496.421E-06     488.243E-06
             475             203     586.042E-06     580.265E-06
             469             203     586.042E-06     580.265E-06
             463             204     643.977E-06     638.938E-06
             469             204     643.977E-06     638.938E-06
            4105             205     15.0292E-03     14.7310E-03
            4106             205     15.0292E-03     14.7310E-03
             505             205     15.0292E-03     14.7310E-03
             506             205     15.0292E-03     14.7310E-03
             507             206     17.6817E-03     16.8461E-03
             506             206     17.6817E-03     16.8461E-03
            4105             206     17.6817E-03     16.8461E-03
            4104             206     17.6817E-03     16.8461E-03
             508             207     17.8609E-03     18.1967E-03
            4103             207     17.8609E-03     18.1967E-03
            4104             207     17.8609E-03     18.1967E-03
             507             207     17.8609E-03     18.1967E-03
             509             208     17.1033E-03     18.1380E-03
            4103             208     17.1033E-03     18.1380E-03
            4102             208     17.1033E-03     18.1380E-03
             508             208     17.1033E-03     18.1380E-03
            4101             209     17.5262E-03     17.8504E-03
             509             209     17.5262E-03     17.8504E-03
             510             209     17.5262E-03     17.8504E-03
            4102             209     17.5262E-03     17.8504E-03
             510             210     17.6964E-03     17.8953E-03
             511             210     17.6964E-03     17.8953E-03
            4100             210     17.6964E-03     17.8953E-03
            4101             210     17.6964E-03     17.8953E-03
             512             211     17.7997E-03     17.6102E-03
            4100             211     17.7997E-03     17.6102E-03
            4099             211     17.7997E-03     17.6102E-03
             511             211     17.7997E-03     17.6102E-03
            4099             212     17.9231E-03     17.4277E-03
             513             212     17.9231E-03     17.4277E-03
             512             212     17.9231E-03     17.4277E-03
            4098             212     17.9231E-03     17.4277E-03
            4097             213     17.9932E-03     17.2801E-03
            4098             213     17.9932E-03     17.2801E-03
             514             213     17.9932E-03     17.2801E-03
             513             213     17.9932E-03     17.2801E-03
            4097             214     17.7889E-03     16.9477E-03
            4096             214     17.7889E-03     16.9477E-03
             514             214     17.7889E-03     16.9477E-03
             515             214     17.7889E-03     16.9477E-03
            4095             215     17.4653E-03     17.4476E-03
             515             215     17.4653E-03     17.4476E-03
             516             215     17.4653E-03     17.4476E-03
            4096             215     17.4653E-03     17.4476E-03
             517             216     16.2594E-03     16.2902E-03
            4094             216     16.2594E-03     16.2902E-03
             516             216     16.2594E-03     16.2902E-03
            4095             216     16.2594E-03     16.2902E-03
            4093             217     15.7826E-03     15.1360E-03
             518             217     15.7826E-03     15.1360E-03
             517             217     15.7826E-03     15.1360E-03
            4094             217     15.7826E-03     15.1360E-03
            4092             218     15.8565E-03     16.1064E-03
            4093             218     15.8565E-03     16.1064E-03
             518             218     15.8565E-03     16.1064E-03
             519             218     15.8565E-03     16.1064E-03
             520             219     15.2865E-03     16.0337E-03
            4092             219     15.2865E-03     16.0337E-03
            4091             219     15.2865E-03     16.0337E-03
             519             219     15.2865E-03     16.0337E-03
            4090             220     15.5289E-03     15.8165E-03
             520             220     15.5289E-03     15.8165E-03
             521             220     15.5289E-03     15.8165E-03
            4091             220     15.5289E-03     15.8165E-03
            4089             221     15.5919E-03     15.8218E-03
             522             221     15.5919E-03     15.8218E-03
            4090             221     15.5919E-03     15.8218E-03
             521             221     15.5919E-03     15.8218E-03
            4089             222     15.6427E-03     15.6147E-03
             523             222     15.6427E-03     15.6147E-03
             522             222     15.6427E-03     15.6147E-03
            4088             222     15.6427E-03     15.6147E-03
             523             223     15.7521E-03     15.4119E-03
            4088             223     15.7521E-03     15.4119E-03
            4087             223     15.7521E-03     15.4119E-03
             524             223     15.7521E-03     15.4119E-03
             524             224     15.7569E-03     15.3087E-03
             525             224     15.7569E-03     15.3087E-03
            4087             224     15.7569E-03     15.3087E-03
            4086             224     15.7569E-03     15.3087E-03
            4085             225     15.7991E-03     15.2302E-03
             525             225     15.7991E-03     15.2302E-03
             526             225     15.7991E-03     15.2302E-03
            4086             225     15.7991E-03     15.2302E-03
            4085             226     15.6740E-03     15.0744E-03
            4084             226     15.6740E-03     15.0744E-03
             526             226     15.6740E-03     15.0744E-03
             527             226     15.6740E-03     15.0744E-03
            4084             227     15.4826E-03     15.3442E-03
             527             227     15.4826E-03     15.3442E-03
             528             227     15.4826E-03     15.3442E-03
            4083             227     15.4826E-03     15.3442E-03
             528             228     14.4477E-03     14.3587E-03
             529             228     14.4477E-03     14.3587E-03
            4083             228     14.4477E-03     14.3587E-03
            4082             228     14.4477E-03     14.3587E-03
             530             229     13.8842E-03     13.4556E-03
             529             229     13.8842E-03     13.4556E-03
            4081             229     13.8842E-03     13.4556E-03
            4082             229     13.8842E-03     13.4556E-03
             531             230     13.9301E-03     14.0086E-03
            4080             230     13.9301E-03     14.0086E-03
             530             230     13.9301E-03     14.0086E-03
            4081             230     13.9301E-03     14.0086E-03
            4080             231     13.6204E-03     13.9378E-03
            4079             231     13.6204E-03     13.9378E-03
             532             231     13.6204E-03     13.9378E-03
             531             231     13.6204E-03     13.9378E-03
            4078             232     13.7642E-03     13.8114E-03
             532             232     13.7642E-03     13.8114E-03
             533             232     13.7642E-03     13.8114E-03
            4079             232     13.7642E-03     13.8114E-03
             534             233     13.8098E-03     13.8198E-03
             533             233     13.8098E-03     13.8198E-03
            4077             233     13.8098E-03     13.8198E-03
            4078             233     13.8098E-03     13.8198E-03
            4076             234     13.8424E-03     13.7331E-03
             534             234     13.8424E-03     13.7331E-03
             535             234     13.8424E-03     13.7331E-03
            4077             234     13.8424E-03     13.7331E-03
             535             235     13.8871E-03     13.6838E-03
            4075             235     13.8871E-03     13.6838E-03
            4076             235     13.8871E-03     13.6838E-03
             536             235     13.8871E-03     13.6838E-03
            4075             236     13.8941E-03     13.6786E-03
             536             236     13.8941E-03     13.6786E-03
            4074             236     13.8941E-03     13.6786E-03
             537             236     13.8941E-03     13.6786E-03
            4074             237     13.9125E-03     13.6331E-03
            4073             237     13.9125E-03     13.6331E-03
             537             237     13.9125E-03     13.6331E-03
             538             237     13.9125E-03     13.6331E-03
            4072             238     13.8198E-03     13.6458E-03
             538             238     13.8198E-03     13.6458E-03
             539             238     13.8198E-03     13.6458E-03
            4073             238     13.8198E-03     13.6458E-03
             539             239     12.7289E-03     12.6274E-03
            4072             239     12.7289E-03     12.6274E-03
            4071             239     12.7289E-03     12.6274E-03
             540             239     12.7289E-03     12.6274E-03
            4070             240     11.9108E-03     11.6722E-03
             540             240     11.9108E-03     11.6722E-03
             541             240     11.9108E-03     11.6722E-03
            4071             240     11.9108E-03     11.6722E-03
             541             241     11.9434E-03     11.8755E-03
             542             241     11.9434E-03     11.8755E-03
            4070             241     11.9434E-03     11.8755E-03
            4069             241     11.9434E-03     11.8755E-03
            4068             242     11.8660E-03     11.8452E-03
            4069             242     11.8660E-03     11.8452E-03
             543             242     11.8660E-03     11.8452E-03
             542             242     11.8660E-03     11.8452E-03
            4068             243     11.8631E-03     11.7701E-03
             544             243     11.8631E-03     11.7701E-03
            4067             243     11.8631E-03     11.7701E-03
             543             243     11.8631E-03     11.7701E-03
            6567             244     6.10411E-03     6.06451E-03
            6573             244     6.10411E-03     6.06451E-03
             544             244     6.10411E-03     6.06451E-03
             584             244     6.10411E-03     6.06451E-03
            6573             245     5.68028E-03     5.61635E-03
             624             245     5.68028E-03     5.61635E-03
            6579             245     5.68028E-03     5.61635E-03
             584             245     5.68028E-03     5.61635E-03
            6579             246     4.98848E-03     4.89481E-03
             664             246     4.98848E-03     4.89481E-03
            6585             246     4.98848E-03     4.89481E-03
             624             246     4.98848E-03     4.89481E-03
             704             247     4.02526E-03     3.91705E-03
             664             247     4.02526E-03     3.91705E-03
            6591             247     4.02526E-03     3.91705E-03
            6585             247     4.02526E-03     3.91705E-03
            6597             248     2.87977E-03     2.78186E-03
             744             248     2.87977E-03     2.78186E-03
            6591             248     2.87977E-03     2.78186E-03
             704             248     2.87977E-03     2.78186E-03
             784             249     1.49822E-03     1.85749E-03
             744             249     1.49822E-03     1.85749E-03
            6603             249     1.49822E-03     1.85749E-03
            6597             249     1.49822E-03     1.85749E-03
             783             250     1.41454E-03     2.29467E-03
             784             250     1.41454E-03     2.29467E-03
             783             251     3.48576E-03     4.20239E-03
             782             251     3.48576E-03     4.20239E-03
             781             252     7.59072E-03     6.77706E-03
             782             252     7.59072E-03     6.77706E-03
             780             253     10.5133E-03     10.5442E-03
             781             253     10.5133E-03     10.5442E-03
             780             254     8.12805E-03     9.00382E-03
             779             254     8.12805E-03     9.00382E-03
             778             255     6.45672E-03     5.67163E-03
             779             255     6.45672E-03     5.67163E-03
             777             256     8.67991E-03     8.32051E-03
             778             256     8.67991E-03     8.32051E-03
             777             257     11.2979E-03     11.0953E-03
             776             257     11.2979E-03     11.0953E-03
             776             258     13.8457E-03     13.6912E-03
             775             258     13.8457E-03     13.6912E-03
             774             259     16.3526E-03     16.1671E-03
             775             259     16.3526E-03     16.1671E-03
             774             260     18.7300E-03     18.7509E-03
             773             260     18.7300E-03     18.7509E-03
             772             261     21.4441E-03     20.8759E-03
             773             261     21.4441E-03     20.8759E-03
             772             262     23.3391E-03     24.3898E-03
             771             262     23.3391E-03     24.3898E-03
             770             263     28.0786E-03     26.4277E-03
             771             263     28.0786E-03     26.4277E-03
             770             264     31.1595E-03     30.4072E-03
             769             264     31.1595E-03     30.4072E-03
             768             265     25.9560E-03     28.9431E-03
             769             265     25.9560E-03     28.9431E-03
             768             266     24.4025E-03     22.6945E-03
             767             266     24.4025E-03     22.6945E-03
             767             267     26.7244E-03     25.1954E-03
             766             267     26.7244E-03     25.1954E-03
             765             268     28.4926E-03     28.6502E-03
             766             268     28.4926E-03     28.6502E-03
             765             269     31.5806E-03     31.0082E-03
             764             269     31.5806E-03     31.0082E-03
             763             270     34.1754E-03     33.9113E-03
             764             270     34.1754E-03     33.9113E-03
             763             271     36.8077E-03     36.5326E-03
             762             271     36.8077E-03     36.5326E-03
             762             272     39.3995E-03     39.3405E-03
             761             272     39.3995E-03     39.3405E-03
             761             273     42.4749E-03     41.4930E-03
             760             273     42.4749E-03     41.4930E-03
             759             274     44.2256E-03     45.8372E-03
             760             274     44.2256E-03     45.8372E-03
             759             275     50.5994E-03     47.6567E-03
             758             275     50.5994E-03     47.6567E-03
             757             276     54.2456E-03     52.5775E-03
             758             276     54.2456E-03     52.5775E-03
             756             277     47.0059E-03     52.5525E-03
             757             277     47.0059E-03     52.5525E-03
             755             278     46.5250E-03     43.8218E-03
             756             278     46.5250E-03     43.8218E-03
             754             279     48.9048E-03     46.1542E-03
             755             279     48.9048E-03     46.1542E-03
             754             280     49.8351E-03     50.3957E-03
             753             280     49.8351E-03     50.3957E-03
             752             281     53.5398E-03     52.6140E-03
             753             281     53.5398E-03     52.6140E-03
             752             282     56.3982E-03     56.0062E-03
             751             282     56.3982E-03     56.0062E-03
             751             283     59.3227E-03     59.1845E-03
             750             283     59.3227E-03     59.1845E-03
             749             284     62.8862E-03     61.4449E-03
             750             284     62.8862E-03     61.4449E-03
             748             285     64.6192E-03     66.7290E-03
             749             285     64.6192E-03     66.7290E-03
             748             286     72.6940E-03     68.4407E-03
             747             286     72.6940E-03     68.4407E-03
             747             287     77.0457E-03     74.4272E-03
             746             287     77.0457E-03     74.4272E-03
             745             288     68.2296E-03     74.1090E-03
             746             288     68.2296E-03     74.1090E-03
            1782             306     418.952E-06     431.992E-06
            1781             306     418.952E-06     431.992E-06
            1783             307     285.756E-06     250.868E-06
            1782             307     285.756E-06     250.868E-06
            1784             308     157.437E-06     241.974E-06
            1783             308     157.437E-06     241.974E-06
            1760             412     624.779E-06     620.138E-06
            1764             412     624.779E-06     620.138E-06
            1764             413     570.462E-06     564.900E-06
            1768             413     570.462E-06     564.900E-06
            1772             414     488.173E-06     481.635E-06
            1768             414     488.173E-06     481.635E-06
            1776             415     373.026E-06     364.016E-06
            1772             415     373.026E-06     364.016E-06
            1776             416     242.788E-06     222.341E-06
            1780             416     242.788E-06     222.341E-06
            1780             417     168.732E-06     207.222E-06
            1784             417     168.732E-06     207.222E-06
            3800             418     1.49700E-03     2.07941E-03
            1777             418     1.49700E-03     2.07941E-03
            3850             418     1.49700E-03     2.07941E-03
            1781             418     1.49700E-03     2.07941E-03
            3800             419     1.78980E-03     2.10770E-03
            1777             419     1.78980E-03     2.10770E-03
            3750             419     1.78980E-03     2.10770E-03
            1773             419     1.78980E-03     2.10770E-03
            3700             420     2.69727E-03     2.85403E-03
            3750             420     2.69727E-03     2.85403E-03
            1769             420     2.69727E-03     2.85403E-03
            1773             420     2.69727E-03     2.85403E-03
            3650             421     3.54241E-03     3.60545E-03
            3700             421     3.54241E-03     3.60545E-03
            1769             421     3.54241E-03     3.60545E-03
            1765             421     3.54241E-03     3.60545E-03
            3650             422     4.15273E-03     4.17908E-03
            1765             422     4.15273E-03     4.17908E-03
            1761             422     4.15273E-03     4.17908E-03
            3600             422     4.15273E-03     4.17908E-03
            3600             423     4.53448E-03     4.53839E-03
            1761             423     4.53448E-03     4.53839E-03
            3550             423     4.53448E-03     4.53839E-03
            1757             423     4.53448E-03     4.53839E-03
            3801             440     77.6157E-03     74.8759E-03
            3802             440     77.6157E-03     74.8759E-03
            3803             441     73.4527E-03     69.2673E-03
            3802             441     73.4527E-03     69.2673E-03
            3804             442     65.7300E-03     67.7835E-03
            3803             442     65.7300E-03     67.7835E-03
            3805             443     64.2850E-03     62.7866E-03
            3804             443     64.2850E-03     62.7866E-03
            3806             444     60.8998E-03     60.8619E-03
            3805             444     60.8998E-03     60.8619E-03
            3807             445     58.3959E-03     57.3244E-03
            3806             445     58.3959E-03     57.3244E-03
            3808             446     54.7305E-03     55.5483E-03
            3807             446     54.7305E-03     55.5483E-03
            3808             447     54.3553E-03     51.3654E-03
            3809             447     54.3553E-03     51.3654E-03
            3809             448     52.1670E-03     49.4007E-03
            3810             448     52.1670E-03     49.4007E-03
            3811             449     51.9515E-03     57.9156E-03
            3810             449     51.9515E-03     57.9156E-03
            3812             450     59.1128E-03     57.1114E-03
            3811             450     59.1128E-03     57.1114E-03
            3813             451     55.5765E-03     52.4671E-03
            3812             451     55.5765E-03     52.4671E-03
            3813             452     49.3396E-03     50.9647E-03
            3814             452     49.3396E-03     50.9647E-03
            3814             453     47.9222E-03     46.7987E-03
            3815             453     47.9222E-03     46.7987E-03
            3816             454     45.0316E-03     44.9625E-03
            3815             454     45.0316E-03     44.9625E-03
            3816             455     42.6695E-03     42.3776E-03
            3817             455     42.6695E-03     42.3776E-03
            3817             456     40.3403E-03     39.6517E-03
            3818             456     40.3403E-03     39.6517E-03
            3819             457     37.3631E-03     37.7530E-03
            3818             457     37.3631E-03     37.7530E-03
            3819             458     36.3338E-03     34.3833E-03
            3820             458     36.3338E-03     34.3833E-03
            3821             459     34.3271E-03     32.3035E-03
            3820             459     34.3271E-03     32.3035E-03
            3821             460     34.8767E-03     38.8207E-03
            3822             460     34.8767E-03     38.8207E-03
            3823             461     40.3407E-03     39.0960E-03
            3822             461     40.3407E-03     39.0960E-03
            3824             462     37.4141E-03     35.3230E-03
            3823             462     37.4141E-03     35.3230E-03
            3825             463     32.5776E-03     33.7638E-03
            3824             463     32.5776E-03     33.7638E-03
            3825             464     31.1318E-03     30.3734E-03
            3826             464     31.1318E-03     30.3734E-03
            3827             465     28.6487E-03     28.6352E-03
            3826             465     28.6487E-03     28.6352E-03
            3828             466     26.5582E-03     26.3478E-03
            3827             466     26.5582E-03     26.3478E-03
            3829             467     24.4230E-03     24.0478E-03
            3828             467     24.4230E-03     24.0478E-03
            3829             468     21.9763E-03     22.0692E-03
            3830             468     21.9763E-03     22.0692E-03
            3830             469     20.3812E-03     19.3275E-03
            3831             469     20.3812E-03     19.3275E-03
            3832             470     18.4347E-03     17.1604E-03
            3831             470     18.4347E-03     17.1604E-03
            3833             471     19.6694E-03     21.8319E-03
            3832             471     19.6694E-03     21.8319E-03
            3834             472     23.6643E-03     23.0858E-03
            3833             472     23.6643E-03     23.0858E-03
            3834             473     21.3088E-03     20.1236E-03
            3835             473     21.3088E-03     20.1236E-03
            3836             474     17.7573E-03     18.5501E-03
            3835             474     17.7573E-03     18.5501E-03
            3836             475     16.3220E-03     15.8879E-03
            3837             475     16.3220E-03     15.8879E-03
            3837             476     14.2378E-03     14.2715E-03
            3838             476     14.2378E-03     14.2715E-03
            3838             477     12.4239E-03     12.2876E-03
            3839             477     12.4239E-03     12.2876E-03
            3839             478     10.5011E-03     10.3987E-03
            3840             478     10.5011E-03     10.3987E-03
            3841             479     8.54490E-03     8.39844E-03
            3840             479     8.54490E-03     8.39844E-03
            3842             480     6.49283E-03     6.26255E-03
            3841             480     6.49283E-03     6.26255E-03
            3843             481     4.75564E-03     4.18977E-03
            3842             481     4.75564E-03     4.18977E-03
            3844             482     6.27763E-03     6.87658E-03
            3843             482     6.27763E-03     6.87658E-03
            3845             483     8.45958E-03     8.44247E-03
            3844             483     8.45958E-03     8.44247E-03
            3846             484     6.50183E-03     6.04526E-03
            3845             484     6.50183E-03     6.04526E-03
            3846             485     3.95973E-03     4.39221E-03
            3847             485     3.95973E-03     4.39221E-03
            3848             486     2.49358E-03     2.31043E-03
            3847             486     2.49358E-03     2.31043E-03
            3849             487     1.78129E-03     1.49917E-03
            3848             487     1.78129E-03     1.49917E-03
            3850             488     2.37983E-03     2.80282E-03
            3849             488     2.37983E-03     2.80282E-03
            2354             514     38.7704E-03     37.2907E-03
            3501             514     38.7704E-03     37.2907E-03
            2348             514     38.7704E-03     37.2907E-03
            3551             514     38.7704E-03     37.2907E-03
            3601             515     50.8588E-03     53.3648E-03
            3551             515     50.8588E-03     53.3648E-03
            2354             515     50.8588E-03     53.3648E-03
            2360             515     50.8588E-03     53.3648E-03
            2366             516     63.3480E-03     68.1689E-03
            3601             516     63.3480E-03     68.1689E-03
            2360             516     63.3480E-03     68.1689E-03
            3651             516     63.3480E-03     68.1689E-03
            3701             517     73.9472E-03     81.8145E-03
            3651             517     73.9472E-03     81.8145E-03
            2366             517     73.9472E-03     81.8145E-03
            2372             517     73.9472E-03     81.8145E-03
            2372             518     81.8433E-03     91.8626E-03
            3701             518     81.8433E-03     91.8626E-03
            3751             518     81.8433E-03     91.8626E-03
            2378             518     81.8433E-03     91.8626E-03
            3751             519     89.0210E-03     97.0353E-03
            2378             519     89.0210E-03     97.0353E-03
            2384             519     89.0210E-03     97.0353E-03
            3801             519     89.0210E-03     97.0353E-03
            2384             520     138.517E-03     145.552E-03
            2383             520     138.517E-03     145.552E-03
            2383             521     176.919E-03     182.178E-03
            2382             521     176.919E-03     182.178E-03
            2381             522     190.345E-03     192.908E-03
            2382             522     190.345E-03     192.908E-03
            2380             523     206.775E-03     203.837E-03
            2381             523     206.775E-03     203.837E-03
            2380             524     217.666E-03     212.457E-03
            2379             524     217.666E-03     212.457E-03
            2379             525     204.639E-03     212.320E-03
            5324             525     204.639E-03     212.320E-03
            2373             525     204.639E-03     212.320E-03
            5318             525     204.639E-03     212.320E-03
            5312             526     181.862E-03     199.796E-03
            2367             526     181.862E-03     199.796E-03
            2373             526     181.862E-03     199.796E-03
            5318             526     181.862E-03     199.796E-03
            5306             527     159.478E-03     181.089E-03
            5312             527     159.478E-03     181.089E-03
            2361             527     159.478E-03     181.089E-03
            2367             527     159.478E-03     181.089E-03
            2361             528     140.668E-03     159.559E-03
            5306             528     140.668E-03     159.559E-03
            5300             528     140.668E-03     159.559E-03
            2355             528     140.668E-03     159.559E-03
            2349             529     119.288E-03     137.813E-03
            5294             529     119.288E-03     137.813E-03
            2355             529     119.288E-03     137.813E-03
            5300             529     119.288E-03     137.813E-03
            5288             530     94.9997E-03     113.028E-03
            2349             530     94.9997E-03     113.028E-03
            2343             530     94.9997E-03     113.028E-03
            5294             530     94.9997E-03     113.028E-03
            5320             625     172.396E-03     179.104E-03
            5319             625     172.396E-03     179.104E-03
            5321             626     187.874E-03     187.604E-03
            5320             626     187.874E-03     187.604E-03
            5321             627     193.503E-03     197.172E-03
            5322             627     193.503E-03     197.172E-03
            5323             628     208.724E-03     205.744E-03
            5322             628     208.724E-03     205.744E-03
            5324             629     219.642E-03     213.809E-03
            5323             629     219.642E-03     213.809E-03
            5283             630     50.6894E-03     50.2508E-03
            5289             630     50.6894E-03     50.2508E-03
            4106             630     50.6894E-03     50.2508E-03
            4146             630     50.6894E-03     50.2508E-03
            4186             631     67.7253E-03     66.8812E-03
            4146             631     67.7253E-03     66.8812E-03
            5289             631     67.7253E-03     66.8812E-03
            5295             631     67.7253E-03     66.8812E-03
            4186             632     84.9002E-03     83.9289E-03
            5295             632     84.9002E-03     83.9289E-03
            4226             632     84.9002E-03     83.9289E-03
            5301             632     84.9002E-03     83.9289E-03
            4226             633     99.8152E-03     99.0537E-03
            5307             633     99.8152E-03     99.0537E-03
            5301             633     99.8152E-03     99.0537E-03
            4266             633     99.8152E-03     99.0537E-03
            5313             634     109.322E-03     110.758E-03
            4266             634     109.322E-03     110.758E-03
            4306             634     109.322E-03     110.758E-03
            5307             634     109.322E-03     110.758E-03
            5319             635     112.063E-03     117.045E-03
            4306             635     112.063E-03     117.045E-03
            5313             635     112.063E-03     117.045E-03
            4346             635     112.063E-03     117.045E-03
            4346             636     65.8511E-03     71.5605E-03
            4345             636     65.8511E-03     71.5605E-03
            4345             637     74.3568E-03     71.8625E-03
            4344             637     74.3568E-03     71.8625E-03
            4344             638     70.1062E-03     66.0237E-03
            4343             638     70.1062E-03     66.0237E-03
            4342             639     62.2264E-03     64.2822E-03
            4343             639     62.2264E-03     64.2822E-03
            4341             640     60.4584E-03     59.0821E-03
            4342             640     60.4584E-03     59.0821E-03
            4341             641     56.9154E-03     56.7970E-03
            4340             641     56.9154E-03     56.7970E-03
            4339             642     53.9907E-03     53.6193E-03
            4340             642     53.9907E-03     53.6193E-03
            4338             643     51.1117E-03     50.2526E-03
            4339             643     51.1117E-03     50.2526E-03
            4337             644     47.4410E-03     47.9512E-03
            4338             644     47.4410E-03     47.9512E-03
            4336             645     46.3161E-03     43.7424E-03
            4337             645     46.3161E-03     43.7424E-03
            4335             646     43.8457E-03     41.2669E-03
            4336             646     43.8457E-03     41.2669E-03
            4335             647     44.4884E-03     49.6937E-03
            4334             647     44.4884E-03     49.6937E-03
            4333             648     51.5495E-03     50.0054E-03
            4334             648     51.5495E-03     50.0054E-03
            4332             649     48.0010E-03     45.2308E-03
            4333             649     48.0010E-03     45.2308E-03
            4332             650     41.8242E-03     43.3780E-03
            4331             650     41.8242E-03     43.3780E-03
            4330             651     40.0332E-03     39.1167E-03
            4331             651     40.0332E-03     39.1167E-03
            4329             652     36.9803E-03     36.9368E-03
            4330             652     36.9803E-03     36.9368E-03
            4328             653     34.3855E-03     34.1357E-03
            4329             653     34.3855E-03     34.1357E-03
            4328             654     31.7565E-03     31.5094E-03
            4327             654     31.7565E-03     31.5094E-03
            4326             655     29.1395E-03     28.6354E-03
            4327             655     29.1395E-03     28.6354E-03
            4326             656     26.0905E-03     26.1959E-03
            4325             656     26.0905E-03     26.1959E-03
            4324             657     24.1265E-03     22.7800E-03
            4325             657     24.1265E-03     22.7800E-03
            4324             658     21.7314E-03     20.1473E-03
            4323             658     21.7314E-03     20.1473E-03
            4323             659     23.4520E-03     26.0954E-03
            4322             659     23.4520E-03     26.0954E-03
            4321             660     28.4698E-03     27.8425E-03
            4322             660     28.4698E-03     27.8425E-03
            4320             661     25.4917E-03     24.0120E-03
            4321             661     25.4917E-03     24.0120E-03
            4320             662     20.9505E-03     21.9468E-03
            4319             662     20.9505E-03     21.9468E-03
            4319             663     19.0246E-03     18.5204E-03
            4318             663     19.0246E-03     18.5204E-03
            4318             664     16.3346E-03     16.3747E-03
            4317             664     16.3346E-03     16.3747E-03
            4317             665     13.9609E-03     13.7973E-03
            4316             665     13.9609E-03     13.7973E-03
            4316             666     11.4386E-03     11.3527E-03
            4315             666     11.4386E-03     11.3527E-03
            4315             667     8.91899E-03     8.68463E-03
            4314             667     8.91899E-03     8.68463E-03
            4314             668     6.10145E-03     5.97589E-03
            4313             668     6.10145E-03     5.97589E-03
            4313             669     4.00001E-03     3.54452E-03
            4312             669     4.00001E-03     3.54452E-03
            4312             670     5.91100E-03     6.61233E-03
            4311             670     5.91100E-03     6.61233E-03
            4310             671     8.01191E-03     8.19103E-03
            4311             671     8.01191E-03     8.19103E-03
            4309             672     5.27258E-03     4.65243E-03
            4310             672     5.27258E-03     4.65243E-03
            4308             673     2.48651E-03     2.75934E-03
            4309             673     2.48651E-03     2.75934E-03
            4308             674     2.58621E-03     3.31853E-03
            4307             674     2.58621E-03     3.31853E-03
            6604             765     701.378E-06     696.900E-06
            6603             765     701.378E-06     696.900E-06
            6605             766     522.980E-06     493.299E-06
            6604             766     522.980E-06     493.299E-06
            6606             767     312.899E-06     343.698E-06
            6605             767     312.899E-06     343.698E-06
            6607             768     221.105E-06     200.413E-06
            6606             768     221.105E-06     200.413E-06
            6608             769     176.841E-06     234.172E-06
            6607             769     176.841E-06     234.172E-06
            6578             825     643.977E-06     638.938E-06
            6572             825     643.977E-06     638.938E-06
            6584             826     586.042E-06     580.265E-06
            6578             826     586.042E-06     580.265E-06
            6584             827     496.421E-06     488.243E-06
            6590             827     496.421E-06     488.243E-06
            6596             828     361.171E-06     360.971E-06
            6590             828     361.171E-06     360.971E-06
            6596             829     214.143E-06     225.814E-06
            6602             829     214.143E-06     225.814E-06
            6608             830     170.349E-06     228.477E-06
            6602             830     170.349E-06     228.477E-06
               2             831     628.174E-06     624.082E-06
               5             831     628.174E-06     624.082E-06
               6             831     628.174E-06     624.082E-06
               1             831     628.174E-06     624.082E-06
               3             832     636.364E-06     627.315E-06
               6             832     636.364E-06     627.315E-06
               7             832     636.364E-06     627.315E-06
               2             832     636.364E-06     627.315E-06
               8             833     632.547E-06     621.633E-06
               3             833     632.547E-06     621.633E-06
               7             833     632.547E-06     621.633E-06
               4             833     632.547E-06     621.633E-06
               5             834     575.512E-06     572.367E-06
              10             834     575.512E-06     572.367E-06
               6             834     575.512E-06     572.367E-06
               9             834     575.512E-06     572.367E-06
              10             835     587.965E-06     577.850E-06
               6             835     587.965E-06     577.850E-06
               7             835     587.965E-06     577.850E-06
              11             835     587.965E-06     577.850E-06
               8             836     583.486E-06     576.813E-06
              11             836     583.486E-06     576.813E-06
               7             836     583.486E-06     576.813E-06
              12             836     583.486E-06     576.813E-06
               9             837     491.464E-06     490.046E-06
              13             837     491.464E-06     490.046E-06
              10             837     491.464E-06     490.046E-06
              14             837     491.464E-06     490.046E-06
              11             838     510.541E-06     496.016E-06
              14             838     510.541E-06     496.016E-06
              10             838     510.541E-06     496.016E-06
              15             838     510.541E-06     496.016E-06
              16             839     510.864E-06     507.907E-06
              15             839     510.864E-06     507.907E-06
              12             839     510.864E-06     507.907E-06
              11             839     510.864E-06     507.907E-06
              13             840     377.804E-06     385.431E-06
              17             840     377.804E-06     385.431E-06
              14             840     377.804E-06     385.431E-06
              18             840     377.804E-06     385.431E-06
              15             841     410.253E-06     396.137E-06
              18             841     410.253E-06     396.137E-06
              14             841     410.253E-06     396.137E-06
              19             841     410.253E-06     396.137E-06
              19             842     415.038E-06     418.698E-06
              20             842     415.038E-06     418.698E-06
              15             842     415.038E-06     418.698E-06
              16             842     415.038E-06     418.698E-06
              17             843     241.323E-06     259.563E-06
              21             843     241.323E-06     259.563E-06
              18             843     241.323E-06     259.563E-06
              22             843     241.323E-06     259.563E-06
              19             844     302.739E-06     275.460E-06
              22             844     302.739E-06     275.460E-06
              18             844     302.739E-06     275.460E-06
              23             844     302.739E-06     275.460E-06
              23             845     316.487E-06     324.635E-06
              24             845     316.487E-06     324.635E-06
              19             845     316.487E-06     324.635E-06
              20             845     316.487E-06     324.635E-06
              25             846     163.797E-06     216.392E-06
              21             846     163.797E-06     216.392E-06
              22             846     163.797E-06     216.392E-06
              26             846     163.797E-06     216.392E-06
              27             847     267.231E-06     227.605E-06
              22             847     267.231E-06     227.605E-06
              26             847     267.231E-06     227.605E-06
              23             847     267.231E-06     227.605E-06
              23             848     346.807E-06     356.476E-06
              27             848     346.807E-06     356.476E-06
              28             848     346.807E-06     356.476E-06
              24             848     346.807E-06     356.476E-06
              30             849     8.59457E-03     8.50040E-03
              80             849     8.59457E-03     8.50040E-03
              79             849     8.59457E-03     8.50040E-03
              29             849     8.59457E-03     8.50040E-03
              30             850     8.67688E-03     8.61353E-03
              81             850     8.67688E-03     8.61353E-03
              80             850     8.67688E-03     8.61353E-03
              31             850     8.67688E-03     8.61353E-03
              32             851     8.70476E-03     8.66464E-03
              81             851     8.70476E-03     8.66464E-03
              82             851     8.70476E-03     8.66464E-03
              31             851     8.70476E-03     8.66464E-03
              83             852     8.71452E-03     8.78071E-03
              82             852     8.71452E-03     8.78071E-03
              33             852     8.71452E-03     8.78071E-03
              32             852     8.71452E-03     8.78071E-03
              33             853     8.93229E-03     8.83382E-03
              34             853     8.93229E-03     8.83382E-03
              84             853     8.93229E-03     8.83382E-03
              83             853     8.93229E-03     8.83382E-03
              34             854     8.91576E-03     8.74737E-03
              35             854     8.91576E-03     8.74737E-03
              85             854     8.91576E-03     8.74737E-03
              84             854     8.91576E-03     8.74737E-03
              35             855     9.45841E-03     9.48826E-03
              86             855     9.45841E-03     9.48826E-03
              36             855     9.45841E-03     9.48826E-03
              85             855     9.45841E-03     9.48826E-03
              36             856     10.3980E-03     10.2346E-03
              87             856     10.3980E-03     10.2346E-03
              37             856     10.3980E-03     10.2346E-03
              86             856     10.3980E-03     10.2346E-03
              37             857     10.5732E-03     10.3602E-03
              88             857     10.5732E-03     10.3602E-03
              38             857     10.5732E-03     10.3602E-03
              87             857     10.5732E-03     10.3602E-03
              38             858     10.6847E-03     10.5676E-03
              88             858     10.6847E-03     10.5676E-03
              39             858     10.6847E-03     10.5676E-03
              89             858     10.6847E-03     10.5676E-03
              90             859     10.8316E-03     10.7171E-03
              39             859     10.8316E-03     10.7171E-03
              89             859     10.8316E-03     10.7171E-03
              40             859     10.8316E-03     10.7171E-03
              90             860     10.9562E-03     10.9457E-03
              41             860     10.9562E-03     10.9457E-03
              40             860     10.9562E-03     10.9457E-03
              91             860     10.9562E-03     10.9457E-03
              92             861     11.1310E-03     11.1549E-03
              41             861     11.1310E-03     11.1549E-03
              91             861     11.1310E-03     11.1549E-03
              42             861     11.1310E-03     11.1549E-03
              42             862     11.2790E-03     11.2749E-03
              93             862     11.2790E-03     11.2749E-03
              92             862     11.2790E-03     11.2749E-03
              43             862     11.2790E-03     11.2749E-03
              43             863     11.2376E-03     11.6031E-03
              44             863     11.2376E-03     11.6031E-03
              94             863     11.2376E-03     11.6031E-03
              93             863     11.2376E-03     11.6031E-03
              95             864     11.7970E-03     11.6180E-03
              94             864     11.7970E-03     11.6180E-03
              44             864     11.7970E-03     11.6180E-03
              45             864     11.7970E-03     11.6180E-03
              96             865     11.7207E-03     11.3080E-03
              46             865     11.7207E-03     11.3080E-03
              45             865     11.7207E-03     11.3080E-03
              95             865     11.7207E-03     11.3080E-03
              47             866     11.7558E-03     12.0608E-03
              46             866     11.7558E-03     12.0608E-03
              97             866     11.7558E-03     12.0608E-03
              96             866     11.7558E-03     12.0608E-03
              97             867     12.8671E-03     12.6644E-03
              47             867     12.8671E-03     12.6644E-03
              98             867     12.8671E-03     12.6644E-03
              48             867     12.8671E-03     12.6644E-03
              48             868     13.2661E-03     12.8270E-03
              98             868     13.2661E-03     12.8270E-03
              99             868     13.2661E-03     12.8270E-03
              49             868     13.2661E-03     12.8270E-03
              50             869     13.4553E-03     13.3000E-03
             100             869     13.4553E-03     13.3000E-03
              99             869     13.4553E-03     13.3000E-03
              49             869     13.4553E-03     13.3000E-03
             100             870     13.7327E-03     13.5512E-03
              50             870     13.7327E-03     13.5512E-03
             101             870     13.7327E-03     13.5512E-03
              51             870     13.7327E-03     13.5512E-03
             101             871     13.9429E-03     13.9386E-03
             102             871     13.9429E-03     13.9386E-03
              51             871     13.9429E-03     13.9386E-03
              52             871     13.9429E-03     13.9386E-03
              52             872     14.1986E-03     14.2698E-03
             102             872     14.1986E-03     14.2698E-03
             103             872     14.1986E-03     14.2698E-03
              53             872     14.1986E-03     14.2698E-03
             104             873     14.3816E-03     14.4125E-03
              53             873     14.3816E-03     14.4125E-03
              54             873     14.3816E-03     14.4125E-03
             103             873     14.3816E-03     14.4125E-03
              55             874     14.2296E-03     14.8979E-03
             105             874     14.2296E-03     14.8979E-03
             104             874     14.2296E-03     14.8979E-03
              54             874     14.2296E-03     14.8979E-03
              56             875     15.0889E-03     14.8121E-03
             105             875     15.0889E-03     14.8121E-03
              55             875     15.0889E-03     14.8121E-03
             106             875     15.0889E-03     14.8121E-03
              57             876     14.8722E-03     14.2377E-03
             107             876     14.8722E-03     14.2377E-03
             106             876     14.8722E-03     14.2377E-03
              56             876     14.8722E-03     14.2377E-03
             107             877     14.4297E-03     15.1290E-03
             108             877     14.4297E-03     15.1290E-03
              57             877     14.4297E-03     15.1290E-03
              58             877     14.4297E-03     15.1290E-03
              59             878     15.9424E-03     15.6614E-03
             109             878     15.9424E-03     15.6614E-03
             108             878     15.9424E-03     15.6614E-03
              58             878     15.9424E-03     15.6614E-03
              60             879     16.6151E-03     15.8950E-03
              59             879     16.6151E-03     15.8950E-03
             110             879     16.6151E-03     15.8950E-03
             109             879     16.6151E-03     15.8950E-03
             111             880     16.8251E-03     16.6771E-03
             110             880     16.8251E-03     16.6771E-03
              60             880     16.8251E-03     16.6771E-03
              61             880     16.8251E-03     16.6771E-03
              61             881     17.2547E-03     17.0026E-03
             112             881     17.2547E-03     17.0026E-03
             111             881     17.2547E-03     17.0026E-03
              62             881     17.2547E-03     17.0026E-03
              62             882     17.5409E-03     17.5508E-03
             112             882     17.5409E-03     17.5508E-03
             113             882     17.5409E-03     17.5508E-03
              63             882     17.5409E-03     17.5508E-03
              63             883     17.8592E-03     17.9899E-03
             113             883     17.8592E-03     17.9899E-03
              64             883     17.8592E-03     17.9899E-03
             114             883     17.8592E-03     17.9899E-03
              64             884     18.0565E-03     18.1247E-03
              65             884     18.0565E-03     18.1247E-03
             114             884     18.0565E-03     18.1247E-03
             115             884     18.0565E-03     18.1247E-03
              66             885     17.7573E-03     18.7574E-03
             116             885     17.7573E-03     18.7574E-03
             115             885     17.7573E-03     18.7574E-03
              65             885     17.7573E-03     18.7574E-03
             117             886     18.9259E-03     18.5197E-03
              66             886     18.9259E-03     18.5197E-03
              67             886     18.9259E-03     18.5197E-03
             116             886     18.9259E-03     18.5197E-03
              67             887     18.5176E-03     17.6439E-03
             117             887     18.5176E-03     17.6439E-03
             118             887     18.5176E-03     17.6439E-03
              68             887     18.5176E-03     17.6439E-03
             118             888     17.5794E-03     18.7738E-03
              68             888     17.5794E-03     18.7738E-03
              69             888     17.5794E-03     18.7738E-03
             119             888     17.5794E-03     18.7738E-03
             119             889     19.6138E-03     19.3107E-03
             120             889     19.6138E-03     19.3107E-03
              69             889     19.6138E-03     19.3107E-03
              70             889     19.6138E-03     19.3107E-03
             120             890     20.6007E-03     19.6624E-03
              70             890     20.6007E-03     19.6624E-03
             121             890     20.6007E-03     19.6624E-03
              71             890     20.6007E-03     19.6624E-03
              72             891     20.7312E-03     20.7480E-03
              71             891     20.7312E-03     20.7480E-03
             121             891     20.7312E-03     20.7480E-03
             122             891     20.7312E-03     20.7480E-03
             123             892     21.2068E-03     21.1957E-03
              73             892     21.2068E-03     21.1957E-03
              72             892     21.2068E-03     21.1957E-03
             122             892     21.2068E-03     21.1957E-03
              74             893     21.6544E-03     21.7738E-03
             123             893     21.6544E-03     21.7738E-03
              73             893     21.6544E-03     21.7738E-03
             124             893     21.6544E-03     21.7738E-03
              75             894     21.8315E-03     21.9923E-03
             125             894     21.8315E-03     21.9923E-03
             124             894     21.8315E-03     21.9923E-03
              74             894     21.8315E-03     21.9923E-03
              75             895     21.3901E-03     22.7170E-03
             126             895     21.3901E-03     22.7170E-03
             125             895     21.3901E-03     22.7170E-03
              76             895     21.3901E-03     22.7170E-03
             127             896     22.8291E-03     22.3146E-03
              76             896     22.8291E-03     22.3146E-03
             126             896     22.8291E-03     22.3146E-03
              77             896     22.8291E-03     22.3146E-03
              78             897     22.1933E-03     21.1299E-03
             127             897     22.1933E-03     21.1299E-03
             128             897     22.1933E-03     21.1299E-03
              77             897     22.1933E-03     21.1299E-03
              79             898     7.95198E-03     7.84663E-03
              80             898     7.95198E-03     7.84663E-03
             130             898     7.95198E-03     7.84663E-03
             129             898     7.95198E-03     7.84663E-03
              81             899     8.10224E-03     8.05409E-03
              80             899     8.10224E-03     8.05409E-03
             130             899     8.10224E-03     8.05409E-03
             131             899     8.10224E-03     8.05409E-03
              82             900     8.23252E-03     8.19313E-03
             131             900     8.23252E-03     8.19313E-03
             132             900     8.23252E-03     8.19313E-03
              81             900     8.23252E-03     8.19313E-03
              83             901     8.36866E-03     8.52012E-03
             132             901     8.36866E-03     8.52012E-03
             133             901     8.36866E-03     8.52012E-03
              82             901     8.36866E-03     8.52012E-03
             134             902     8.86341E-03     8.65705E-03
              83             902     8.86341E-03     8.65705E-03
             133             902     8.86341E-03     8.65705E-03
              84             902     8.86341E-03     8.65705E-03
              84             903     8.87080E-03     8.72188E-03
             134             903     8.87080E-03     8.72188E-03
              85             903     8.87080E-03     8.72188E-03
             135             903     8.87080E-03     8.72188E-03
             135             904     9.09112E-03     9.33851E-03
             136             904     9.09112E-03     9.33851E-03
              85             904     9.09112E-03     9.33851E-03
              86             904     9.09112E-03     9.33851E-03
              86             905     10.0198E-03     9.86857E-03
             137             905     10.0198E-03     9.86857E-03
             136             905     10.0198E-03     9.86857E-03
              87             905     10.0198E-03     9.86857E-03
             138             906     10.3923E-03     10.3151E-03
              88             906     10.3923E-03     10.3151E-03
             137             906     10.3923E-03     10.3151E-03
              87             906     10.3923E-03     10.3151E-03
              89             907     10.7158E-03     10.8198E-03
             139             907     10.7158E-03     10.8198E-03
              88             907     10.7158E-03     10.8198E-03
             138             907     10.7158E-03     10.8198E-03
             139             908     11.2011E-03     11.2208E-03
             140             908     11.2011E-03     11.2208E-03
              90             908     11.2011E-03     11.2208E-03
              89             908     11.2011E-03     11.2208E-03
             141             909     11.6300E-03     11.7201E-03
              90             909     11.6300E-03     11.7201E-03
             140             909     11.6300E-03     11.7201E-03
              91             909     11.6300E-03     11.7201E-03
              91             910     12.1911E-03     12.1452E-03
             142             910     12.1911E-03     12.1452E-03
             141             910     12.1911E-03     12.1452E-03
              92             910     12.1911E-03     12.1452E-03
              93             911     12.6886E-03     12.4879E-03
             143             911     12.6886E-03     12.4879E-03
              92             911     12.6886E-03     12.4879E-03
             142             911     12.6886E-03     12.4879E-03
             144             912     12.8901E-03     13.3352E-03
              93             912     12.8901E-03     13.3352E-03
              94             912     12.8901E-03     13.3352E-03
             143             912     12.8901E-03     13.3352E-03
             144             913     14.1476E-03     13.3918E-03
             145             913     14.1476E-03     13.3918E-03
              94             913     14.1476E-03     13.3918E-03
              95             913     14.1476E-03     13.3918E-03
              96             914     13.9356E-03     13.4035E-03
              95             914     13.9356E-03     13.4035E-03
             145             914     13.9356E-03     13.4035E-03
             146             914     13.9356E-03     13.4035E-03
             146             915     12.9846E-03     14.0856E-03
             147             915     12.9846E-03     14.0856E-03
              97             915     12.9846E-03     14.0856E-03
              96             915     12.9846E-03     14.0856E-03
              98             916     14.4169E-03     14.0964E-03
             148             916     14.4169E-03     14.0964E-03
             147             916     14.4169E-03     14.0964E-03
              97             916     14.4169E-03     14.0964E-03
              98             917     15.2907E-03     14.9248E-03
              99             917     15.2907E-03     14.9248E-03
             149             917     15.2907E-03     14.9248E-03
             148             917     15.2907E-03     14.9248E-03
              99             918     15.6174E-03     15.9691E-03
             150             918     15.6174E-03     15.9691E-03
             100             918     15.6174E-03     15.9691E-03
             149             918     15.6174E-03     15.9691E-03
             101             919     16.4843E-03     16.4471E-03
             100             919     16.4843E-03     16.4471E-03
             151             919     16.4843E-03     16.4471E-03
             150             919     16.4843E-03     16.4471E-03
             151             920     17.1295E-03     17.2171E-03
             152             920     17.1295E-03     17.2171E-03
             102             920     17.1295E-03     17.2171E-03
             101             920     17.1295E-03     17.2171E-03
             153             921     17.9265E-03     17.8273E-03
             102             921     17.9265E-03     17.8273E-03
             103             921     17.9265E-03     17.8273E-03
             152             921     17.9265E-03     17.8273E-03
             153             922     18.6042E-03     18.2576E-03
             154             922     18.6042E-03     18.2576E-03
             103             922     18.6042E-03     18.2576E-03
             104             922     18.6042E-03     18.2576E-03
             105             923     18.7206E-03     19.5391E-03
             155             923     18.7206E-03     19.5391E-03
             104             923     18.7206E-03     19.5391E-03
             154             923     18.7206E-03     19.5391E-03
             155             924     20.6166E-03     19.3681E-03
             106             924     20.6166E-03     19.3681E-03
             105             924     20.6166E-03     19.3681E-03
             156             924     20.6166E-03     19.3681E-03
             106             925     20.0507E-03     19.1792E-03
             157             925     20.0507E-03     19.1792E-03
             107             925     20.0507E-03     19.1792E-03
             156             925     20.0507E-03     19.1792E-03
             107             926     17.9625E-03     20.1033E-03
             108             926     17.9625E-03     20.1033E-03
             157             926     17.9625E-03     20.1033E-03
             158             926     17.9625E-03     20.1033E-03
             159             927     20.2652E-03     19.7011E-03
             158             927     20.2652E-03     19.7011E-03
             108             927     20.2652E-03     19.7011E-03
             109             927     20.2652E-03     19.7011E-03
             110             928     21.7007E-03     20.9224E-03
             160             928     21.7007E-03     20.9224E-03
             109             928     21.7007E-03     20.9224E-03
             159             928     21.7007E-03     20.9224E-03
             111             929     21.8550E-03     22.5267E-03
             160             929     21.8550E-03     22.5267E-03
             161             929     21.8550E-03     22.5267E-03
             110             929     21.8550E-03     22.5267E-03
             162             930     23.0967E-03     22.9748E-03
             111             930     23.0967E-03     22.9748E-03
             161             930     23.0967E-03     22.9748E-03
             112             930     23.0967E-03     22.9748E-03
             163             931     23.9077E-03     23.9867E-03
             112             931     23.9077E-03     23.9867E-03
             162             931     23.9077E-03     23.9867E-03
             113             931     23.9077E-03     23.9867E-03
             114             932     24.8848E-03     24.7392E-03
             113             932     24.8848E-03     24.7392E-03
             163             932     24.8848E-03     24.7392E-03
             164             932     24.8848E-03     24.7392E-03
             114             933     25.6988E-03     25.2039E-03
             115             933     25.6988E-03     25.2039E-03
             165             933     25.6988E-03     25.2039E-03
             164             933     25.6988E-03     25.2039E-03
             116             934     25.6662E-03     26.9028E-03
             165             934     25.6662E-03     26.9028E-03
             115             934     25.6662E-03     26.9028E-03
             166             934     25.6662E-03     26.9028E-03
             167             935     28.2120E-03     26.4167E-03
             116             935     28.2120E-03     26.4167E-03
             166             935     28.2120E-03     26.4167E-03
             117             935     28.2120E-03     26.4167E-03
             167             936     27.2091E-03     25.9712E-03
             118             936     27.2091E-03     25.9712E-03
             117             936     27.2091E-03     25.9712E-03
             168             936     27.2091E-03     25.9712E-03
             118             937     23.9159E-03     27.2320E-03
             119             937     23.9159E-03     27.2320E-03
             169             937     23.9159E-03     27.2320E-03
             168             937     23.9159E-03     27.2320E-03
             170             938     27.2976E-03     26.4563E-03
             120             938     27.2976E-03     26.4563E-03
             119             938     27.2976E-03     26.4563E-03
             169             938     27.2976E-03     26.4563E-03
             121             939     29.3909E-03     28.1364E-03
             170             939     29.3909E-03     28.1364E-03
             171             939     29.3909E-03     28.1364E-03
             120             939     29.3909E-03     28.1364E-03
             171             940     29.3013E-03     30.2984E-03
             172             940     29.3013E-03     30.2984E-03
             122             940     29.3013E-03     30.2984E-03
             121             940     29.3013E-03     30.2984E-03
             123             941     30.7670E-03     30.8461E-03
             172             941     30.7670E-03     30.8461E-03
             173             941     30.7670E-03     30.8461E-03
             122             941     30.7670E-03     30.8461E-03
             124             942     32.0757E-03     31.8967E-03
             173             942     32.0757E-03     31.8967E-03
             174             942     32.0757E-03     31.8967E-03
             123             942     32.0757E-03     31.8967E-03
             174             943     32.8399E-03     32.5159E-03
             125             943     32.8399E-03     32.5159E-03
             175             943     32.8399E-03     32.5159E-03
             124             943     32.8399E-03     32.5159E-03
             125             944     32.7223E-03     34.4603E-03
             176             944     32.7223E-03     34.4603E-03
             126             944     32.7223E-03     34.4603E-03
             175             944     32.7223E-03     34.4603E-03
             176             945     35.8340E-03     33.6167E-03
             126             945     35.8340E-03     33.6167E-03
             127             945     35.8340E-03     33.6167E-03
             177             945     35.8340E-03     33.6167E-03
             127             946     34.3585E-03     32.8247E-03
             128             946     34.3585E-03     32.8247E-03
             177             946     34.3585E-03     32.8247E-03
             178             946     34.3585E-03     32.8247E-03
             129             947     6.85995E-03     6.79991E-03
             180             947     6.85995E-03     6.79991E-03
             130             947     6.85995E-03     6.79991E-03
             179             947     6.85995E-03     6.79991E-03
             131             948     7.09273E-03     7.14600E-03
             181             948     7.09273E-03     7.14600E-03
             130             948     7.09273E-03     7.14600E-03
             180             948     7.09273E-03     7.14600E-03
             132             949     7.40565E-03     7.43893E-03
             182             949     7.40565E-03     7.43893E-03
             131             949     7.40565E-03     7.43893E-03
             181             949     7.40565E-03     7.43893E-03
             182             950     7.72276E-03     7.97492E-03
             133             950     7.72276E-03     7.97492E-03
             183             950     7.72276E-03     7.97492E-03
             132             950     7.72276E-03     7.97492E-03
             133             951     8.65839E-03     8.16499E-03
             183             951     8.65839E-03     8.16499E-03
             184             951     8.65839E-03     8.16499E-03
             134             951     8.65839E-03     8.16499E-03
             184             952     8.75722E-03     8.54185E-03
             185             952     8.75722E-03     8.54185E-03
             135             952     8.75722E-03     8.54185E-03
             134             952     8.75722E-03     8.54185E-03
             136             953     8.56653E-03     9.19649E-03
             135             953     8.56653E-03     9.19649E-03
             186             953     8.56653E-03     9.19649E-03
             185             953     8.56653E-03     9.19649E-03
             136             954     9.55854E-03     9.52485E-03
             137             954     9.55854E-03     9.52485E-03
             187             954     9.55854E-03     9.52485E-03
             186             954     9.55854E-03     9.52485E-03
             138             955     10.1792E-03     10.3167E-03
             188             955     10.1792E-03     10.3167E-03
             187             955     10.1792E-03     10.3167E-03
             137             955     10.1792E-03     10.3167E-03
             189             956     10.7334E-03     11.0773E-03
             139             956     10.7334E-03     11.0773E-03
             138             956     10.7334E-03     11.0773E-03
             188             956     10.7334E-03     11.0773E-03
             140             957     11.5491E-03     11.6015E-03
             190             957     11.5491E-03     11.6015E-03
             139             957     11.5491E-03     11.6015E-03
             189             957     11.5491E-03     11.6015E-03
             140             958     12.2687E-03     12.3524E-03
             190             958     12.2687E-03     12.3524E-03
             141             958     12.2687E-03     12.3524E-03
             191             958     12.2687E-03     12.3524E-03
             142             959     13.1837E-03     13.0495E-03
             141             959     13.1837E-03     13.0495E-03
             192             959     13.1837E-03     13.0495E-03
             191             959     13.1837E-03     13.0495E-03
             143             960     14.0446E-03     13.6965E-03
             193             960     14.0446E-03     13.6965E-03
             192             960     14.0446E-03     13.6965E-03
             142             960     14.0446E-03     13.6965E-03
             144             961     14.5622E-03     15.1739E-03
             143             961     14.5622E-03     15.1739E-03
             194             961     14.5622E-03     15.1739E-03
             193             961     14.5622E-03     15.1739E-03
             145             962     16.8252E-03     15.4144E-03
             194             962     16.8252E-03     15.4144E-03
             195             962     16.8252E-03     15.4144E-03
             144             962     16.8252E-03     15.4144E-03
             146             963     16.6333E-03     16.0486E-03
             196             963     16.6333E-03     16.0486E-03
             145             963     16.6333E-03     16.0486E-03
             195             963     16.6333E-03     16.0486E-03
             196             964     14.6657E-03     17.0348E-03
             146             964     14.6657E-03     17.0348E-03
             147             964     14.6657E-03     17.0348E-03
             197             964     14.6657E-03     17.0348E-03
             197             965     16.6937E-03     16.4303E-03
             198             965     16.6937E-03     16.4303E-03
             148             965     16.6937E-03     16.4303E-03
             147             965     16.6937E-03     16.4303E-03
             199             966     18.0164E-03     17.6782E-03
             148             966     18.0164E-03     17.6782E-03
             198             966     18.0164E-03     17.6782E-03
             149             966     18.0164E-03     17.6782E-03
             199             967     18.2241E-03     19.0118E-03
             149             967     18.2241E-03     19.0118E-03
             150             967     18.2241E-03     19.0118E-03
             200             967     18.2241E-03     19.0118E-03
             150             968     19.4616E-03     19.3801E-03
             201             968     19.4616E-03     19.3801E-03
             151             968     19.4616E-03     19.3801E-03
             200             968     19.4616E-03     19.3801E-03
             201             969     20.3706E-03     20.4194E-03
             151             969     20.3706E-03     20.4194E-03
             202             969     20.3706E-03     20.4194E-03
             152             969     20.3706E-03     20.4194E-03
             202             970     21.5665E-03     21.3311E-03
             153             970     21.5665E-03     21.3311E-03
             152             970     21.5665E-03     21.3311E-03
             203             970     21.5665E-03     21.3311E-03
             203             971     22.7307E-03     22.1169E-03
             154             971     22.7307E-03     22.1169E-03
             153             971     22.7307E-03     22.1169E-03
             204             971     22.7307E-03     22.1169E-03
             155             972     23.2602E-03     24.3415E-03
             205             972     23.2602E-03     24.3415E-03
             204             972     23.2602E-03     24.3415E-03
             154             972     23.2602E-03     24.3415E-03
             156             973     26.6592E-03     24.3964E-03
             205             973     26.6592E-03     24.3964E-03
             206             973     26.6592E-03     24.3964E-03
             155             973     26.6592E-03     24.3964E-03
             207             974     26.0093E-03     25.0508E-03
             157             974     26.0093E-03     25.0508E-03
             156             974     26.0093E-03     25.0508E-03
             206             974     26.0093E-03     25.0508E-03
             208             975     22.3615E-03     26.6399E-03
             157             975     22.3615E-03     26.6399E-03
             158             975     22.3615E-03     26.6399E-03
             207             975     22.3615E-03     26.6399E-03
             209             976     25.8457E-03     25.2921E-03
             159             976     25.8457E-03     25.2921E-03
             158             976     25.8457E-03     25.2921E-03
             208             976     25.8457E-03     25.2921E-03
             209             977     27.8801E-03     26.9023E-03
             210             977     27.8801E-03     26.9023E-03
             160             977     27.8801E-03     26.9023E-03
             159             977     27.8801E-03     26.9023E-03
             160             978     27.4792E-03     28.7781E-03
             211             978     27.4792E-03     28.7781E-03
             161             978     27.4792E-03     28.7781E-03
             210             978     27.4792E-03     28.7781E-03
             211             979     29.0871E-03     28.8280E-03
             212             979     29.0871E-03     28.8280E-03
             161             979     29.0871E-03     28.8280E-03
             162             979     29.0871E-03     28.8280E-03
             163             980     30.1046E-03     30.1020E-03
             213             980     30.1046E-03     30.1020E-03
             212             980     30.1046E-03     30.1020E-03
             162             980     30.1046E-03     30.1020E-03
             163             981     31.5114E-03     31.1755E-03
             164             981     31.5114E-03     31.1755E-03
             213             981     31.5114E-03     31.1755E-03
             214             981     31.5114E-03     31.1755E-03
             164             982     32.9350E-03     32.0482E-03
             214             982     32.9350E-03     32.0482E-03
             165             982     32.9350E-03     32.0482E-03
             215             982     32.9350E-03     32.0482E-03
             166             983     33.4141E-03     35.0338E-03
             165             983     33.4141E-03     35.0338E-03
             215             983     33.4141E-03     35.0338E-03
             216             983     33.4141E-03     35.0338E-03
             216             984     38.0071E-03     34.8254E-03
             217             984     38.0071E-03     34.8254E-03
             166             984     38.0071E-03     34.8254E-03
             167             984     38.0071E-03     34.8254E-03
             167             985     36.8127E-03     35.4551E-03
             168             985     36.8127E-03     35.4551E-03
             217             985     36.8127E-03     35.4551E-03
             218             985     36.8127E-03     35.4551E-03
             168             986     31.3015E-03     37.6478E-03
             169             986     31.3015E-03     37.6478E-03
             219             986     31.3015E-03     37.6478E-03
             218             986     31.3015E-03     37.6478E-03
             220             987     36.4211E-03     35.5111E-03
             169             987     36.4211E-03     35.5111E-03
             170             987     36.4211E-03     35.5111E-03
             219             987     36.4211E-03     35.5111E-03
             171             988     39.3262E-03     37.5200E-03
             220             988     39.3262E-03     37.5200E-03
             221             988     39.3262E-03     37.5200E-03
             170             988     39.3262E-03     37.5200E-03
             172             989     38.2651E-03     39.9437E-03
             221             989     38.2651E-03     39.9437E-03
             171             989     38.2651E-03     39.9437E-03
             222             989     38.2651E-03     39.9437E-03
             222             990     40.1351E-03     39.9510E-03
             173             990     40.1351E-03     39.9510E-03
             223             990     40.1351E-03     39.9510E-03
             172             990     40.1351E-03     39.9510E-03
             174             991     41.8751E-03     41.1944E-03
             224             991     41.8751E-03     41.1944E-03
             223             991     41.8751E-03     41.1944E-03
             173             991     41.8751E-03     41.1944E-03
             175             992     43.1181E-03     42.2284E-03
             225             992     43.1181E-03     42.2284E-03
             174             992     43.1181E-03     42.2284E-03
             224             992     43.1181E-03     42.2284E-03
             175             993     43.5789E-03     45.6426E-03
             176             993     43.5789E-03     45.6426E-03
             226             993     43.5789E-03     45.6426E-03
             225             993     43.5789E-03     45.6426E-03
             176             994     49.2205E-03     45.1257E-03
             226             994     49.2205E-03     45.1257E-03
             227             994     49.2205E-03     45.1257E-03
             177             994     49.2205E-03     45.1257E-03
             177             995     47.4042E-03     45.6459E-03
             227             995     47.4042E-03     45.6459E-03
             178             995     47.4042E-03     45.6459E-03
             228             995     47.4042E-03     45.6459E-03
             180             996     5.35175E-03     5.44998E-03
             179             996     5.35175E-03     5.44998E-03
             229             996     5.35175E-03     5.44998E-03
             230             996     5.35175E-03     5.44998E-03
             181             997     5.77499E-03     5.93857E-03
             230             997     5.77499E-03     5.93857E-03
             180             997     5.77499E-03     5.93857E-03
             231             997     5.77499E-03     5.93857E-03
             182             998     6.33902E-03     6.32772E-03
             231             998     6.33902E-03     6.32772E-03
             232             998     6.33902E-03     6.32772E-03
             181             998     6.33902E-03     6.32772E-03
             182             999     6.83227E-03     7.21549E-03
             232             999     6.83227E-03     7.21549E-03
             233             999     6.83227E-03     7.21549E-03
             183             999     6.83227E-03     7.21549E-03
             184            1000     8.26409E-03     7.48863E-03
             233            1000     8.26409E-03     7.48863E-03
             234            1000     8.26409E-03     7.48863E-03
             183            1000     8.26409E-03     7.48863E-03
             185            1001     8.48489E-03     8.29987E-03
             234            1001     8.48489E-03     8.29987E-03
             184            1001     8.48489E-03     8.29987E-03
             235            1001     8.48489E-03     8.29987E-03
             236            1002     7.99701E-03     9.36809E-03
             186            1002     7.99701E-03     9.36809E-03
             235            1002     7.99701E-03     9.36809E-03
             185            1002     7.99701E-03     9.36809E-03
             237            1003     9.30358E-03     9.42938E-03
             187            1003     9.30358E-03     9.42938E-03
             186            1003     9.30358E-03     9.42938E-03
             236            1003     9.30358E-03     9.42938E-03
             187            1004     10.1073E-03     10.2617E-03
             237            1004     10.1073E-03     10.2617E-03
             238            1004     10.1073E-03     10.2617E-03
             188            1004     10.1073E-03     10.2617E-03
             239            1005     10.6376E-03     11.0791E-03
             188            1005     10.6376E-03     11.0791E-03
             189            1005     10.6376E-03     11.0791E-03
             238            1005     10.6376E-03     11.0791E-03
             189            1006     11.7041E-03     11.6980E-03
             190            1006     11.7041E-03     11.6980E-03
             239            1006     11.7041E-03     11.6980E-03
             240            1006     11.7041E-03     11.6980E-03
             240            1007     12.6240E-03     12.8510E-03
             190            1007     12.6240E-03     12.8510E-03
             241            1007     12.6240E-03     12.8510E-03
             191            1007     12.6240E-03     12.8510E-03
             192            1008     13.9209E-03     13.9376E-03
             242            1008     13.9209E-03     13.9376E-03
             191            1008     13.9209E-03     13.9376E-03
             241            1008     13.9209E-03     13.9376E-03
             242            1009     15.1513E-03     14.9759E-03
             192            1009     15.1513E-03     14.9759E-03
             193            1009     15.1513E-03     14.9759E-03
             243            1009     15.1513E-03     14.9759E-03
             194            1010     15.9224E-03     17.1578E-03
             244            1010     15.9224E-03     17.1578E-03
             193            1010     15.9224E-03     17.1578E-03
             243            1010     15.9224E-03     17.1578E-03
             195            1011     19.2193E-03     17.3934E-03
             244            1011     19.2193E-03     17.3934E-03
             194            1011     19.2193E-03     17.3934E-03
             245            1011     19.2193E-03     17.3934E-03
             195            1012     19.2021E-03     18.7806E-03
             196            1012     19.2021E-03     18.7806E-03
             246            1012     19.2021E-03     18.7806E-03
             245            1012     19.2021E-03     18.7806E-03
             246            1013     16.5109E-03     20.7262E-03
             197            1013     16.5109E-03     20.7262E-03
             247            1013     16.5109E-03     20.7262E-03
             196            1013     16.5109E-03     20.7262E-03
             198            1014     19.3286E-03     19.2687E-03
             197            1014     19.3286E-03     19.2687E-03
             248            1014     19.3286E-03     19.2687E-03
             247            1014     19.3286E-03     19.2687E-03
             249            1015     20.7741E-03     20.1775E-03
             198            1015     20.7741E-03     20.1775E-03
             199            1015     20.7741E-03     20.1775E-03
             248            1015     20.7741E-03     20.1775E-03
             199            1016     20.3891E-03     21.5347E-03
             250            1016     20.3891E-03     21.5347E-03
             249            1016     20.3891E-03     21.5347E-03
             200            1016     20.3891E-03     21.5347E-03
             200            1017     21.8401E-03     21.7877E-03
             251            1017     21.8401E-03     21.7877E-03
             201            1017     21.8401E-03     21.7877E-03
             250            1017     21.8401E-03     21.7877E-03
             252            1018     22.8691E-03     23.2976E-03
             202            1018     22.8691E-03     23.2976E-03
             251            1018     22.8691E-03     23.2976E-03
             201            1018     22.8691E-03     23.2976E-03
             253            1019     24.4540E-03     24.6235E-03
             202            1019     24.4540E-03     24.6235E-03
             203            1019     24.4540E-03     24.6235E-03
             252            1019     24.4540E-03     24.6235E-03
             204            1020     26.0615E-03     25.7917E-03
             203            1020     26.0615E-03     25.7917E-03
             254            1020     26.0615E-03     25.7917E-03
             253            1020     26.0615E-03     25.7917E-03
             254            1021     26.8794E-03     28.9506E-03
             255            1021     26.8794E-03     28.9506E-03
             205            1021     26.8794E-03     28.9506E-03
             204            1021     26.8794E-03     28.9506E-03
             205            1022     31.8734E-03     28.9584E-03
             255            1022     31.8734E-03     28.9584E-03
             256            1022     31.8734E-03     28.9584E-03
             206            1022     31.8734E-03     28.9584E-03
             257            1023     31.4822E-03     30.7957E-03
             256            1023     31.4822E-03     30.7957E-03
             207            1023     31.4822E-03     30.7957E-03
             206            1023     31.4822E-03     30.7957E-03
             208            1024     26.7165E-03     34.0439E-03
             257            1024     26.7165E-03     34.0439E-03
             207            1024     26.7165E-03     34.0439E-03
             258            1024     26.7165E-03     34.0439E-03
             208            1025     31.5211E-03     31.2613E-03
             209            1025     31.5211E-03     31.2613E-03
             258            1025     31.5211E-03     31.2613E-03
             259            1025     31.5211E-03     31.2613E-03
             210            1026     33.5972E-03     32.1103E-03
             259            1026     33.5972E-03     32.1103E-03
             209            1026     33.5972E-03     32.1103E-03
             260            1026     33.5972E-03     32.1103E-03
             261            1027     32.0138E-03     33.9801E-03
             260            1027     32.0138E-03     33.9801E-03
             210            1027     32.0138E-03     33.9801E-03
             211            1027     32.0138E-03     33.9801E-03
             262            1028     33.8057E-03     33.6875E-03
             261            1028     33.8057E-03     33.6875E-03
             212            1028     33.8057E-03     33.6875E-03
             211            1028     33.8057E-03     33.6875E-03
             263            1029     34.8681E-03     35.5078E-03
             212            1029     34.8681E-03     35.5078E-03
             213            1029     34.8681E-03     35.5078E-03
             262            1029     34.8681E-03     35.5078E-03
             263            1030     36.6883E-03     37.0303E-03
             214            1030     36.6883E-03     37.0303E-03
             213            1030     36.6883E-03     37.0303E-03
             264            1030     36.6883E-03     37.0303E-03
             215            1031     38.6560E-03     38.2863E-03
             214            1031     38.6560E-03     38.2863E-03
             265            1031     38.6560E-03     38.2863E-03
             264            1031     38.6560E-03     38.2863E-03
             215            1032     39.4745E-03     42.4882E-03
             266            1032     39.4745E-03     42.4882E-03
             265            1032     39.4745E-03     42.4882E-03
             216            1032     39.4745E-03     42.4882E-03
             216            1033     46.3108E-03     42.2100E-03
             267            1033     46.3108E-03     42.2100E-03
             266            1033     46.3108E-03     42.2100E-03
             217            1033     46.3108E-03     42.2100E-03
             217            1034     45.4732E-03     44.5124E-03
             218            1034     45.4732E-03     44.5124E-03
             267            1034     45.4732E-03     44.5124E-03
             268            1034     45.4732E-03     44.5124E-03
             218            1035     38.3276E-03     49.0308E-03
             219            1035     38.3276E-03     49.0308E-03
             269            1035     38.3276E-03     49.0308E-03
             268            1035     38.3276E-03     49.0308E-03
             219            1036     45.2123E-03     44.7103E-03
             220            1036     45.2123E-03     44.7103E-03
             270            1036     45.2123E-03     44.7103E-03
             269            1036     45.2123E-03     44.7103E-03
             220            1037     48.1312E-03     45.5318E-03
             221            1037     48.1312E-03     45.5318E-03
             271            1037     48.1312E-03     45.5318E-03
             270            1037     48.1312E-03     45.5318E-03
             272            1038     45.2949E-03     47.8706E-03
             271            1038     45.2949E-03     47.8706E-03
             222            1038     45.2949E-03     47.8706E-03
             221            1038     45.2949E-03     47.8706E-03
             222            1039     47.2387E-03     47.4666E-03
             223            1039     47.2387E-03     47.4666E-03
             273            1039     47.2387E-03     47.4666E-03
             272            1039     47.2387E-03     47.4666E-03
             223            1040     49.3207E-03     49.2556E-03
             273            1040     49.3207E-03     49.2556E-03
             274            1040     49.3207E-03     49.2556E-03
             224            1040     49.3207E-03     49.2556E-03
             274            1041     50.9569E-03     50.7016E-03
             225            1041     50.9569E-03     50.7016E-03
             224            1041     50.9569E-03     50.7016E-03
             275            1041     50.9569E-03     50.7016E-03
             276            1042     51.8870E-03     55.5614E-03
             226            1042     51.8870E-03     55.5614E-03
             225            1042     51.8870E-03     55.5614E-03
             275            1042     51.8870E-03     55.5614E-03
             227            1043     60.4224E-03     55.0574E-03
             277            1043     60.4224E-03     55.0574E-03
             226            1043     60.4224E-03     55.0574E-03
             276            1043     60.4224E-03     55.0574E-03
             227            1044     59.0603E-03     57.7991E-03
             228            1044     59.0603E-03     57.7991E-03
             278            1044     59.0603E-03     57.7991E-03
             277            1044     59.0603E-03     57.7991E-03
             230            1045     3.71278E-03     3.83398E-03
             229            1045     3.71278E-03     3.83398E-03
             280            1045     3.71278E-03     3.83398E-03
             279            1045     3.71278E-03     3.83398E-03
             281            1046     4.17660E-03     4.28816E-03
             230            1046     4.17660E-03     4.28816E-03
             280            1046     4.17660E-03     4.28816E-03
             231            1046     4.17660E-03     4.28816E-03
             282            1047     5.06044E-03     4.88613E-03
             232            1047     5.06044E-03     4.88613E-03
             231            1047     5.06044E-03     4.88613E-03
             281            1047     5.06044E-03     4.88613E-03
             282            1048     5.86650E-03     6.49384E-03
             232            1048     5.86650E-03     6.49384E-03
             233            1048     5.86650E-03     6.49384E-03
             283            1048     5.86650E-03     6.49384E-03
             283            1049     8.01867E-03     7.24900E-03
             284            1049     8.01867E-03     7.24900E-03
             233            1049     8.01867E-03     7.24900E-03
             234            1049     8.01867E-03     7.24900E-03
             284            1050     8.45503E-03     8.46353E-03
             234            1050     8.45503E-03     8.46353E-03
             235            1050     8.45503E-03     8.46353E-03
             285            1050     8.45503E-03     8.46353E-03
             285            1051     7.68354E-03     9.63749E-03
             286            1051     7.68354E-03     9.63749E-03
             235            1051     7.68354E-03     9.63749E-03
             236            1051     7.68354E-03     9.63749E-03
             286            1052     9.13776E-03     9.15976E-03
             236            1052     9.13776E-03     9.15976E-03
             287            1052     9.13776E-03     9.15976E-03
             237            1052     9.13776E-03     9.15976E-03
             288            1053     9.78008E-03     9.82200E-03
             287            1053     9.78008E-03     9.82200E-03
             238            1053     9.78008E-03     9.82200E-03
             237            1053     9.78008E-03     9.82200E-03
             239            1054     10.2824E-03     10.8451E-03
             238            1054     10.2824E-03     10.8451E-03
             288            1054     10.2824E-03     10.8451E-03
             289            1054     10.2824E-03     10.8451E-03
             290            1055     11.7092E-03     11.8703E-03
             239            1055     11.7092E-03     11.8703E-03
             240            1055     11.7092E-03     11.8703E-03
             289            1055     11.7092E-03     11.8703E-03
             291            1056     12.9041E-03     13.4912E-03
             290            1056     12.9041E-03     13.4912E-03
             241            1056     12.9041E-03     13.4912E-03
             240            1056     12.9041E-03     13.4912E-03
             242            1057     14.5802E-03     15.0174E-03
             291            1057     14.5802E-03     15.0174E-03
             292            1057     14.5802E-03     15.0174E-03
             241            1057     14.5802E-03     15.0174E-03
             242            1058     16.2682E-03     16.3765E-03
             292            1058     16.2682E-03     16.3765E-03
             243            1058     16.2682E-03     16.3765E-03
             293            1058     16.2682E-03     16.3765E-03
             243            1059     17.1789E-03     19.1702E-03
             244            1059     17.1789E-03     19.1702E-03
             293            1059     17.1789E-03     19.1702E-03
             294            1059     17.1789E-03     19.1702E-03
             294            1060     21.3153E-03     19.6965E-03
             295            1060     21.3153E-03     19.6965E-03
             244            1060     21.3153E-03     19.6965E-03
             245            1060     21.3153E-03     19.6965E-03
             245            1061     21.5216E-03     21.4233E-03
             295            1061     21.5216E-03     21.4233E-03
             246            1061     21.5216E-03     21.4233E-03
             296            1061     21.5216E-03     21.4233E-03
             247            1062     18.2723E-03     23.6486E-03
             296            1062     18.2723E-03     23.6486E-03
             246            1062     18.2723E-03     23.6486E-03
             297            1062     18.2723E-03     23.6486E-03
             248            1063     21.3708E-03     21.3064E-03
             297            1063     21.3708E-03     21.3064E-03
             247            1063     21.3708E-03     21.3064E-03
             298            1063     21.3708E-03     21.3064E-03
             298            1064     22.3975E-03     21.7931E-03
             248            1064     22.3975E-03     21.7931E-03
             249            1064     22.3975E-03     21.7931E-03
             299            1064     22.3975E-03     21.7931E-03
             249            1065     21.6671E-03     23.3808E-03
             299            1065     21.6671E-03     23.3808E-03
             250            1065     21.6671E-03     23.3808E-03
             300            1065     21.6671E-03     23.3808E-03
             301            1066     23.6322E-03     23.9999E-03
             300            1066     23.6322E-03     23.9999E-03
             250            1066     23.6322E-03     23.9999E-03
             251            1066     23.6322E-03     23.9999E-03
             301            1067     24.8844E-03     26.0543E-03
             302            1067     24.8844E-03     26.0543E-03
             251            1067     24.8844E-03     26.0543E-03
             252            1067     24.8844E-03     26.0543E-03
             253            1068     26.8491E-03     27.8395E-03
             302            1068     26.8491E-03     27.8395E-03
             252            1068     26.8491E-03     27.8395E-03
             303            1068     26.8491E-03     27.8395E-03
             253            1069     28.9796E-03     29.2770E-03
             254            1069     28.9796E-03     29.2770E-03
             304            1069     28.9796E-03     29.2770E-03
             303            1069     28.9796E-03     29.2770E-03
             305            1070     29.7875E-03     33.1432E-03
             255            1070     29.7875E-03     33.1432E-03
             304            1070     29.7875E-03     33.1432E-03
             254            1070     29.7875E-03     33.1432E-03
             256            1071     35.9627E-03     33.4430E-03
             255            1071     35.9627E-03     33.4430E-03
             306            1071     35.9627E-03     33.4430E-03
             305            1071     35.9627E-03     33.4430E-03
             257            1072     36.0003E-03     35.8186E-03
             256            1072     36.0003E-03     35.8186E-03
             307            1072     36.0003E-03     35.8186E-03
             306            1072     36.0003E-03     35.8186E-03
             258            1073     30.4502E-03     39.6957E-03
             257            1073     30.4502E-03     39.6957E-03
             308            1073     30.4502E-03     39.6957E-03
             307            1073     30.4502E-03     39.6957E-03
             259            1074     35.7786E-03     35.6385E-03
             309            1074     35.7786E-03     35.6385E-03
             308            1074     35.7786E-03     35.6385E-03
             258            1074     35.7786E-03     35.6385E-03
             260            1075     37.1718E-03     35.8118E-03
             310            1075     37.1718E-03     35.8118E-03
             259            1075     37.1718E-03     35.8118E-03
             309            1075     37.1718E-03     35.8118E-03
             310            1076     34.9112E-03     37.9432E-03
             261            1076     34.9112E-03     37.9432E-03
             311            1076     34.9112E-03     37.9432E-03
             260            1076     34.9112E-03     37.9432E-03
             312            1077     37.4072E-03     37.9966E-03
             262            1077     37.4072E-03     37.9966E-03
             311            1077     37.4072E-03     37.9966E-03
             261            1077     37.4072E-03     37.9966E-03
             263            1078     38.6573E-03     40.4736E-03
             312            1078     38.6573E-03     40.4736E-03
             313            1078     38.6573E-03     40.4736E-03
             262            1078     38.6573E-03     40.4736E-03
             314            1079     40.8871E-03     42.4985E-03
             264            1079     40.8871E-03     42.4985E-03
             313            1079     40.8871E-03     42.4985E-03
             263            1079     40.8871E-03     42.4985E-03
             314            1080     43.4765E-03     43.9834E-03
             315            1080     43.4765E-03     43.9834E-03
             265            1080     43.4765E-03     43.9834E-03
             264            1080     43.4765E-03     43.9834E-03
             316            1081     44.1362E-03     49.0192E-03
             265            1081     44.1362E-03     49.0192E-03
             315            1081     44.1362E-03     49.0192E-03
             266            1081     44.1362E-03     49.0192E-03
             316            1082     52.5675E-03     49.0512E-03
             317            1082     52.5675E-03     49.0512E-03
             267            1082     52.5675E-03     49.0512E-03
             266            1082     52.5675E-03     49.0512E-03
             267            1083     52.4025E-03     52.1360E-03
             318            1083     52.4025E-03     52.1360E-03
             268            1083     52.4025E-03     52.1360E-03
             317            1083     52.4025E-03     52.1360E-03
             269            1084     44.1640E-03     57.6893E-03
             318            1084     44.1640E-03     57.6893E-03
             268            1084     44.1640E-03     57.6893E-03
             319            1084     44.1640E-03     57.6893E-03
             319            1085     51.8473E-03     51.6076E-03
             269            1085     51.8473E-03     51.6076E-03
             320            1085     51.8473E-03     51.6076E-03
             270            1085     51.8473E-03     51.6076E-03
             270            1086     53.7085E-03     51.5338E-03
             271            1086     53.7085E-03     51.5338E-03
             321            1086     53.7085E-03     51.5338E-03
             320            1086     53.7085E-03     51.5338E-03
             271            1087     49.9692E-03     54.1207E-03
             272            1087     49.9692E-03     54.1207E-03
             322            1087     49.9692E-03     54.1207E-03
             321            1087     49.9692E-03     54.1207E-03
             272            1088     52.6156E-03     54.0342E-03
             273            1088     52.6156E-03     54.0342E-03
             323            1088     52.6156E-03     54.0342E-03
             322            1088     52.6156E-03     54.0342E-03
             274            1089     54.9500E-03     56.7534E-03
             273            1089     54.9500E-03     56.7534E-03
             323            1089     54.9500E-03     56.7534E-03
             324            1089     54.9500E-03     56.7534E-03
             275            1090     57.3472E-03     58.3712E-03
             324            1090     57.3472E-03     58.3712E-03
             274            1090     57.3472E-03     58.3712E-03
             325            1090     57.3472E-03     58.3712E-03
             275            1091     58.1372E-03     64.2875E-03
             276            1091     58.1372E-03     64.2875E-03
             325            1091     58.1372E-03     64.2875E-03
             326            1091     58.1372E-03     64.2875E-03
             277            1092     68.6999E-03     64.2081E-03
             276            1092     68.6999E-03     64.2081E-03
             326            1092     68.6999E-03     64.2081E-03
             327            1092     68.6999E-03     64.2081E-03
             277            1093     68.3633E-03     68.0262E-03
             278            1093     68.3633E-03     68.0262E-03
             328            1093     68.3633E-03     68.0262E-03
             327            1093     68.3633E-03     68.0262E-03
             280            1094     1.88562E-03     2.33144E-03
             330            1094     1.88562E-03     2.33144E-03
             279            1094     1.88562E-03     2.33144E-03
             329            1094     1.88562E-03     2.33144E-03
             281            1095     2.61679E-03     2.75224E-03
             331            1095     2.61679E-03     2.75224E-03
             280            1095     2.61679E-03     2.75224E-03
             330            1095     2.61679E-03     2.75224E-03
             281            1096     4.27697E-03     3.98749E-03
             332            1096     4.27697E-03     3.98749E-03
             282            1096     4.27697E-03     3.98749E-03
             331            1096     4.27697E-03     3.98749E-03
             333            1097     5.56375E-03     6.18686E-03
             283            1097     5.56375E-03     6.18686E-03
             282            1097     5.56375E-03     6.18686E-03
             332            1097     5.56375E-03     6.18686E-03
             283            1098     8.24307E-03     7.60915E-03
             333            1098     8.24307E-03     7.60915E-03
             284            1098     8.24307E-03     7.60915E-03
             334            1098     8.24307E-03     7.60915E-03
             285            1099     9.58957E-03     9.58878E-03
             334            1099     9.58957E-03     9.58878E-03
             335            1099     9.58957E-03     9.58878E-03
             284            1099     9.58957E-03     9.58878E-03
             285            1100     7.92649E-03     9.36874E-03
             335            1100     7.92649E-03     9.36874E-03
             286            1100     7.92649E-03     9.36874E-03
             336            1100     7.92649E-03     9.36874E-03
             287            1101     7.91537E-03     7.48979E-03
             286            1101     7.91537E-03     7.48979E-03
             336            1101     7.91537E-03     7.48979E-03
             337            1101     7.91537E-03     7.48979E-03
             287            1102     8.99359E-03     8.81151E-03
             288            1102     8.99359E-03     8.81151E-03
             338            1102     8.99359E-03     8.81151E-03
             337            1102     8.99359E-03     8.81151E-03
             338            1103     10.2493E-03     10.5288E-03
             288            1103     10.2493E-03     10.5288E-03
             289            1103     10.2493E-03     10.5288E-03
             339            1103     10.2493E-03     10.5288E-03
             289            1104     12.0663E-03     12.1618E-03
             340            1104     12.0663E-03     12.1618E-03
             290            1104     12.0663E-03     12.1618E-03
             339            1104     12.0663E-03     12.1618E-03
             291            1105     13.7199E-03     14.0283E-03
             340            1105     13.7199E-03     14.0283E-03
             290            1105     13.7199E-03     14.0283E-03
             341            1105     13.7199E-03     14.0283E-03
             341            1106     15.5374E-03     15.8890E-03
             342            1106     15.5374E-03     15.8890E-03
             291            1106     15.5374E-03     15.8890E-03
             292            1106     15.5374E-03     15.8890E-03
             293            1107     17.5664E-03     17.4293E-03
             342            1107     17.5664E-03     17.4293E-03
             292            1107     17.5664E-03     17.4293E-03
             343            1107     17.5664E-03     17.4293E-03
             344            1108     18.7451E-03     20.2956E-03
             294            1108     18.7451E-03     20.2956E-03
             293            1108     18.7451E-03     20.2956E-03
             343            1108     18.7451E-03     20.2956E-03
             294            1109     22.8468E-03     21.5383E-03
             344            1109     22.8468E-03     21.5383E-03
             295            1109     22.8468E-03     21.5383E-03
             345            1109     22.8468E-03     21.5383E-03
             346            1110     24.2615E-03     23.9514E-03
             295            1110     24.2615E-03     23.9514E-03
             345            1110     24.2615E-03     23.9514E-03
             296            1110     24.2615E-03     23.9514E-03
             297            1111     20.3976E-03     24.3373E-03
             346            1111     20.3976E-03     24.3373E-03
             347            1111     20.3976E-03     24.3373E-03
             296            1111     20.3976E-03     24.3373E-03
             298            1112     21.3273E-03     20.5480E-03
             297            1112     21.3273E-03     20.5480E-03
             347            1112     21.3273E-03     20.5480E-03
             348            1112     21.3273E-03     20.5480E-03
             298            1113     22.5964E-03     21.8147E-03
             348            1113     22.5964E-03     21.8147E-03
             349            1113     22.5964E-03     21.8147E-03
             299            1113     22.5964E-03     21.8147E-03
             350            1114     23.0040E-03     24.0985E-03
             300            1114     23.0040E-03     24.0985E-03
             349            1114     23.0040E-03     24.0985E-03
             299            1114     23.0040E-03     24.0985E-03
             350            1115     25.3996E-03     25.5255E-03
             351            1115     25.3996E-03     25.5255E-03
             300            1115     25.3996E-03     25.5255E-03
             301            1115     25.3996E-03     25.5255E-03
             302            1116     27.1785E-03     27.8227E-03
             351            1116     27.1785E-03     27.8227E-03
             301            1116     27.1785E-03     27.8227E-03
             352            1116     27.1785E-03     27.8227E-03
             353            1117     29.2727E-03     29.9666E-03
             302            1117     29.2727E-03     29.9666E-03
             352            1117     29.2727E-03     29.9666E-03
             303            1117     29.2727E-03     29.9666E-03
             304            1118     31.7442E-03     31.5957E-03
             303            1118     31.7442E-03     31.5957E-03
             354            1118     31.7442E-03     31.5957E-03
             353            1118     31.7442E-03     31.5957E-03
             305            1119     32.8170E-03     35.3595E-03
             304            1119     32.8170E-03     35.3595E-03
             354            1119     32.8170E-03     35.3595E-03
             355            1119     32.8170E-03     35.3595E-03
             355            1120     38.6152E-03     36.5393E-03
             305            1120     38.6152E-03     36.5393E-03
             356            1120     38.6152E-03     36.5393E-03
             306            1120     38.6152E-03     36.5393E-03
             306            1121     40.3003E-03     39.6585E-03
             356            1121     40.3003E-03     39.6585E-03
             307            1121     40.3003E-03     39.6585E-03
             357            1121     40.3003E-03     39.6585E-03
             307            1122     34.5013E-03     41.2954E-03
             357            1122     34.5013E-03     41.2954E-03
             358            1122     34.5013E-03     41.2954E-03
             308            1122     34.5013E-03     41.2954E-03
             359            1123     36.9104E-03     35.7433E-03
             309            1123     36.9104E-03     35.7433E-03
             308            1123     36.9104E-03     35.7433E-03
             358            1123     36.9104E-03     35.7433E-03
             360            1124     38.3057E-03     36.8278E-03
             359            1124     38.3057E-03     36.8278E-03
             310            1124     38.3057E-03     36.8278E-03
             309            1124     38.3057E-03     36.8278E-03
             360            1125     37.6545E-03     39.6787E-03
             311            1125     37.6545E-03     39.6787E-03
             310            1125     37.6545E-03     39.6787E-03
             361            1125     37.6545E-03     39.6787E-03
             361            1126     40.6552E-03     40.8082E-03
             312            1126     40.6552E-03     40.8082E-03
             362            1126     40.6552E-03     40.8082E-03
             311            1126     40.6552E-03     40.8082E-03
             362            1127     42.5265E-03     43.5498E-03
             312            1127     42.5265E-03     43.5498E-03
             313            1127     42.5265E-03     43.5498E-03
             363            1127     42.5265E-03     43.5498E-03
             363            1128     44.8929E-03     45.9722E-03
             364            1128     44.8929E-03     45.9722E-03
             313            1128     44.8929E-03     45.9722E-03
             314            1128     44.8929E-03     45.9722E-03
             364            1129     47.8270E-03     47.6665E-03
             365            1129     47.8270E-03     47.6665E-03
             314            1129     47.8270E-03     47.6665E-03
             315            1129     47.8270E-03     47.6665E-03
             316            1130     48.7503E-03     52.4030E-03
             315            1130     48.7503E-03     52.4030E-03
             366            1130     48.7503E-03     52.4030E-03
             365            1130     48.7503E-03     52.4030E-03
             316            1131     56.4223E-03     53.4847E-03
             317            1131     56.4223E-03     53.4847E-03
             367            1131     56.4223E-03     53.4847E-03
             366            1131     56.4223E-03     53.4847E-03
             317            1132     58.3945E-03     57.3735E-03
             318            1132     58.3945E-03     57.3735E-03
             367            1132     58.3945E-03     57.3735E-03
             368            1132     58.3945E-03     57.3735E-03
             318            1133     50.3424E-03     60.3391E-03
             369            1133     50.3424E-03     60.3391E-03
             319            1133     50.3424E-03     60.3391E-03
             368            1133     50.3424E-03     60.3391E-03
             320            1134     54.3520E-03     52.8046E-03
             319            1134     54.3520E-03     52.8046E-03
             369            1134     54.3520E-03     52.8046E-03
             370            1134     54.3520E-03     52.8046E-03
             320            1135     55.9509E-03     53.7303E-03
             321            1135     55.9509E-03     53.7303E-03
             370            1135     55.9509E-03     53.7303E-03
             371            1135     55.9509E-03     53.7303E-03
             322            1136     54.2264E-03     57.1835E-03
             371            1136     54.2264E-03     57.1835E-03
             372            1136     54.2264E-03     57.1835E-03
             321            1136     54.2264E-03     57.1835E-03
             322            1137     57.7358E-03     58.1791E-03
             373            1137     57.7358E-03     58.1791E-03
             323            1137     57.7358E-03     58.1791E-03
             372            1137     57.7358E-03     58.1791E-03
             323            1138     60.1183E-03     61.5532E-03
             373            1138     60.1183E-03     61.5532E-03
             374            1138     60.1183E-03     61.5532E-03
             324            1138     60.1183E-03     61.5532E-03
             325            1139     63.3301E-03     63.3277E-03
             324            1139     63.3301E-03     63.3277E-03
             375            1139     63.3301E-03     63.3277E-03
             374            1139     63.3301E-03     63.3277E-03
             375            1140     64.2866E-03     68.9583E-03
             326            1140     64.2866E-03     68.9583E-03
             376            1140     64.2866E-03     68.9583E-03
             325            1140     64.2866E-03     68.9583E-03
             326            1141     73.8290E-03     70.0506E-03
             377            1141     73.8290E-03     70.0506E-03
             376            1141     73.8290E-03     70.0506E-03
             327            1141     73.8290E-03     70.0506E-03
             378            1142     76.1452E-03     74.7823E-03
             327            1142     76.1452E-03     74.7823E-03
             377            1142     76.1452E-03     74.7823E-03
             328            1142     76.1452E-03     74.7823E-03
             379            1143     37.3168E-03     44.5254E-03
             385            1143     37.3168E-03     44.5254E-03
             380            1143     37.3168E-03     44.5254E-03
             386            1143     37.3168E-03     44.5254E-03
             380            1144     46.2251E-03     48.2871E-03
             387            1144     46.2251E-03     48.2871E-03
             381            1144     46.2251E-03     48.2871E-03
             386            1144     46.2251E-03     48.2871E-03
             388            1145     47.1090E-03     46.4664E-03
             381            1145     47.1090E-03     46.4664E-03
             382            1145     47.1090E-03     46.4664E-03
             387            1145     47.1090E-03     46.4664E-03
             383            1146     46.0882E-03     46.3688E-03
             388            1146     46.0882E-03     46.3688E-03
             382            1146     46.0882E-03     46.3688E-03
             389            1146     46.0882E-03     46.3688E-03
             390            1147     47.5235E-03     52.0487E-03
             383            1147     47.5235E-03     52.0487E-03
             384            1147     47.5235E-03     52.0487E-03
             389            1147     47.5235E-03     52.0487E-03
             386            1148     30.8839E-03     38.8107E-03
             385            1148     30.8839E-03     38.8107E-03
             391            1148     30.8839E-03     38.8107E-03
             392            1148     30.8839E-03     38.8107E-03
             387            1149     36.4591E-03     39.9784E-03
             393            1149     36.4591E-03     39.9784E-03
             386            1149     36.4591E-03     39.9784E-03
             392            1149     36.4591E-03     39.9784E-03
             394            1150     35.9253E-03     33.0822E-03
             388            1150     35.9253E-03     33.0822E-03
             393            1150     35.9253E-03     33.0822E-03
             387            1150     35.9253E-03     33.0822E-03
             389            1151     27.7462E-03     30.9689E-03
             395            1151     27.7462E-03     30.9689E-03
             394            1151     27.7462E-03     30.9689E-03
             388            1151     27.7462E-03     30.9689E-03
             390            1152     26.5071E-03     30.8120E-03
             389            1152     26.5071E-03     30.8120E-03
             395            1152     26.5071E-03     30.8120E-03
             396            1152     26.5071E-03     30.8120E-03
             397            1153     35.9274E-03     45.0309E-03
             391            1153     35.9274E-03     45.0309E-03
             392            1153     35.9274E-03     45.0309E-03
             398            1153     35.9274E-03     45.0309E-03
             393            1154     39.5427E-03     41.3315E-03
             399            1154     39.5427E-03     41.3315E-03
             392            1154     39.5427E-03     41.3315E-03
             398            1154     39.5427E-03     41.3315E-03
             394            1155     38.5345E-03     34.1339E-03
             393            1155     38.5345E-03     34.1339E-03
             400            1155     38.5345E-03     34.1339E-03
             399            1155     38.5345E-03     34.1339E-03
             401            1156     27.1441E-03     31.0706E-03
             400            1156     27.1441E-03     31.0706E-03
             395            1156     27.1441E-03     31.0706E-03
             394            1156     27.1441E-03     31.0706E-03
             401            1157     22.7310E-03     23.1674E-03
             402            1157     22.7310E-03     23.1674E-03
             396            1157     22.7310E-03     23.1674E-03
             395            1157     22.7310E-03     23.1674E-03
             398            1158     45.9187E-03     56.1598E-03
             404            1158     45.9187E-03     56.1598E-03
             403            1158     45.9187E-03     56.1598E-03
             397            1158     45.9187E-03     56.1598E-03
             404            1159     49.2350E-03     49.7028E-03
             398            1159     49.2350E-03     49.7028E-03
             405            1159     49.2350E-03     49.7028E-03
             399            1159     49.2350E-03     49.7028E-03
             399            1160     49.4471E-03     43.7896E-03
             405            1160     49.4471E-03     43.7896E-03
             400            1160     49.4471E-03     43.7896E-03
             406            1160     49.4471E-03     43.7896E-03
             406            1161     40.7572E-03     41.3031E-03
             407            1161     40.7572E-03     41.3031E-03
             400            1161     40.7572E-03     41.3031E-03
             401            1161     40.7572E-03     41.3031E-03
             407            1162     35.7787E-03     32.5634E-03
             402            1162     35.7787E-03     32.5634E-03
             401            1162     35.7787E-03     32.5634E-03
             408            1162     35.7787E-03     32.5634E-03
             403            1163     56.1946E-03     66.1583E-03
             404            1163     56.1946E-03     66.1583E-03
             409            1163     56.1946E-03     66.1583E-03
             410            1163     56.1946E-03     66.1583E-03
             411            1164     59.1094E-03     58.6148E-03
             404            1164     59.1094E-03     58.6148E-03
             410            1164     59.1094E-03     58.6148E-03
             405            1164     59.1094E-03     58.6148E-03
             412            1165     58.6013E-03     54.9292E-03
             411            1165     58.6013E-03     54.9292E-03
             406            1165     58.6013E-03     54.9292E-03
             405            1165     58.6013E-03     54.9292E-03
             412            1166     53.9151E-03     53.2814E-03
             407            1166     53.9151E-03     53.2814E-03
             413            1166     53.9151E-03     53.2814E-03
             406            1166     53.9151E-03     53.2814E-03
             408            1167     50.9393E-03     48.4382E-03
             414            1167     50.9393E-03     48.4382E-03
             407            1167     50.9393E-03     48.4382E-03
             413            1167     50.9393E-03     48.4382E-03
             410            1168     64.5331E-03     70.4333E-03
             415            1168     64.5331E-03     70.4333E-03
             416            1168     64.5331E-03     70.4333E-03
             409            1168     64.5331E-03     70.4333E-03
             410            1169     65.2647E-03     62.0460E-03
             416            1169     65.2647E-03     62.0460E-03
             411            1169     65.2647E-03     62.0460E-03
             417            1169     65.2647E-03     62.0460E-03
             411            1170     63.9119E-03     61.7457E-03
             412            1170     63.9119E-03     61.7457E-03
             417            1170     63.9119E-03     61.7457E-03
             418            1170     63.9119E-03     61.7457E-03
             412            1171     63.1060E-03     61.9781E-03
             419            1171     63.1060E-03     61.9781E-03
             413            1171     63.1060E-03     61.9781E-03
             418            1171     63.1060E-03     61.9781E-03
             420            1172     63.3673E-03     61.8720E-03
             419            1172     63.3673E-03     61.8720E-03
             413            1172     63.3673E-03     61.8720E-03
             414            1172     63.3673E-03     61.8720E-03
             421            1173     45.6255E-03     50.8986E-03
             428            1173     45.6255E-03     50.8986E-03
             427            1173     45.6255E-03     50.8986E-03
             422            1173     45.6255E-03     50.8986E-03
             423            1174     44.6486E-03     44.1028E-03
             428            1174     44.6486E-03     44.1028E-03
             422            1174     44.6486E-03     44.1028E-03
             429            1174     44.6486E-03     44.1028E-03
             423            1175     42.2866E-03     44.3890E-03
             424            1175     42.2866E-03     44.3890E-03
             429            1175     42.2866E-03     44.3890E-03
             430            1175     42.2866E-03     44.3890E-03
             424            1176     44.7651E-03     44.9701E-03
             425            1176     44.7651E-03     44.9701E-03
             431            1176     44.7651E-03     44.9701E-03
             430            1176     44.7651E-03     44.9701E-03
             432            1177     45.7220E-03     48.9546E-03
             426            1177     45.7220E-03     48.9546E-03
             431            1177     45.7220E-03     48.9546E-03
             425            1177     45.7220E-03     48.9546E-03
             433            1178     24.2762E-03     28.6323E-03
             427            1178     24.2762E-03     28.6323E-03
             434            1178     24.2762E-03     28.6323E-03
             428            1178     24.2762E-03     28.6323E-03
             428            1179     25.6126E-03     27.2736E-03
             434            1179     25.6126E-03     27.2736E-03
             429            1179     25.6126E-03     27.2736E-03
             435            1179     25.6126E-03     27.2736E-03
             429            1180     29.6240E-03     32.3428E-03
             435            1180     29.6240E-03     32.3428E-03
             430            1180     29.6240E-03     32.3428E-03
             436            1180     29.6240E-03     32.3428E-03
             430            1181     38.1390E-03     35.6771E-03
             437            1181     38.1390E-03     35.6771E-03
             436            1181     38.1390E-03     35.6771E-03
             431            1181     38.1390E-03     35.6771E-03
             437            1182     39.7362E-03     42.9800E-03
             431            1182     39.7362E-03     42.9800E-03
             432            1182     39.7362E-03     42.9800E-03
             438            1182     39.7362E-03     42.9800E-03
             439            1183     21.5818E-03     21.5025E-03
             433            1183     21.5818E-03     21.5025E-03
             434            1183     21.5818E-03     21.5025E-03
             440            1183     21.5818E-03     21.5025E-03
             440            1184     25.8181E-03     26.9018E-03
             434            1184     25.8181E-03     26.9018E-03
             441            1184     25.8181E-03     26.9018E-03
             435            1184     25.8181E-03     26.9018E-03
             441            1185     32.0255E-03     35.3325E-03
             436            1185     32.0255E-03     35.3325E-03
             435            1185     32.0255E-03     35.3325E-03
             442            1185     32.0255E-03     35.3325E-03
             437            1186     44.0015E-03     38.5033E-03
             443            1186     44.0015E-03     38.5033E-03
             436            1186     44.0015E-03     38.5033E-03
             442            1186     44.0015E-03     38.5033E-03
             444            1187     44.3868E-03     46.0142E-03
             437            1187     44.3868E-03     46.0142E-03
             443            1187     44.3868E-03     46.0142E-03
             438            1187     44.3868E-03     46.0142E-03
             446            1188     36.3417E-03     32.6483E-03
             439            1188     36.3417E-03     32.6483E-03
             440            1188     36.3417E-03     32.6483E-03
             445            1188     36.3417E-03     32.6483E-03
             447            1189     40.9344E-03     38.0415E-03
             440            1189     40.9344E-03     38.0415E-03
             446            1189     40.9344E-03     38.0415E-03
             441            1189     40.9344E-03     38.0415E-03
             447            1190     42.3773E-03     46.6361E-03
             448            1190     42.3773E-03     46.6361E-03
             442            1190     42.3773E-03     46.6361E-03
             441            1190     42.3773E-03     46.6361E-03
             442            1191     54.3603E-03     46.8652E-03
             448            1191     54.3603E-03     46.8652E-03
             449            1191     54.3603E-03     46.8652E-03
             443            1191     54.3603E-03     46.8652E-03
             443            1192     53.4075E-03     53.9431E-03
             449            1192     53.4075E-03     53.9431E-03
             444            1192     53.4075E-03     53.9431E-03
             450            1192     53.4075E-03     53.9431E-03
             445            1193     52.3462E-03     50.2884E-03
             452            1193     52.3462E-03     50.2884E-03
             451            1193     52.3462E-03     50.2884E-03
             446            1193     52.3462E-03     50.2884E-03
             446            1194     55.6214E-03     51.4552E-03
             453            1194     55.6214E-03     51.4552E-03
             447            1194     55.6214E-03     51.4552E-03
             452            1194     55.6214E-03     51.4552E-03
             453            1195     51.1217E-03     58.1678E-03
             448            1195     51.1217E-03     58.1678E-03
             454            1195     51.1217E-03     58.1678E-03
             447            1195     51.1217E-03     58.1678E-03
             448            1196     62.3604E-03     55.7479E-03
             454            1196     62.3604E-03     55.7479E-03
             455            1196     62.3604E-03     55.7479E-03
             449            1196     62.3604E-03     55.7479E-03
             456            1197     61.9879E-03     61.9570E-03
             450            1197     61.9879E-03     61.9570E-03
             449            1197     61.9879E-03     61.9570E-03
             455            1197     61.9879E-03     61.9570E-03
             451            1198     65.4801E-03     64.7082E-03
             452            1198     65.4801E-03     64.7082E-03
             458            1198     65.4801E-03     64.7082E-03
             457            1198     65.4801E-03     64.7082E-03
             453            1199     65.9251E-03     61.8667E-03
             459            1199     65.9251E-03     61.8667E-03
             458            1199     65.9251E-03     61.8667E-03
             452            1199     65.9251E-03     61.8667E-03
             460            1200     59.0522E-03     65.0109E-03
             459            1200     59.0522E-03     65.0109E-03
             453            1200     59.0522E-03     65.0109E-03
             454            1200     59.0522E-03     65.0109E-03
             454            1201     66.3446E-03     60.7206E-03
             460            1201     66.3446E-03     60.7206E-03
             461            1201     66.3446E-03     60.7206E-03
             455            1201     66.3446E-03     60.7206E-03
             455            1202     66.3885E-03     63.7784E-03
             462            1202     66.3885E-03     63.7784E-03
             456            1202     66.3885E-03     63.7784E-03
             461            1202     66.3885E-03     63.7784E-03
             469            1203     648.901E-06     641.173E-06
             464            1203     648.901E-06     641.173E-06
             470            1203     648.901E-06     641.173E-06
             463            1203     648.901E-06     641.173E-06
             470            1204     652.196E-06     644.700E-06
             464            1204     652.196E-06     644.700E-06
             465            1204     652.196E-06     644.700E-06
             471            1204     652.196E-06     644.700E-06
             465            1205     648.899E-06     649.761E-06
             471            1205     648.899E-06     649.761E-06
             466            1205     648.899E-06     649.761E-06
             472            1205     648.899E-06     649.761E-06
             467            1206     659.003E-06     651.685E-06
             472            1206     659.003E-06     651.685E-06
             473            1206     659.003E-06     651.685E-06
             466            1206     659.003E-06     651.685E-06
             467            1207     658.520E-06     644.182E-06
             468            1207     658.520E-06     644.182E-06
             474            1207     658.520E-06     644.182E-06
             473            1207     658.520E-06     644.182E-06
             476            1208     592.650E-06     585.073E-06
             469            1208     592.650E-06     585.073E-06
             475            1208     592.650E-06     585.073E-06
             470            1208     592.650E-06     585.073E-06
             471            1209     598.553E-06     591.331E-06
             470            1209     598.553E-06     591.331E-06
             477            1209     598.553E-06     591.331E-06
             476            1209     598.553E-06     591.331E-06
             477            1210     600.697E-06     604.153E-06
             472            1210     600.697E-06     604.153E-06
             478            1210     600.697E-06     604.153E-06
             471            1210     600.697E-06     604.153E-06
             473            1211     624.852E-06     613.229E-06
             478            1211     624.852E-06     613.229E-06
             472            1211     624.852E-06     613.229E-06
             479            1211     624.852E-06     613.229E-06
             473            1212     626.578E-06     617.197E-06
             480            1212     626.578E-06     617.197E-06
             479            1212     626.578E-06     617.197E-06
             474            1212     626.578E-06     617.197E-06
             475            1213     499.926E-06     495.476E-06
             481            1213     499.926E-06     495.476E-06
             476            1213     499.926E-06     495.476E-06
             482            1213     499.926E-06     495.476E-06
             482            1214     507.694E-06     508.476E-06
             477            1214     507.694E-06     508.476E-06
             476            1214     507.694E-06     508.476E-06
             483            1214     507.694E-06     508.476E-06
             483            1215     521.338E-06     534.038E-06
             484            1215     521.338E-06     534.038E-06
             478            1215     521.338E-06     534.038E-06
             477            1215     521.338E-06     534.038E-06
             484            1216     574.452E-06     548.530E-06
             485            1216     574.452E-06     548.530E-06
             478            1216     574.452E-06     548.530E-06
             479            1216     574.452E-06     548.530E-06
             486            1217     585.636E-06     573.725E-06
             479            1217     585.636E-06     573.725E-06
             485            1217     585.636E-06     573.725E-06
             480            1217     585.636E-06     573.725E-06
             482            1218     369.735E-06     375.428E-06
             488            1218     369.735E-06     375.428E-06
             481            1218     369.735E-06     375.428E-06
             487            1218     369.735E-06     375.428E-06
             488            1219     389.341E-06     398.753E-06
             489            1219     389.341E-06     398.753E-06
             483            1219     389.341E-06     398.753E-06
             482            1219     389.341E-06     398.753E-06
             490            1220     420.350E-06     442.998E-06
             483            1220     420.350E-06     442.998E-06
             484            1220     420.350E-06     442.998E-06
             489            1220     420.350E-06     442.998E-06
             485            1221     510.868E-06     463.168E-06
             484            1221     510.868E-06     463.168E-06
             491            1221     510.868E-06     463.168E-06
             490            1221     510.868E-06     463.168E-06
             486            1222     530.996E-06     523.403E-06
             492            1222     530.996E-06     523.403E-06
             491            1222     530.996E-06     523.403E-06
             485            1222     530.996E-06     523.403E-06
             493            1223     216.252E-06     234.555E-06
             494            1223     216.252E-06     234.555E-06
             487            1223     216.252E-06     234.555E-06
             488            1223     216.252E-06     234.555E-06
             495            1224     248.301E-06     247.372E-06
             494            1224     248.301E-06     247.372E-06
             488            1224     248.301E-06     247.372E-06
             489            1224     248.301E-06     247.372E-06
             490            1225     310.268E-06     336.560E-06
             495            1225     310.268E-06     336.560E-06
             489            1225     310.268E-06     336.560E-06
             496            1225     310.268E-06     336.560E-06
             496            1226     463.353E-06     410.369E-06
             497            1226     463.353E-06     410.369E-06
             491            1226     463.353E-06     410.369E-06
             490            1226     463.353E-06     410.369E-06
             492            1227     505.050E-06     512.485E-06
             491            1227     505.050E-06     512.485E-06
             498            1227     505.050E-06     512.485E-06
             497            1227     505.050E-06     512.485E-06
             500            1228     157.504E-06     197.561E-06
             493            1228     157.504E-06     197.561E-06
             499            1228     157.504E-06     197.561E-06
             494            1228     157.504E-06     197.561E-06
             495            1229     195.969E-06     179.074E-06
             500            1229     195.969E-06     179.074E-06
             501            1229     195.969E-06     179.074E-06
             494            1229     195.969E-06     179.074E-06
             495            1230     283.655E-06     312.636E-06
             501            1230     283.655E-06     312.636E-06
             502            1230     283.655E-06     312.636E-06
             496            1230     283.655E-06     312.636E-06
             502            1231     486.570E-06     447.993E-06
             496            1231     486.570E-06     447.993E-06
             503            1231     486.570E-06     447.993E-06
             497            1231     486.570E-06     447.993E-06
             498            1232     607.351E-06     611.671E-06
             503            1232     607.351E-06     611.671E-06
             497            1232     607.351E-06     611.671E-06
             504            1232     607.351E-06     611.671E-06
             546            1233     20.1985E-03     20.9050E-03
             505            1233     20.1985E-03     20.9050E-03
             545            1233     20.1985E-03     20.9050E-03
             506            1233     20.1985E-03     20.9050E-03
             507            1234     23.2890E-03     22.1878E-03
             546            1234     23.2890E-03     22.1878E-03
             547            1234     23.2890E-03     22.1878E-03
             506            1234     23.2890E-03     22.1878E-03
             508            1235     23.8544E-03     23.2959E-03
             507            1235     23.8544E-03     23.2959E-03
             547            1235     23.8544E-03     23.2959E-03
             548            1235     23.8544E-03     23.2959E-03
             509            1236     22.3740E-03     23.6454E-03
             549            1236     22.3740E-03     23.6454E-03
             508            1236     22.3740E-03     23.6454E-03
             548            1236     22.3740E-03     23.6454E-03
             509            1237     22.7397E-03     22.8657E-03
             510            1237     22.7397E-03     22.8657E-03
             549            1237     22.7397E-03     22.8657E-03
             550            1237     22.7397E-03     22.8657E-03
             550            1238     22.5287E-03     22.6989E-03
             551            1238     22.5287E-03     22.6989E-03
             511            1238     22.5287E-03     22.6989E-03
             510            1238     22.5287E-03     22.6989E-03
             511            1239     22.1396E-03     22.1710E-03
             551            1239     22.1396E-03     22.1710E-03
             552            1239     22.1396E-03     22.1710E-03
             512            1239     22.1396E-03     22.1710E-03
             552            1240     21.7858E-03     21.5010E-03
             513            1240     21.7858E-03     21.5010E-03
             512            1240     21.7858E-03     21.5010E-03
             553            1240     21.7858E-03     21.5010E-03
             514            1241     21.2684E-03     21.0996E-03
             513            1241     21.2684E-03     21.0996E-03
             554            1241     21.2684E-03     21.0996E-03
             553            1241     21.2684E-03     21.0996E-03
             554            1242     21.0235E-03     20.1121E-03
             555            1242     21.0235E-03     20.1121E-03
             515            1242     21.0235E-03     20.1121E-03
             514            1242     21.0235E-03     20.1121E-03
             515            1243     20.1720E-03     19.8430E-03
             555            1243     20.1720E-03     19.8430E-03
             556            1243     20.1720E-03     19.8430E-03
             516            1243     20.1720E-03     19.8430E-03
             556            1244     18.4092E-03     19.3365E-03
             557            1244     18.4092E-03     19.3365E-03
             517            1244     18.4092E-03     19.3365E-03
             516            1244     18.4092E-03     19.3365E-03
             557            1245     19.1638E-03     18.3304E-03
             558            1245     19.1638E-03     18.3304E-03
             518            1245     19.1638E-03     18.3304E-03
             517            1245     19.1638E-03     18.3304E-03
             519            1246     19.4611E-03     19.0465E-03
             558            1246     19.4611E-03     19.0465E-03
             518            1246     19.4611E-03     19.0465E-03
             559            1246     19.4611E-03     19.0465E-03
             560            1247     18.3242E-03     19.1759E-03
             520            1247     18.3242E-03     19.1759E-03
             519            1247     18.3242E-03     19.1759E-03
             559            1247     18.3242E-03     19.1759E-03
             560            1248     18.4984E-03     18.5580E-03
             561            1248     18.4984E-03     18.5580E-03
             521            1248     18.4984E-03     18.5580E-03
             520            1248     18.4984E-03     18.5580E-03
             562            1249     18.2875E-03     18.3665E-03
             561            1249     18.2875E-03     18.3665E-03
             521            1249     18.2875E-03     18.3665E-03
             522            1249     18.2875E-03     18.3665E-03
             562            1250     17.9477E-03     18.0134E-03
             523            1250     17.9477E-03     18.0134E-03
             563            1250     17.9477E-03     18.0134E-03
             522            1250     17.9477E-03     18.0134E-03
             524            1251     17.7112E-03     17.5401E-03
             563            1251     17.7112E-03     17.5401E-03
             564            1251     17.7112E-03     17.5401E-03
             523            1251     17.7112E-03     17.5401E-03
             524            1252     17.3940E-03     17.1222E-03
             564            1252     17.3940E-03     17.1222E-03
             565            1252     17.3940E-03     17.1222E-03
             525            1252     17.3940E-03     17.1222E-03
             525            1253     17.0440E-03     16.7898E-03
             566            1253     17.0440E-03     16.7898E-03
             526            1253     17.0440E-03     16.7898E-03
             565            1253     17.0440E-03     16.7898E-03
             526            1254     16.8192E-03     16.2454E-03
             527            1254     16.8192E-03     16.2454E-03
             567            1254     16.8192E-03     16.2454E-03
             566            1254     16.8192E-03     16.2454E-03
             527            1255     16.3282E-03     16.0799E-03
             568            1255     16.3282E-03     16.0799E-03
             567            1255     16.3282E-03     16.0799E-03
             528            1255     16.3282E-03     16.0799E-03
             529            1256     15.1413E-03     15.4711E-03
             569            1256     15.1413E-03     15.4711E-03
             528            1256     15.1413E-03     15.4711E-03
             568            1256     15.1413E-03     15.4711E-03
             570            1257     15.1997E-03     14.6918E-03
             529            1257     15.1997E-03     14.6918E-03
             530            1257     15.1997E-03     14.6918E-03
             569            1257     15.1997E-03     14.6918E-03
             570            1258     15.2936E-03     15.0604E-03
             530            1258     15.2936E-03     15.0604E-03
             571            1258     15.2936E-03     15.0604E-03
             531            1258     15.2936E-03     15.0604E-03
             572            1259     14.6150E-03     15.0412E-03
             531            1259     14.6150E-03     15.0412E-03
             532            1259     14.6150E-03     15.0412E-03
             571            1259     14.6150E-03     15.0412E-03
             532            1260     14.6483E-03     14.6475E-03
             573            1260     14.6483E-03     14.6475E-03
             572            1260     14.6483E-03     14.6475E-03
             533            1260     14.6483E-03     14.6475E-03
             574            1261     14.4779E-03     14.4980E-03
             573            1261     14.4779E-03     14.4980E-03
             534            1261     14.4779E-03     14.4980E-03
             533            1261     14.4779E-03     14.4980E-03
             574            1262     14.2717E-03     14.2577E-03
             575            1262     14.2717E-03     14.2577E-03
             534            1262     14.2717E-03     14.2577E-03
             535            1262     14.2717E-03     14.2577E-03
             535            1263     14.1304E-03     13.9956E-03
             536            1263     14.1304E-03     13.9956E-03
             575            1263     14.1304E-03     13.9956E-03
             576            1263     14.1304E-03     13.9956E-03
             537            1264     13.9700E-03     13.8283E-03
             536            1264     13.9700E-03     13.8283E-03
             576            1264     13.9700E-03     13.8283E-03
             577            1264     13.9700E-03     13.8283E-03
             577            1265     13.8501E-03     13.6075E-03
             538            1265     13.8501E-03     13.6075E-03
             578            1265     13.8501E-03     13.6075E-03
             537            1265     13.8501E-03     13.6075E-03
             578            1266     13.6610E-03     13.4524E-03
             538            1266     13.6610E-03     13.4524E-03
             539            1266     13.6610E-03     13.4524E-03
             579            1266     13.6610E-03     13.4524E-03
             580            1267     12.5546E-03     12.5446E-03
             579            1267     12.5546E-03     12.5446E-03
             540            1267     12.5546E-03     12.5446E-03
             539            1267     12.5546E-03     12.5446E-03
             581            1268     11.8580E-03     11.6538E-03
             580            1268     11.8580E-03     11.6538E-03
             540            1268     11.8580E-03     11.6538E-03
             541            1268     11.8580E-03     11.6538E-03
             541            1269     11.8698E-03     11.7602E-03
             582            1269     11.8698E-03     11.7602E-03
             581            1269     11.8698E-03     11.7602E-03
             542            1269     11.8698E-03     11.7602E-03
             542            1270     11.6833E-03     11.7067E-03
             543            1270     11.6833E-03     11.7067E-03
             583            1270     11.6833E-03     11.7067E-03
             582            1270     11.6833E-03     11.7067E-03
             543            1271     11.6482E-03     11.5244E-03
             544            1271     11.6482E-03     11.5244E-03
             584            1271     11.6482E-03     11.5244E-03
             583            1271     11.6482E-03     11.5244E-03
             545            1272     30.0222E-03     32.6737E-03
             546            1272     30.0222E-03     32.6737E-03
             586            1272     30.0222E-03     32.6737E-03
             585            1272     30.0222E-03     32.6737E-03
             586            1273     34.1908E-03     32.6552E-03
             547            1273     34.1908E-03     32.6552E-03
             587            1273     34.1908E-03     32.6552E-03
             546            1273     34.1908E-03     32.6552E-03
             588            1274     35.5640E-03     33.2221E-03
             547            1274     35.5640E-03     33.2221E-03
             548            1274     35.5640E-03     33.2221E-03
             587            1274     35.5640E-03     33.2221E-03
             548            1275     32.3641E-03     33.9466E-03
             588            1275     32.3641E-03     33.9466E-03
             549            1275     32.3641E-03     33.9466E-03
             589            1275     32.3641E-03     33.9466E-03
             589            1276     32.3922E-03     31.8583E-03
             590            1276     32.3922E-03     31.8583E-03
             549            1276     32.3922E-03     31.8583E-03
             550            1276     32.3922E-03     31.8583E-03
             550            1277     31.4447E-03     31.2641E-03
             591            1277     31.4447E-03     31.2641E-03
             551            1277     31.4447E-03     31.2641E-03
             590            1277     31.4447E-03     31.2641E-03
             551            1278     30.2398E-03     30.3471E-03
             591            1278     30.2398E-03     30.3471E-03
             552            1278     30.2398E-03     30.3471E-03
             592            1278     30.2398E-03     30.3471E-03
             552            1279     29.2168E-03     29.1041E-03
             593            1279     29.2168E-03     29.1041E-03
             592            1279     29.2168E-03     29.1041E-03
             553            1279     29.2168E-03     29.1041E-03
             593            1280     27.6967E-03     28.5516E-03
             594            1280     27.6967E-03     28.5516E-03
             553            1280     27.6967E-03     28.5516E-03
             554            1280     27.6967E-03     28.5516E-03
             554            1281     27.5561E-03     26.5082E-03
             594            1281     27.5561E-03     26.5082E-03
             555            1281     27.5561E-03     26.5082E-03
             595            1281     27.5561E-03     26.5082E-03
             555            1282     25.7186E-03     25.0089E-03
             595            1282     25.7186E-03     25.0089E-03
             596            1282     25.7186E-03     25.0089E-03
             556            1282     25.7186E-03     25.0089E-03
             597            1283     22.8810E-03     25.7109E-03
             596            1283     22.8810E-03     25.7109E-03
             556            1283     22.8810E-03     25.7109E-03
             557            1283     22.8810E-03     25.7109E-03
             598            1284     25.7103E-03     24.6011E-03
             597            1284     25.7103E-03     24.6011E-03
             558            1284     25.7103E-03     24.6011E-03
             557            1284     25.7103E-03     24.6011E-03
             558            1285     26.4955E-03     24.7814E-03
             599            1285     26.4955E-03     24.7814E-03
             559            1285     26.4955E-03     24.7814E-03
             598            1285     26.4955E-03     24.7814E-03
             599            1286     24.0317E-03     25.0369E-03
             600            1286     24.0317E-03     25.0369E-03
             559            1286     24.0317E-03     25.0369E-03
             560            1286     24.0317E-03     25.0369E-03
             600            1287     23.8661E-03     23.3944E-03
             561            1287     23.8661E-03     23.3944E-03
             560            1287     23.8661E-03     23.3944E-03
             601            1287     23.8661E-03     23.3944E-03
             561            1288     23.0807E-03     22.7875E-03
             602            1288     23.0807E-03     22.7875E-03
             562            1288     23.0807E-03     22.7875E-03
             601            1288     23.0807E-03     22.7875E-03
             603            1289     22.0189E-03     22.1060E-03
             563            1289     22.0189E-03     22.1060E-03
             602            1289     22.0189E-03     22.1060E-03
             562            1289     22.0189E-03     22.1060E-03
             564            1290     21.2722E-03     21.2310E-03
             563            1290     21.2722E-03     21.2310E-03
             603            1290     21.2722E-03     21.2310E-03
             604            1290     21.2722E-03     21.2310E-03
             605            1291     20.3724E-03     20.4033E-03
             564            1291     20.3724E-03     20.4033E-03
             565            1291     20.3724E-03     20.4033E-03
             604            1291     20.3724E-03     20.4033E-03
             606            1292     19.3486E-03     19.7713E-03
             605            1292     19.3486E-03     19.7713E-03
             566            1292     19.3486E-03     19.7713E-03
             565            1292     19.3486E-03     19.7713E-03
             606            1293     18.9514E-03     18.5133E-03
             566            1293     18.9514E-03     18.5133E-03
             567            1293     18.9514E-03     18.5133E-03
             607            1293     18.9514E-03     18.5133E-03
             607            1294     17.9140E-03     17.5560E-03
             568            1294     17.9140E-03     17.5560E-03
             608            1294     17.9140E-03     17.5560E-03
             567            1294     17.9140E-03     17.5560E-03
             609            1295     16.3276E-03     17.6309E-03
             608            1295     16.3276E-03     17.6309E-03
             569            1295     16.3276E-03     17.6309E-03
             568            1295     16.3276E-03     17.6309E-03
             570            1296     17.5247E-03     16.8932E-03
             569            1296     17.5247E-03     16.8932E-03
             609            1296     17.5247E-03     16.8932E-03
             610            1296     17.5247E-03     16.8932E-03
             570            1297     17.7808E-03     16.8479E-03
             611            1297     17.7808E-03     16.8479E-03
             571            1297     17.7808E-03     16.8479E-03
             610            1297     17.7808E-03     16.8479E-03
             571            1298     16.2510E-03     16.7728E-03
             612            1298     16.2510E-03     16.7728E-03
             572            1298     16.2510E-03     16.7728E-03
             611            1298     16.2510E-03     16.7728E-03
             613            1299     15.9683E-03     15.7614E-03
             612            1299     15.9683E-03     15.7614E-03
             572            1299     15.9683E-03     15.7614E-03
             573            1299     15.9683E-03     15.7614E-03
             574            1300     15.3798E-03     15.3302E-03
             573            1300     15.3798E-03     15.3302E-03
             613            1300     15.3798E-03     15.3302E-03
             614            1300     15.3798E-03     15.3302E-03
             574            1301     14.7043E-03     14.8261E-03
             614            1301     14.7043E-03     14.8261E-03
             615            1301     14.7043E-03     14.8261E-03
             575            1301     14.7043E-03     14.8261E-03
             616            1302     14.1976E-03     14.2351E-03
             576            1302     14.1976E-03     14.2351E-03
             575            1302     14.1976E-03     14.2351E-03
             615            1302     14.1976E-03     14.2351E-03
             616            1303     13.6544E-03     13.7464E-03
             576            1303     13.6544E-03     13.7464E-03
             617            1303     13.6544E-03     13.7464E-03
             577            1303     13.6544E-03     13.7464E-03
             617            1304     13.2724E-03     13.1970E-03
             577            1304     13.2724E-03     13.1970E-03
             618            1304     13.2724E-03     13.1970E-03
             578            1304     13.2724E-03     13.1970E-03
             619            1305     12.8791E-03     12.6995E-03
             618            1305     12.8791E-03     12.6995E-03
             578            1305     12.8791E-03     12.6995E-03
             579            1305     12.8791E-03     12.6995E-03
             580            1306     11.8044E-03     12.0032E-03
             620            1306     11.8044E-03     12.0032E-03
             619            1306     11.8044E-03     12.0032E-03
             579            1306     11.8044E-03     12.0032E-03
             621            1307     11.3828E-03     11.2581E-03
             620            1307     11.3828E-03     11.2581E-03
             580            1307     11.3828E-03     11.2581E-03
             581            1307     11.3828E-03     11.2581E-03
             622            1308     11.3757E-03     11.1744E-03
             581            1308     11.3757E-03     11.1744E-03
             582            1308     11.3757E-03     11.1744E-03
             621            1308     11.3757E-03     11.1744E-03
             622            1309     10.9803E-03     11.0461E-03
             623            1309     10.9803E-03     11.0461E-03
             583            1309     10.9803E-03     11.0461E-03
             582            1309     10.9803E-03     11.0461E-03
             624            1310     10.8610E-03     10.6996E-03
             584            1310     10.8610E-03     10.6996E-03
             623            1310     10.8610E-03     10.6996E-03
             583            1310     10.8610E-03     10.6996E-03
             625            1311     40.2608E-03     45.3050E-03
             585            1311     40.2608E-03     45.3050E-03
             626            1311     40.2608E-03     45.3050E-03
             586            1311     40.2608E-03     45.3050E-03
             586            1312     46.2378E-03     44.5641E-03
             627            1312     46.2378E-03     44.5641E-03
             626            1312     46.2378E-03     44.5641E-03
             587            1312     46.2378E-03     44.5641E-03
             588            1313     47.9385E-03     43.7738E-03
             587            1313     47.9385E-03     43.7738E-03
             628            1313     47.9385E-03     43.7738E-03
             627            1313     47.9385E-03     43.7738E-03
             629            1314     42.1797E-03     44.2020E-03
             628            1314     42.1797E-03     44.2020E-03
             588            1314     42.1797E-03     44.2020E-03
             589            1314     42.1797E-03     44.2020E-03
             630            1315     41.5534E-03     40.5189E-03
             629            1315     41.5534E-03     40.5189E-03
             589            1315     41.5534E-03     40.5189E-03
             590            1315     41.5534E-03     40.5189E-03
             590            1316     39.8761E-03     39.4074E-03
             631            1316     39.8761E-03     39.4074E-03
             591            1316     39.8761E-03     39.4074E-03
             630            1316     39.8761E-03     39.4074E-03
             631            1317     38.1440E-03     38.1113E-03
             591            1317     38.1440E-03     38.1113E-03
             632            1317     38.1440E-03     38.1113E-03
             592            1317     38.1440E-03     38.1113E-03
             632            1318     36.8477E-03     36.5709E-03
             633            1318     36.8477E-03     36.5709E-03
             593            1318     36.8477E-03     36.5709E-03
             592            1318     36.8477E-03     36.5709E-03
             634            1319     34.8844E-03     36.5276E-03
             594            1319     34.8844E-03     36.5276E-03
             633            1319     34.8844E-03     36.5276E-03
             593            1319     34.8844E-03     36.5276E-03
             594            1320     35.4672E-03     34.1146E-03
             595            1320     35.4672E-03     34.1146E-03
             634            1320     35.4672E-03     34.1146E-03
             635            1320     35.4672E-03     34.1146E-03
             595            1321     32.8366E-03     32.1359E-03
             636            1321     32.8366E-03     32.1359E-03
             635            1321     32.8366E-03     32.1359E-03
             596            1321     32.8366E-03     32.1359E-03
             596            1322     28.4597E-03     34.0851E-03
             637            1322     28.4597E-03     34.0851E-03
             636            1322     28.4597E-03     34.0851E-03
             597            1322     28.4597E-03     34.0851E-03
             597            1323     33.3009E-03     32.1389E-03
             598            1323     33.3009E-03     32.1389E-03
             638            1323     33.3009E-03     32.1389E-03
             637            1323     33.3009E-03     32.1389E-03
             639            1324     34.2531E-03     31.2442E-03
             598            1324     34.2531E-03     31.2442E-03
             638            1324     34.2531E-03     31.2442E-03
             599            1324     34.2531E-03     31.2442E-03
             600            1325     29.8529E-03     31.2574E-03
             640            1325     29.8529E-03     31.2574E-03
             639            1325     29.8529E-03     31.2574E-03
             599            1325     29.8529E-03     31.2574E-03
             640            1326     29.1307E-03     28.4176E-03
             600            1326     29.1307E-03     28.4176E-03
             601            1326     29.1307E-03     28.4176E-03
             641            1326     29.1307E-03     28.4176E-03
             601            1327     27.7222E-03     27.2601E-03
             642            1327     27.7222E-03     27.2601E-03
             602            1327     27.7222E-03     27.2601E-03
             641            1327     27.7222E-03     27.2601E-03
             603            1328     26.0375E-03     26.1576E-03
             602            1328     26.0375E-03     26.1576E-03
             642            1328     26.0375E-03     26.1576E-03
             643            1328     26.0375E-03     26.1576E-03
             644            1329     24.9439E-03     24.8476E-03
             604            1329     24.9439E-03     24.8476E-03
             643            1329     24.9439E-03     24.8476E-03
             603            1329     24.9439E-03     24.8476E-03
             645            1330     23.7181E-03     23.7865E-03
             605            1330     23.7181E-03     23.7865E-03
             644            1330     23.7181E-03     23.7865E-03
             604            1330     23.7181E-03     23.7865E-03
             605            1331     22.2341E-03     23.2715E-03
             645            1331     22.2341E-03     23.2715E-03
             606            1331     22.2341E-03     23.2715E-03
             646            1331     22.2341E-03     23.2715E-03
             607            1332     21.9903E-03     21.6184E-03
             606            1332     21.9903E-03     21.6184E-03
             646            1332     21.9903E-03     21.6184E-03
             647            1332     21.9903E-03     21.6184E-03
             608            1333     20.3960E-03     20.1471E-03
             647            1333     20.3960E-03     20.1471E-03
             648            1333     20.3960E-03     20.1471E-03
             607            1333     20.3960E-03     20.1471E-03
             608            1334     18.0304E-03     20.8987E-03
             648            1334     18.0304E-03     20.8987E-03
             609            1334     18.0304E-03     20.8987E-03
             649            1334     18.0304E-03     20.8987E-03
             609            1335     20.4081E-03     19.7221E-03
             649            1335     20.4081E-03     19.7221E-03
             610            1335     20.4081E-03     19.7221E-03
             650            1335     20.4081E-03     19.7221E-03
             610            1336     20.6480E-03     18.8819E-03
             651            1336     20.6480E-03     18.8819E-03
             650            1336     20.6480E-03     18.8819E-03
             611            1336     20.6480E-03     18.8819E-03
             612            1337     17.8796E-03     18.5900E-03
             611            1337     17.8796E-03     18.5900E-03
             652            1337     17.8796E-03     18.5900E-03
             651            1337     17.8796E-03     18.5900E-03
             652            1338     17.1898E-03     16.8138E-03
             653            1338     17.1898E-03     16.8138E-03
             613            1338     17.1898E-03     16.8138E-03
             612            1338     17.1898E-03     16.8138E-03
             614            1339     16.1587E-03     15.9901E-03
             653            1339     16.1587E-03     15.9901E-03
             654            1339     16.1587E-03     15.9901E-03
             613            1339     16.1587E-03     15.9901E-03
             654            1340     15.0307E-03     15.1473E-03
             615            1340     15.0307E-03     15.1473E-03
             614            1340     15.0307E-03     15.1473E-03
             655            1340     15.0307E-03     15.1473E-03
             616            1341     14.1369E-03     14.2406E-03
             655            1341     14.1369E-03     14.2406E-03
             615            1341     14.1369E-03     14.2406E-03
             656            1341     14.1369E-03     14.2406E-03
             657            1342     13.1771E-03     13.5521E-03
             656            1342     13.1771E-03     13.5521E-03
             616            1342     13.1771E-03     13.5521E-03
             617            1342     13.1771E-03     13.5521E-03
             617            1343     12.4470E-03     12.6809E-03
             657            1343     12.4470E-03     12.6809E-03
             658            1343     12.4470E-03     12.6809E-03
             618            1343     12.4470E-03     12.6809E-03
             658            1344     11.7846E-03     11.7734E-03
             659            1344     11.7846E-03     11.7734E-03
             619            1344     11.7846E-03     11.7734E-03
             618            1344     11.7846E-03     11.7734E-03
             619            1345     10.7265E-03     11.2505E-03
             620            1345     10.7265E-03     11.2505E-03
             660            1345     10.7265E-03     11.2505E-03
             659            1345     10.7265E-03     11.2505E-03
             621            1346     10.6826E-03     10.5432E-03
             660            1346     10.6826E-03     10.5432E-03
             620            1346     10.6826E-03     10.5432E-03
             661            1346     10.6826E-03     10.5432E-03
             661            1347     10.5281E-03     10.1586E-03
             621            1347     10.5281E-03     10.1586E-03
             662            1347     10.5281E-03     10.1586E-03
             622            1347     10.5281E-03     10.1586E-03
             663            1348     9.71017E-03     9.94019E-03
             662            1348     9.71017E-03     9.94019E-03
             622            1348     9.71017E-03     9.94019E-03
             623            1348     9.71017E-03     9.94019E-03
             663            1349     9.52602E-03     9.38641E-03
             624            1349     9.52602E-03     9.38641E-03
             664            1349     9.52602E-03     9.38641E-03
             623            1349     9.52602E-03     9.38641E-03
             626            1350     49.3276E-03     57.4223E-03
             665            1350     49.3276E-03     57.4223E-03
             625            1350     49.3276E-03     57.4223E-03
             666            1350     49.3276E-03     57.4223E-03
             627            1351     57.1116E-03     55.9619E-03
             626            1351     57.1116E-03     55.9619E-03
             666            1351     57.1116E-03     55.9619E-03
             667            1351     57.1116E-03     55.9619E-03
             668            1352     58.4417E-03     53.0276E-03
             628            1352     58.4417E-03     53.0276E-03
             627            1352     58.4417E-03     53.0276E-03
             667            1352     58.4417E-03     53.0276E-03
             628            1353     49.8444E-03     53.5785E-03
             668            1353     49.8444E-03     53.5785E-03
             629            1353     49.8444E-03     53.5785E-03
             669            1353     49.8444E-03     53.5785E-03
             670            1354     48.7597E-03     48.3746E-03
             669            1354     48.7597E-03     48.3746E-03
             630            1354     48.7597E-03     48.3746E-03
             629            1354     48.7597E-03     48.3746E-03
             631            1355     46.4346E-03     46.7737E-03
             671            1355     46.4346E-03     46.7737E-03
             670            1355     46.4346E-03     46.7737E-03
             630            1355     46.4346E-03     46.7737E-03
             631            1356     44.1981E-03     44.9357E-03
             672            1356     44.1981E-03     44.9357E-03
             671            1356     44.1981E-03     44.9357E-03
             632            1356     44.1981E-03     44.9357E-03
             633            1357     42.8435E-03     42.7446E-03
             673            1357     42.8435E-03     42.7446E-03
             672            1357     42.8435E-03     42.7446E-03
             632            1357     42.8435E-03     42.7446E-03
             633            1358     40.6914E-03     43.1709E-03
             634            1358     40.6914E-03     43.1709E-03
             673            1358     40.6914E-03     43.1709E-03
             674            1358     40.6914E-03     43.1709E-03
             675            1359     42.7998E-03     40.7585E-03
             674            1359     42.7998E-03     40.7585E-03
             635            1359     42.7998E-03     40.7585E-03
             634            1359     42.7998E-03     40.7585E-03
             676            1360     40.0710E-03     39.7615E-03
             635            1360     40.0710E-03     39.7615E-03
             675            1360     40.0710E-03     39.7615E-03
             636            1360     40.0710E-03     39.7615E-03
             637            1361     33.9857E-03     43.5513E-03
             676            1361     33.9857E-03     43.5513E-03
             636            1361     33.9857E-03     43.5513E-03
             677            1361     33.9857E-03     43.5513E-03
             677            1362     40.2817E-03     39.4930E-03
             637            1362     40.2817E-03     39.4930E-03
             678            1362     40.2817E-03     39.4930E-03
             638            1362     40.2817E-03     39.4930E-03
             639            1363     40.9899E-03     37.1210E-03
             678            1363     40.9899E-03     37.1210E-03
             638            1363     40.9899E-03     37.1210E-03
             679            1363     40.9899E-03     37.1210E-03
             680            1364     34.5672E-03     37.2556E-03
             679            1364     34.5672E-03     37.2556E-03
             639            1364     34.5672E-03     37.2556E-03
             640            1364     34.5672E-03     37.2556E-03
             681            1365     33.4439E-03     33.2920E-03
             641            1365     33.4439E-03     33.2920E-03
             680            1365     33.4439E-03     33.2920E-03
             640            1365     33.4439E-03     33.2920E-03
             682            1366     31.5244E-03     31.6046E-03
             642            1366     31.5244E-03     31.6046E-03
             681            1366     31.5244E-03     31.6046E-03
             641            1366     31.5244E-03     31.6046E-03
             682            1367     29.2008E-03     29.9795E-03
             642            1367     29.2008E-03     29.9795E-03
             643            1367     29.2008E-03     29.9795E-03
             683            1367     29.2008E-03     29.9795E-03
             643            1368     27.8671E-03     28.0787E-03
             684            1368     27.8671E-03     28.0787E-03
             644            1368     27.8671E-03     28.0787E-03
             683            1368     27.8671E-03     28.0787E-03
             685            1369     26.4206E-03     26.5641E-03
             645            1369     26.4206E-03     26.5641E-03
             684            1369     26.4206E-03     26.5641E-03
             644            1369     26.4206E-03     26.5641E-03
             645            1370     24.7002E-03     26.1500E-03
             686            1370     24.7002E-03     26.1500E-03
             685            1370     24.7002E-03     26.1500E-03
             646            1370     24.7002E-03     26.1500E-03
             686            1371     25.1912E-03     24.4879E-03
             687            1371     25.1912E-03     24.4879E-03
             647            1371     25.1912E-03     24.4879E-03
             646            1371     25.1912E-03     24.4879E-03
             688            1372     23.3780E-03     23.4150E-03
             648            1372     23.3780E-03     23.4150E-03
             687            1372     23.3780E-03     23.4150E-03
             647            1372     23.3780E-03     23.4150E-03
             648            1373     19.9887E-03     25.1358E-03
             649            1373     19.9887E-03     25.1358E-03
             689            1373     19.9887E-03     25.1358E-03
             688            1373     19.9887E-03     25.1358E-03
             690            1374     23.1866E-03     22.7112E-03
             650            1374     23.1866E-03     22.7112E-03
             689            1374     23.1866E-03     22.7112E-03
             649            1374     23.1866E-03     22.7112E-03
             650            1375     23.2417E-03     20.9255E-03
             690            1375     23.2417E-03     20.9255E-03
             691            1375     23.2417E-03     20.9255E-03
             651            1375     23.2417E-03     20.9255E-03
             652            1376     19.1890E-03     20.6470E-03
             691            1376     19.1890E-03     20.6470E-03
             692            1376     19.1890E-03     20.6470E-03
             651            1376     19.1890E-03     20.6470E-03
             692            1377     18.1533E-03     17.9727E-03
             652            1377     18.1533E-03     17.9727E-03
             693            1377     18.1533E-03     17.9727E-03
             653            1377     18.1533E-03     17.9727E-03
             693            1378     16.6546E-03     16.6135E-03
             654            1378     16.6546E-03     16.6135E-03
             653            1378     16.6546E-03     16.6135E-03
             694            1378     16.6546E-03     16.6135E-03
             654            1379     15.0173E-03     15.2640E-03
             655            1379     15.0173E-03     15.2640E-03
             694            1379     15.0173E-03     15.2640E-03
             695            1379     15.0173E-03     15.2640E-03
             696            1380     13.8379E-03     13.8468E-03
             695            1380     13.8379E-03     13.8468E-03
             656            1380     13.8379E-03     13.8468E-03
             655            1380     13.8379E-03     13.8468E-03
             697            1381     12.5432E-03     13.0055E-03
             696            1381     12.5432E-03     13.0055E-03
             657            1381     12.5432E-03     13.0055E-03
             656            1381     12.5432E-03     13.0055E-03
             658            1382     11.7260E-03     12.0595E-03
             698            1382     11.7260E-03     12.0595E-03
             657            1382     11.7260E-03     12.0595E-03
             697            1382     11.7260E-03     12.0595E-03
             659            1383     10.8138E-03     11.0259E-03
             658            1383     10.8138E-03     11.0259E-03
             699            1383     10.8138E-03     11.0259E-03
             698            1383     10.8138E-03     11.0259E-03
             659            1384     9.43285E-03     10.6354E-03
             700            1384     9.43285E-03     10.6354E-03
             699            1384     9.43285E-03     10.6354E-03
             660            1384     9.43285E-03     10.6354E-03
             700            1385     9.65712E-03     9.47606E-03
             701            1385     9.65712E-03     9.47606E-03
             661            1385     9.65712E-03     9.47606E-03
             660            1385     9.65712E-03     9.47606E-03
             661            1386     9.38587E-03     8.73481E-03
             702            1386     9.38587E-03     8.73481E-03
             662            1386     9.38587E-03     8.73481E-03
             701            1386     9.38587E-03     8.73481E-03
             663            1387     8.04332E-03     8.58718E-03
             702            1387     8.04332E-03     8.58718E-03
             662            1387     8.04332E-03     8.58718E-03
             703            1387     8.04332E-03     8.58718E-03
             703            1388     7.68282E-03     7.64291E-03
             663            1388     7.68282E-03     7.64291E-03
             664            1388     7.68282E-03     7.64291E-03
             704            1388     7.68282E-03     7.64291E-03
             706            1389     56.4443E-03     66.6730E-03
             705            1389     56.4443E-03     66.6730E-03
             666            1389     56.4443E-03     66.6730E-03
             665            1389     56.4443E-03     66.6730E-03
             666            1390     65.8239E-03     65.5701E-03
             667            1390     65.8239E-03     65.5701E-03
             707            1390     65.8239E-03     65.5701E-03
             706            1390     65.8239E-03     65.5701E-03
             707            1391     66.3511E-03     61.6311E-03
             667            1391     66.3511E-03     61.6311E-03
             708            1391     66.3511E-03     61.6311E-03
             668            1391     66.3511E-03     61.6311E-03
             669            1392     55.7003E-03     61.8225E-03
             668            1392     55.7003E-03     61.8225E-03
             708            1392     55.7003E-03     61.8225E-03
             709            1392     55.7003E-03     61.8225E-03
             669            1393     54.8067E-03     55.5527E-03
             710            1393     54.8067E-03     55.5527E-03
             670            1393     54.8067E-03     55.5527E-03
             709            1393     54.8067E-03     55.5527E-03
             670            1394     51.7125E-03     53.6627E-03
             671            1394     51.7125E-03     53.6627E-03
             711            1394     51.7125E-03     53.6627E-03
             710            1394     51.7125E-03     53.6627E-03
             671            1395     48.9615E-03     51.2015E-03
             672            1395     48.9615E-03     51.2015E-03
             712            1395     48.9615E-03     51.2015E-03
             711            1395     48.9615E-03     51.2015E-03
             672            1396     47.3912E-03     48.1868E-03
             712            1396     47.3912E-03     48.1868E-03
             673            1396     47.3912E-03     48.1868E-03
             713            1396     47.3912E-03     48.1868E-03
             713            1397     44.3809E-03     48.2213E-03
             674            1397     44.3809E-03     48.2213E-03
             714            1397     44.3809E-03     48.2213E-03
             673            1397     44.3809E-03     48.2213E-03
             675            1398     47.4088E-03     45.5027E-03
             714            1398     47.4088E-03     45.5027E-03
             715            1398     47.4088E-03     45.5027E-03
             674            1398     47.4088E-03     45.5027E-03
             716            1399     45.5386E-03     45.3869E-03
             676            1399     45.5386E-03     45.3869E-03
             715            1399     45.5386E-03     45.3869E-03
             675            1399     45.5386E-03     45.3869E-03
             677            1400     38.7198E-03     50.7587E-03
             717            1400     38.7198E-03     50.7587E-03
             676            1400     38.7198E-03     50.7587E-03
             716            1400     38.7198E-03     50.7587E-03
             718            1401     46.0202E-03     45.8440E-03
             717            1401     46.0202E-03     45.8440E-03
             678            1401     46.0202E-03     45.8440E-03
             677            1401     46.0202E-03     45.8440E-03
             719            1402     46.2522E-03     42.8259E-03
             718            1402     46.2522E-03     42.8259E-03
             679            1402     46.2522E-03     42.8259E-03
             678            1402     46.2522E-03     42.8259E-03
             679            1403     38.3583E-03     42.6346E-03
             719            1403     38.3583E-03     42.6346E-03
             720            1403     38.3583E-03     42.6346E-03
             680            1403     38.3583E-03     42.6346E-03
             681            1404     37.2500E-03     37.8031E-03
             721            1404     37.2500E-03     37.8031E-03
             720            1404     37.2500E-03     37.8031E-03
             680            1404     37.2500E-03     37.8031E-03
             722            1405     34.7498E-03     35.8244E-03
             721            1405     34.7498E-03     35.8244E-03
             682            1405     34.7498E-03     35.8244E-03
             681            1405     34.7498E-03     35.8244E-03
             683            1406     31.9618E-03     33.6288E-03
             682            1406     31.9618E-03     33.6288E-03
             723            1406     31.9618E-03     33.6288E-03
             722            1406     31.9618E-03     33.6288E-03
             723            1407     30.2447E-03     31.2342E-03
             724            1407     30.2447E-03     31.2342E-03
             683            1407     30.2447E-03     31.2342E-03
             684            1407     30.2447E-03     31.2342E-03
             684            1408     28.3775E-03     29.0503E-03
             725            1408     28.3775E-03     29.0503E-03
             724            1408     28.3775E-03     29.0503E-03
             685            1408     28.3775E-03     29.0503E-03
             685            1409     26.1481E-03     28.1535E-03
             726            1409     26.1481E-03     28.1535E-03
             725            1409     26.1481E-03     28.1535E-03
             686            1409     26.1481E-03     28.1535E-03
             687            1410     27.0116E-03     26.2589E-03
             726            1410     27.0116E-03     26.2589E-03
             686            1410     27.0116E-03     26.2589E-03
             727            1410     27.0116E-03     26.2589E-03
             687            1411     25.7291E-03     25.7025E-03
             727            1411     25.7291E-03     25.7025E-03
             728            1411     25.7291E-03     25.7025E-03
             688            1411     25.7291E-03     25.7025E-03
             688            1412     21.9279E-03     28.5208E-03
             689            1412     21.9279E-03     28.5208E-03
             728            1412     21.9279E-03     28.5208E-03
             729            1412     21.9279E-03     28.5208E-03
             689            1413     25.8026E-03     25.7337E-03
             729            1413     25.8026E-03     25.7337E-03
             690            1413     25.8026E-03     25.7337E-03
             730            1413     25.8026E-03     25.7337E-03
             691            1414     25.6240E-03     23.5209E-03
             731            1414     25.6240E-03     23.5209E-03
             690            1414     25.6240E-03     23.5209E-03
             730            1414     25.6240E-03     23.5209E-03
             732            1415     20.4843E-03     22.8631E-03
             731            1415     20.4843E-03     22.8631E-03
             691            1415     20.4843E-03     22.8631E-03
             692            1415     20.4843E-03     22.8631E-03
             692            1416     19.2167E-03     19.3667E-03
             733            1416     19.2167E-03     19.3667E-03
             732            1416     19.2167E-03     19.3667E-03
             693            1416     19.2167E-03     19.3667E-03
             734            1417     17.1114E-03     17.5466E-03
             693            1417     17.1114E-03     17.5466E-03
             694            1417     17.1114E-03     17.5466E-03
             733            1417     17.1114E-03     17.5466E-03
             694            1418     14.9455E-03     15.6015E-03
             735            1418     14.9455E-03     15.6015E-03
             734            1418     14.9455E-03     15.6015E-03
             695            1418     14.9455E-03     15.6015E-03
             735            1419     13.3848E-03     13.5575E-03
             695            1419     13.3848E-03     13.5575E-03
             696            1419     13.3848E-03     13.5575E-03
             736            1419     13.3848E-03     13.5575E-03
             697            1420     11.6414E-03     12.1633E-03
             696            1420     11.6414E-03     12.1633E-03
             737            1420     11.6414E-03     12.1633E-03
             736            1420     11.6414E-03     12.1633E-03
             738            1421     10.7998E-03     10.9675E-03
             697            1421     10.7998E-03     10.9675E-03
             737            1421     10.7998E-03     10.9675E-03
             698            1421     10.7998E-03     10.9675E-03
             699            1422     10.0541E-03     10.1127E-03
             698            1422     10.0541E-03     10.1127E-03
             738            1422     10.0541E-03     10.1127E-03
             739            1422     10.0541E-03     10.1127E-03
             699            1423     8.31044E-03     10.2079E-03
             740            1423     8.31044E-03     10.2079E-03
             739            1423     8.31044E-03     10.2079E-03
             700            1423     8.31044E-03     10.2079E-03
             700            1424     8.69072E-03     8.72701E-03
             740            1424     8.69072E-03     8.72701E-03
             701            1424     8.69072E-03     8.72701E-03
             741            1424     8.69072E-03     8.72701E-03
             701            1425     8.17401E-03     7.24573E-03
             742            1425     8.17401E-03     7.24573E-03
             702            1425     8.17401E-03     7.24573E-03
             741            1425     8.17401E-03     7.24573E-03
             702            1426     5.98288E-03     6.69657E-03
             743            1426     5.98288E-03     6.69657E-03
             742            1426     5.98288E-03     6.69657E-03
             703            1426     5.98288E-03     6.69657E-03
             704            1427     5.49105E-03     5.41808E-03
             703            1427     5.49105E-03     5.41808E-03
             744            1427     5.49105E-03     5.41808E-03
             743            1427     5.49105E-03     5.41808E-03
             705            1428     63.8456E-03     72.0972E-03
             746            1428     63.8456E-03     72.0972E-03
             745            1428     63.8456E-03     72.0972E-03
             706            1428     63.8456E-03     72.0972E-03
             747            1429     73.4082E-03     72.1777E-03
             746            1429     73.4082E-03     72.1777E-03
             706            1429     73.4082E-03     72.1777E-03
             707            1429     73.4082E-03     72.1777E-03
             747            1430     71.1930E-03     67.2634E-03
             748            1430     71.1930E-03     67.2634E-03
             708            1430     71.1930E-03     67.2634E-03
             707            1430     71.1930E-03     67.2634E-03
             708            1431     61.4865E-03     66.0990E-03
             748            1431     61.4865E-03     66.0990E-03
             749            1431     61.4865E-03     66.0990E-03
             709            1431     61.4865E-03     66.0990E-03
             710            1432     60.3053E-03     60.1835E-03
             749            1432     60.3053E-03     60.1835E-03
             750            1432     60.3053E-03     60.1835E-03
             709            1432     60.3053E-03     60.1835E-03
             750            1433     56.7390E-03     58.0550E-03
             711            1433     56.7390E-03     58.0550E-03
             751            1433     56.7390E-03     58.0550E-03
             710            1433     56.7390E-03     58.0550E-03
             752            1434     53.8107E-03     55.0884E-03
             711            1434     53.8107E-03     55.0884E-03
             751            1434     53.8107E-03     55.0884E-03
             712            1434     53.8107E-03     55.0884E-03
             753            1435     51.4919E-03     51.7170E-03
             713            1435     51.4919E-03     51.7170E-03
             712            1435     51.4919E-03     51.7170E-03
             752            1435     51.4919E-03     51.7170E-03
             714            1436     47.8184E-03     50.3993E-03
             754            1436     47.8184E-03     50.3993E-03
             713            1436     47.8184E-03     50.3993E-03
             753            1436     47.8184E-03     50.3993E-03
             754            1437     48.8367E-03     46.8182E-03
             714            1437     48.8367E-03     46.8182E-03
             755            1437     48.8367E-03     46.8182E-03
             715            1437     48.8367E-03     46.8182E-03
             756            1438     47.0579E-03     45.5817E-03
             715            1438     47.0579E-03     45.5817E-03
             716            1438     47.0579E-03     45.5817E-03
             755            1438     47.0579E-03     45.5817E-03
             756            1439     43.9192E-03     52.8009E-03
             716            1439     43.9192E-03     52.8009E-03
             757            1439     43.9192E-03     52.8009E-03
             717            1439     43.9192E-03     52.8009E-03
             717            1440     51.4752E-03     50.6963E-03
             718            1440     51.4752E-03     50.6963E-03
             758            1440     51.4752E-03     50.6963E-03
             757            1440     51.4752E-03     50.6963E-03
             718            1441     49.5737E-03     46.7531E-03
             758            1441     49.5737E-03     46.7531E-03
             759            1441     49.5737E-03     46.7531E-03
             719            1441     49.5737E-03     46.7531E-03
             719            1442     42.1687E-03     45.4196E-03
             759            1442     42.1687E-03     45.4196E-03
             720            1442     42.1687E-03     45.4196E-03
             760            1442     42.1687E-03     45.4196E-03
             721            1443     40.8016E-03     40.6948E-03
             761            1443     40.8016E-03     40.6948E-03
             720            1443     40.8016E-03     40.6948E-03
             760            1443     40.8016E-03     40.6948E-03
             721            1444     37.8240E-03     38.5848E-03
             762            1444     37.8240E-03     38.5848E-03
             761            1444     37.8240E-03     38.5848E-03
             722            1444     37.8240E-03     38.5848E-03
             762            1445     35.0942E-03     35.9470E-03
             723            1445     35.0942E-03     35.9470E-03
             722            1445     35.0942E-03     35.9470E-03
             763            1445     35.0942E-03     35.9470E-03
             764            1446     32.7677E-03     33.3522E-03
             723            1446     32.7677E-03     33.3522E-03
             763            1446     32.7677E-03     33.3522E-03
             724            1446     32.7677E-03     33.3522E-03
             765            1447     30.4225E-03     30.6526E-03
             724            1447     30.4225E-03     30.6526E-03
             764            1447     30.4225E-03     30.6526E-03
             725            1447     30.4225E-03     30.6526E-03
             725            1448     27.5614E-03     28.8225E-03
             765            1448     27.5614E-03     28.8225E-03
             766            1448     27.5614E-03     28.8225E-03
             726            1448     27.5614E-03     28.8225E-03
             767            1449     27.0414E-03     26.0306E-03
             766            1449     27.0414E-03     26.0306E-03
             726            1449     27.0414E-03     26.0306E-03
             727            1449     27.0414E-03     26.0306E-03
             728            1450     25.4833E-03     24.5158E-03
             768            1450     25.4833E-03     24.5158E-03
             767            1450     25.4833E-03     24.5158E-03
             727            1450     25.4833E-03     24.5158E-03
             769            1451     24.4331E-03     29.2676E-03
             728            1451     24.4331E-03     29.2676E-03
             768            1451     24.4331E-03     29.2676E-03
             729            1451     24.4331E-03     29.2676E-03
             770            1452     29.1846E-03     28.8698E-03
             729            1452     29.1846E-03     28.8698E-03
             769            1452     29.1846E-03     28.8698E-03
             730            1452     29.1846E-03     28.8698E-03
             770            1453     27.4501E-03     25.7562E-03
             730            1453     27.4501E-03     25.7562E-03
             771            1453     27.4501E-03     25.7562E-03
             731            1453     27.4501E-03     25.7562E-03
             731            1454     22.2654E-03     24.1487E-03
             772            1454     22.2654E-03     24.1487E-03
             732            1454     22.2654E-03     24.1487E-03
             771            1454     22.2654E-03     24.1487E-03
             732            1455     20.6433E-03     20.4948E-03
             772            1455     20.6433E-03     20.4948E-03
             773            1455     20.6433E-03     20.4948E-03
             733            1455     20.6433E-03     20.4948E-03
             773            1456     18.0539E-03     18.4324E-03
             774            1456     18.0539E-03     18.4324E-03
             734            1456     18.0539E-03     18.4324E-03
             733            1456     18.0539E-03     18.4324E-03
             734            1457     15.6772E-03     16.0242E-03
             775            1457     15.6772E-03     16.0242E-03
             735            1457     15.6772E-03     16.0242E-03
             774            1457     15.6772E-03     16.0242E-03
             735            1458     13.5038E-03     13.6245E-03
             776            1458     13.5038E-03     13.6245E-03
             736            1458     13.5038E-03     13.6245E-03
             775            1458     13.5038E-03     13.6245E-03
             777            1459     11.2189E-03     11.4221E-03
             776            1459     11.2189E-03     11.4221E-03
             737            1459     11.2189E-03     11.4221E-03
             736            1459     11.2189E-03     11.4221E-03
             737            1460     9.41945E-03     9.28270E-03
             777            1460     9.41945E-03     9.28270E-03
             738            1460     9.41945E-03     9.28270E-03
             778            1460     9.41945E-03     9.28270E-03
             779            1461     8.07620E-03     7.58725E-03
             778            1461     8.07620E-03     7.58725E-03
             738            1461     8.07620E-03     7.58725E-03
             739            1461     8.07620E-03     7.58725E-03
             779            1462     8.02116E-03     9.50725E-03
             780            1462     8.02116E-03     9.50725E-03
             739            1462     8.02116E-03     9.50725E-03
             740            1462     8.02116E-03     9.50725E-03
             741            1463     9.44868E-03     9.58182E-03
             780            1463     9.44868E-03     9.58182E-03
             740            1463     9.44868E-03     9.58182E-03
             781            1463     9.44868E-03     9.58182E-03
             781            1464     7.59018E-03     6.67221E-03
             782            1464     7.59018E-03     6.67221E-03
             742            1464     7.59018E-03     6.67221E-03
             741            1464     7.59018E-03     6.67221E-03
             782            1465     4.14216E-03     4.85976E-03
             743            1465     4.14216E-03     4.85976E-03
             742            1465     4.14216E-03     4.85976E-03
             783            1465     4.14216E-03     4.85976E-03
             743            1466     2.88150E-03     3.23691E-03
             744            1466     2.88150E-03     3.23691E-03
             783            1466     2.88150E-03     3.23691E-03
             784            1466     2.88150E-03     3.23691E-03
            1761            2351     632.547E-06     621.633E-06
            1757            2351     632.547E-06     621.633E-06
            1762            2351     632.547E-06     621.633E-06
            1758            2351     632.547E-06     621.633E-06
            1759            2352     636.364E-06     627.315E-06
            1758            2352     636.364E-06     627.315E-06
            1763            2352     636.364E-06     627.315E-06
            1762            2352     636.364E-06     627.315E-06
            1760            2353     628.174E-06     624.082E-06
            1759            2353     628.174E-06     624.082E-06
            1763            2353     628.174E-06     624.082E-06
            1764            2353     628.174E-06     624.082E-06
            1765            2354     583.486E-06     576.813E-06
            1762            2354     583.486E-06     576.813E-06
            1766            2354     583.486E-06     576.813E-06
            1761            2354     583.486E-06     576.813E-06
            1766            2355     587.965E-06     577.850E-06
            1767            2355     587.965E-06     577.850E-06
            1762            2355     587.965E-06     577.850E-06
            1763            2355     587.965E-06     577.850E-06
            1767            2356     575.512E-06     572.367E-06
            1768            2356     575.512E-06     572.367E-06
            1763            2356     575.512E-06     572.367E-06
            1764            2356     575.512E-06     572.367E-06
            1769            2357     510.864E-06     507.907E-06
            1765            2357     510.864E-06     507.907E-06
            1770            2357     510.864E-06     507.907E-06
            1766            2357     510.864E-06     507.907E-06
            1766            2358     510.541E-06     496.016E-06
            1770            2358     510.541E-06     496.016E-06
            1771            2358     510.541E-06     496.016E-06
            1767            2358     510.541E-06     496.016E-06
            1771            2359     491.464E-06     490.046E-06
            1767            2359     491.464E-06     490.046E-06
            1772            2359     491.464E-06     490.046E-06
            1768            2359     491.464E-06     490.046E-06
            1773            2360     415.038E-06     418.698E-06
            1769            2360     415.038E-06     418.698E-06
            1770            2360     415.038E-06     418.698E-06
            1774            2360     415.038E-06     418.698E-06
            1770            2361     410.253E-06     396.137E-06
            1775            2361     410.253E-06     396.137E-06
            1774            2361     410.253E-06     396.137E-06
            1771            2361     410.253E-06     396.137E-06
            1772            2362     377.804E-06     385.431E-06
            1775            2362     377.804E-06     385.431E-06
            1771            2362     377.804E-06     385.431E-06
            1776            2362     377.804E-06     385.431E-06
            1773            2363     316.487E-06     324.635E-06
            1777            2363     316.487E-06     324.635E-06
            1774            2363     316.487E-06     324.635E-06
            1778            2363     316.487E-06     324.635E-06
            1775            2364     302.739E-06     275.460E-06
            1774            2364     302.739E-06     275.460E-06
            1779            2364     302.739E-06     275.460E-06
            1778            2364     302.739E-06     275.460E-06
            1779            2365     241.323E-06     259.563E-06
            1775            2365     241.323E-06     259.563E-06
            1776            2365     241.323E-06     259.563E-06
            1780            2365     241.323E-06     259.563E-06
            1782            2366     346.807E-06     356.476E-06
            1781            2366     346.807E-06     356.476E-06
            1777            2366     346.807E-06     356.476E-06
            1778            2366     346.807E-06     356.476E-06
            1778            2367     267.231E-06     227.605E-06
            1782            2367     267.231E-06     227.605E-06
            1783            2367     267.231E-06     227.605E-06
            1779            2367     267.231E-06     227.605E-06
            1780            2368     163.797E-06     216.392E-06
            1779            2368     163.797E-06     216.392E-06
            1783            2368     163.797E-06     216.392E-06
            1784            2368     163.797E-06     216.392E-06
            2349            2836     99.7940E-03     104.165E-03
            2344            2836     99.7940E-03     104.165E-03
            2343            2836     99.7940E-03     104.165E-03
            2350            2836     99.7940E-03     104.165E-03
            2351            2837     98.3237E-03     96.1963E-03
            2344            2837     98.3237E-03     96.1963E-03
            2350            2837     98.3237E-03     96.1963E-03
            2345            2837     98.3237E-03     96.1963E-03
            2351            2838     90.1271E-03     94.2618E-03
            2345            2838     90.1271E-03     94.2618E-03
            2352            2838     90.1271E-03     94.2618E-03
            2346            2838     90.1271E-03     94.2618E-03
            2347            2839     87.8991E-03     87.4730E-03
            2346            2839     87.8991E-03     87.4730E-03
            2353            2839     87.8991E-03     87.4730E-03
            2352            2839     87.8991E-03     87.4730E-03
            2353            2840     73.5563E-03     69.5295E-03
            2347            2840     73.5563E-03     69.5295E-03
            2354            2840     73.5563E-03     69.5295E-03
            2348            2840     73.5563E-03     69.5295E-03
            2356            2841     125.912E-03     128.854E-03
            2355            2841     125.912E-03     128.854E-03
            2349            2841     125.912E-03     128.854E-03
            2350            2841     125.912E-03     128.854E-03
            2351            2842     124.651E-03     121.744E-03
            2356            2842     124.651E-03     121.744E-03
            2357            2842     124.651E-03     121.744E-03
            2350            2842     124.651E-03     121.744E-03
            2351            2843     115.997E-03     119.877E-03
            2352            2843     115.997E-03     119.877E-03
            2357            2843     115.997E-03     119.877E-03
            2358            2843     115.997E-03     119.877E-03
            2353            2844     113.414E-03     112.725E-03
            2358            2844     113.414E-03     112.725E-03
            2359            2844     113.414E-03     112.725E-03
            2352            2844     113.414E-03     112.725E-03
            2359            2845     92.9874E-03     92.0767E-03
            2360            2845     92.9874E-03     92.0767E-03
            2354            2845     92.9874E-03     92.0767E-03
            2353            2845     92.9874E-03     92.0767E-03
            2361            2846     148.719E-03     150.910E-03
            2355            2846     148.719E-03     150.910E-03
            2356            2846     148.719E-03     150.910E-03
            2362            2846     148.719E-03     150.910E-03
            2362            2847     148.864E-03     145.510E-03
            2357            2847     148.864E-03     145.510E-03
            2356            2847     148.864E-03     145.510E-03
            2363            2847     148.864E-03     145.510E-03
            2358            2848     141.713E-03     144.588E-03
            2357            2848     141.713E-03     144.588E-03
            2363            2848     141.713E-03     144.588E-03
            2364            2848     141.713E-03     144.588E-03
            2364            2849     138.183E-03     136.622E-03
            2365            2849     138.183E-03     136.622E-03
            2359            2849     138.183E-03     136.622E-03
            2358            2849     138.183E-03     136.622E-03
            2360            2850     111.580E-03     111.138E-03
            2365            2850     111.580E-03     111.138E-03
            2359            2850     111.580E-03     111.138E-03
            2366            2850     111.580E-03     111.138E-03
            2367            2851     168.170E-03     171.547E-03
            2368            2851     168.170E-03     171.547E-03
            2362            2851     168.170E-03     171.547E-03
            2361            2851     168.170E-03     171.547E-03
            2368            2852     169.031E-03     166.122E-03
            2363            2852     169.031E-03     166.122E-03
            2369            2852     169.031E-03     166.122E-03
            2362            2852     169.031E-03     166.122E-03
            2370            2853     163.340E-03     164.335E-03
            2363            2853     163.340E-03     164.335E-03
            2364            2853     163.340E-03     164.335E-03
            2369            2853     163.340E-03     164.335E-03
            2371            2854     159.866E-03     155.808E-03
            2365            2854     159.866E-03     155.808E-03
            2370            2854     159.866E-03     155.808E-03
            2364            2854     159.866E-03     155.808E-03
            2365            2855     127.537E-03     126.940E-03
            2371            2855     127.537E-03     126.940E-03
            2366            2855     127.537E-03     126.940E-03
            2372            2855     127.537E-03     126.940E-03
            2374            2856     188.513E-03     189.746E-03
            2367            2856     188.513E-03     189.746E-03
            2373            2856     188.513E-03     189.746E-03
            2368            2856     188.513E-03     189.746E-03
            2374            2857     185.477E-03     184.291E-03
            2375            2857     185.477E-03     184.291E-03
            2368            2857     185.477E-03     184.291E-03
            2369            2857     185.477E-03     184.291E-03
            2369            2858     177.271E-03     179.863E-03
            2375            2858     177.271E-03     179.863E-03
            2376            2858     177.271E-03     179.863E-03
            2370            2858     177.271E-03     179.863E-03
            2371            2859     173.259E-03     170.424E-03
            2370            2859     173.259E-03     170.424E-03
            2376            2859     173.259E-03     170.424E-03
            2377            2859     173.259E-03     170.424E-03
            2377            2860     137.913E-03     139.217E-03
            2372            2860     137.913E-03     139.217E-03
            2378            2860     137.913E-03     139.217E-03
            2371            2860     137.913E-03     139.217E-03
            2373            2861     208.606E-03     205.088E-03
            2379            2861     208.606E-03     205.088E-03
            2380            2861     208.606E-03     205.088E-03
            2374            2861     208.606E-03     205.088E-03
            2375            2862     199.967E-03     198.509E-03
            2381            2862     199.967E-03     198.509E-03
            2374            2862     199.967E-03     198.509E-03
            2380            2862     199.967E-03     198.509E-03
            2382            2863     186.072E-03     190.041E-03
            2381            2863     186.072E-03     190.041E-03
            2376            2863     186.072E-03     190.041E-03
            2375            2863     186.072E-03     190.041E-03
            2383            2864     176.980E-03     179.550E-03
            2377            2864     176.980E-03     179.550E-03
            2382            2864     176.980E-03     179.550E-03
            2376            2864     176.980E-03     179.550E-03
            2377            2865     140.069E-03     145.051E-03
            2383            2865     140.069E-03     145.051E-03
            2378            2865     140.069E-03     145.051E-03
            2384            2865     140.069E-03     145.051E-03
            3502            3869     20.5353E-03     19.5032E-03
            3551            3869     20.5353E-03     19.5032E-03
            3552            3869     20.5353E-03     19.5032E-03
            3501            3869     20.5353E-03     19.5032E-03
            3502            3870     21.0232E-03     20.6906E-03
            3553            3870     21.0232E-03     20.6906E-03
            3552            3870     21.0232E-03     20.6906E-03
            3503            3870     21.0232E-03     20.6906E-03
            3503            3871     19.7490E-03     20.9666E-03
            3554            3871     19.7490E-03     20.9666E-03
            3504            3871     19.7490E-03     20.9666E-03
            3553            3871     19.7490E-03     20.9666E-03
            3504            3872     20.1636E-03     20.3171E-03
            3554            3872     20.1636E-03     20.3171E-03
            3555            3872     20.1636E-03     20.3171E-03
            3505            3872     20.1636E-03     20.3171E-03
            3555            3873     19.9931E-03     20.0966E-03
            3556            3873     19.9931E-03     20.0966E-03
            3506            3873     19.9931E-03     20.0966E-03
            3505            3873     19.9931E-03     20.0966E-03
            3557            3874     19.5984E-03     19.5693E-03
            3507            3874     19.5984E-03     19.5693E-03
            3506            3874     19.5984E-03     19.5693E-03
            3556            3874     19.5984E-03     19.5693E-03
            3558            3875     19.2322E-03     19.0933E-03
            3507            3875     19.2322E-03     19.0933E-03
            3557            3875     19.2322E-03     19.0933E-03
            3508            3875     19.2322E-03     19.0933E-03
            3509            3876     18.9804E-03     18.1464E-03
            3559            3876     18.9804E-03     18.1464E-03
            3558            3876     18.9804E-03     18.1464E-03
            3508            3876     18.9804E-03     18.1464E-03
            3510            3877     18.1486E-03     17.9824E-03
            3559            3877     18.1486E-03     17.9824E-03
            3560            3877     18.1486E-03     17.9824E-03
            3509            3877     18.1486E-03     17.9824E-03
            3511            3878     16.4216E-03     17.2542E-03
            3561            3878     16.4216E-03     17.2542E-03
            3510            3878     16.4216E-03     17.2542E-03
            3560            3878     16.4216E-03     17.2542E-03
            3511            3879     16.9995E-03     16.1612E-03
            3561            3879     16.9995E-03     16.1612E-03
            3562            3879     16.9995E-03     16.1612E-03
            3512            3879     16.9995E-03     16.1612E-03
            3562            3880     17.2714E-03     17.0420E-03
            3563            3880     17.2714E-03     17.0420E-03
            3513            3880     17.2714E-03     17.0420E-03
            3512            3880     17.2714E-03     17.0420E-03
            3513            3881     16.2690E-03     17.1630E-03
            3563            3881     16.2690E-03     17.1630E-03
            3564            3881     16.2690E-03     17.1630E-03
            3514            3881     16.2690E-03     17.1630E-03
            3514            3882     16.5303E-03     16.6195E-03
            3565            3882     16.5303E-03     16.6195E-03
            3515            3882     16.5303E-03     16.6195E-03
            3564            3882     16.5303E-03     16.6195E-03
            3516            3883     16.3618E-03     16.4740E-03
            3565            3883     16.3618E-03     16.4740E-03
            3515            3883     16.3618E-03     16.4740E-03
            3566            3883     16.3618E-03     16.4740E-03
            3516            3884     16.0831E-03     16.0602E-03
            3517            3884     16.0831E-03     16.0602E-03
            3567            3884     16.0831E-03     16.0602E-03
            3566            3884     16.0831E-03     16.0602E-03
            3568            3885     15.8362E-03     15.5896E-03
            3517            3885     15.8362E-03     15.5896E-03
            3518            3885     15.8362E-03     15.5896E-03
            3567            3885     15.8362E-03     15.5896E-03
            3518            3886     15.5298E-03     15.2461E-03
            3569            3886     15.5298E-03     15.2461E-03
            3568            3886     15.5298E-03     15.2461E-03
            3519            3886     15.5298E-03     15.2461E-03
            3570            3887     15.2305E-03     14.6057E-03
            3519            3887     15.2305E-03     14.6057E-03
            3520            3887     15.2305E-03     14.6057E-03
            3569            3887     15.2305E-03     14.6057E-03
            3520            3888     14.7090E-03     14.5579E-03
            3571            3888     14.7090E-03     14.5579E-03
            3570            3888     14.7090E-03     14.5579E-03
            3521            3888     14.7090E-03     14.5579E-03
            3522            3889     13.4629E-03     13.8407E-03
            3571            3889     13.4629E-03     13.8407E-03
            3521            3889     13.4629E-03     13.8407E-03
            3572            3889     13.4629E-03     13.8407E-03
            3572            3890     13.5708E-03     12.9686E-03
            3523            3890     13.5708E-03     12.9686E-03
            3522            3890     13.5708E-03     12.9686E-03
            3573            3890     13.5708E-03     12.9686E-03
            3574            3891     13.6743E-03     13.5537E-03
            3573            3891     13.6743E-03     13.5537E-03
            3523            3891     13.6743E-03     13.5537E-03
            3524            3891     13.6743E-03     13.5537E-03
            3524            3892     12.9841E-03     13.5451E-03
            3574            3892     12.9841E-03     13.5451E-03
            3575            3892     12.9841E-03     13.5451E-03
            3525            3892     12.9841E-03     13.5451E-03
            3525            3893     13.1118E-03     13.1566E-03
            3526            3893     13.1118E-03     13.1566E-03
            3576            3893     13.1118E-03     13.1566E-03
            3575            3893     13.1118E-03     13.1566E-03
            3526            3894     12.9662E-03     13.0215E-03
            3576            3894     12.9662E-03     13.0215E-03
            3527            3894     12.9662E-03     13.0215E-03
            3577            3894     12.9662E-03     13.0215E-03
            3528            3895     12.7630E-03     12.7317E-03
            3578            3895     12.7630E-03     12.7317E-03
            3527            3895     12.7630E-03     12.7317E-03
            3577            3895     12.7630E-03     12.7317E-03
            3528            3896     12.6045E-03     12.4315E-03
            3529            3896     12.6045E-03     12.4315E-03
            3578            3896     12.6045E-03     12.4315E-03
            3579            3896     12.6045E-03     12.4315E-03
            3529            3897     12.4489E-03     12.1943E-03
            3530            3897     12.4489E-03     12.1943E-03
            3580            3897     12.4489E-03     12.1943E-03
            3579            3897     12.4489E-03     12.1943E-03
            3530            3898     12.2235E-03     11.8583E-03
            3531            3898     12.2235E-03     11.8583E-03
            3580            3898     12.2235E-03     11.8583E-03
            3581            3898     12.2235E-03     11.8583E-03
            3532            3899     11.9615E-03     11.8718E-03
            3582            3899     11.9615E-03     11.8718E-03
            3581            3899     11.9615E-03     11.8718E-03
            3531            3899     11.9615E-03     11.8718E-03
            3532            3900     11.0568E-03     11.1081E-03
            3533            3900     11.0568E-03     11.1081E-03
            3582            3900     11.0568E-03     11.1081E-03
            3583            3900     11.0568E-03     11.1081E-03
            3584            3901     10.7418E-03     10.3537E-03
            3534            3901     10.7418E-03     10.3537E-03
            3583            3901     10.7418E-03     10.3537E-03
            3533            3901     10.7418E-03     10.3537E-03
            3534            3902     10.7455E-03     10.6925E-03
            3535            3902     10.7455E-03     10.6925E-03
            3584            3902     10.7455E-03     10.6925E-03
            3585            3902     10.7455E-03     10.6925E-03
            3586            3903     10.3581E-03     10.6235E-03
            3535            3903     10.3581E-03     10.6235E-03
            3536            3903     10.3581E-03     10.6235E-03
            3585            3903     10.3581E-03     10.6235E-03
            3586            3904     10.4028E-03     10.4051E-03
            3587            3904     10.4028E-03     10.4051E-03
            3537            3904     10.4028E-03     10.4051E-03
            3536            3904     10.4028E-03     10.4051E-03
            3587            3905     10.3102E-03     10.3247E-03
            3538            3905     10.3102E-03     10.3247E-03
            3588            3905     10.3102E-03     10.3247E-03
            3537            3905     10.3102E-03     10.3247E-03
            3538            3906     10.2113E-03     10.1812E-03
            3589            3906     10.2113E-03     10.1812E-03
            3588            3906     10.2113E-03     10.1812E-03
            3539            3906     10.2113E-03     10.1812E-03
            3590            3907     10.1580E-03     10.0523E-03
            3540            3907     10.1580E-03     10.0523E-03
            3589            3907     10.1580E-03     10.0523E-03
            3539            3907     10.1580E-03     10.0523E-03
            3591            3908     10.1228E-03     9.96667E-03
            3541            3908     10.1228E-03     9.96667E-03
            3540            3908     10.1228E-03     9.96667E-03
            3590            3908     10.1228E-03     9.96667E-03
            3541            3909     10.0608E-03     9.87341E-03
            3542            3909     10.0608E-03     9.87341E-03
            3592            3909     10.0608E-03     9.87341E-03
            3591            3909     10.0608E-03     9.87341E-03
            3593            3910     9.98658E-03     9.89810E-03
            3592            3910     9.98658E-03     9.89810E-03
            3543            3910     9.98658E-03     9.89810E-03
            3542            3910     9.98658E-03     9.89810E-03
            3543            3911     9.16034E-03     9.07382E-03
            3544            3911     9.16034E-03     9.07382E-03
            3594            3911     9.16034E-03     9.07382E-03
            3593            3911     9.16034E-03     9.07382E-03
            3594            3912     8.49680E-03     8.32084E-03
            3595            3912     8.49680E-03     8.32084E-03
            3544            3912     8.49680E-03     8.32084E-03
            3545            3912     8.49680E-03     8.32084E-03
            3546            3913     8.51389E-03     8.47622E-03
            3595            3913     8.51389E-03     8.47622E-03
            3596            3913     8.51389E-03     8.47622E-03
            3545            3913     8.51389E-03     8.47622E-03
            3597            3914     8.43842E-03     8.44943E-03
            3547            3914     8.43842E-03     8.44943E-03
            3546            3914     8.43842E-03     8.44943E-03
            3596            3914     8.43842E-03     8.44943E-03
            3548            3915     8.48281E-03     8.44140E-03
            3547            3915     8.48281E-03     8.44140E-03
            3597            3915     8.48281E-03     8.44140E-03
            3598            3915     8.48281E-03     8.44140E-03
            3599            3916     8.53082E-03     8.45721E-03
            3548            3916     8.53082E-03     8.45721E-03
            3549            3916     8.53082E-03     8.45721E-03
            3598            3916     8.53082E-03     8.45721E-03
            3550            3917     8.50912E-03     8.44897E-03
            3600            3917     8.50912E-03     8.44897E-03
            3549            3917     8.50912E-03     8.44897E-03
            3599            3917     8.50912E-03     8.44897E-03
            3551            3918     32.1582E-03     30.6882E-03
            3552            3918     32.1582E-03     30.6882E-03
            3601            3918     32.1582E-03     30.6882E-03
            3602            3918     32.1582E-03     30.6882E-03
            3552            3919     33.4758E-03     31.4400E-03
            3602            3919     33.4758E-03     31.4400E-03
            3603            3919     33.4758E-03     31.4400E-03
            3553            3919     33.4758E-03     31.4400E-03
            3604            3920     30.5437E-03     32.1501E-03
            3554            3920     30.5437E-03     32.1501E-03
            3603            3920     30.5437E-03     32.1501E-03
            3553            3920     30.5437E-03     32.1501E-03
            3604            3921     30.6078E-03     30.2929E-03
            3605            3921     30.6078E-03     30.2929E-03
            3554            3921     30.6078E-03     30.2929E-03
            3555            3921     30.6078E-03     30.2929E-03
            3556            3922     29.8262E-03     29.6650E-03
            3605            3922     29.8262E-03     29.6650E-03
            3606            3922     29.8262E-03     29.6650E-03
            3555            3922     29.8262E-03     29.6650E-03
            3557            3923     28.5448E-03     28.6446E-03
            3556            3923     28.5448E-03     28.6446E-03
            3607            3923     28.5448E-03     28.6446E-03
            3606            3923     28.5448E-03     28.6446E-03
            3608            3924     27.1701E-03     28.0268E-03
            3558            3924     27.1701E-03     28.0268E-03
            3607            3924     27.1701E-03     28.0268E-03
            3557            3924     27.1701E-03     28.0268E-03
            3559            3925     27.0867E-03     26.0022E-03
            3608            3925     27.0867E-03     26.0022E-03
            3609            3925     27.0867E-03     26.0022E-03
            3558            3925     27.0867E-03     26.0022E-03
            3609            3926     25.1729E-03     24.4827E-03
            3560            3926     25.1729E-03     24.4827E-03
            3610            3926     25.1729E-03     24.4827E-03
            3559            3926     25.1729E-03     24.4827E-03
            3561            3927     22.1861E-03     25.0731E-03
            3610            3927     22.1861E-03     25.0731E-03
            3560            3927     22.1861E-03     25.0731E-03
            3611            3927     22.1861E-03     25.0731E-03
            3562            3928     25.0816E-03     23.9046E-03
            3612            3928     25.0816E-03     23.9046E-03
            3611            3928     25.0816E-03     23.9046E-03
            3561            3928     25.0816E-03     23.9046E-03
            3562            3929     25.9340E-03     24.3199E-03
            3612            3929     25.9340E-03     24.3199E-03
            3563            3929     25.9340E-03     24.3199E-03
            3613            3929     25.9340E-03     24.3199E-03
            3563            3930     23.5778E-03     24.6721E-03
            3613            3930     23.5778E-03     24.6721E-03
            3614            3930     23.5778E-03     24.6721E-03
            3564            3930     23.5778E-03     24.6721E-03
            3564            3931     23.5520E-03     23.0849E-03
            3615            3931     23.5520E-03     23.0849E-03
            3614            3931     23.5520E-03     23.0849E-03
            3565            3931     23.5520E-03     23.0849E-03
            3565            3932     22.7550E-03     22.6075E-03
            3615            3932     22.7550E-03     22.6075E-03
            3616            3932     22.7550E-03     22.6075E-03
            3566            3932     22.7550E-03     22.6075E-03
            3566            3933     21.7928E-03     21.8719E-03
            3617            3933     21.7928E-03     21.8719E-03
            3567            3933     21.7928E-03     21.8719E-03
            3616            3933     21.7928E-03     21.8719E-03
            3618            3934     20.9954E-03     20.9226E-03
            3568            3934     20.9954E-03     20.9226E-03
            3617            3934     20.9954E-03     20.9226E-03
            3567            3934     20.9954E-03     20.9226E-03
            3569            3935     19.8681E-03     20.4049E-03
            3619            3935     19.8681E-03     20.4049E-03
            3618            3935     19.8681E-03     20.4049E-03
            3568            3935     19.8681E-03     20.4049E-03
            3619            3936     19.5612E-03     18.9533E-03
            3620            3936     19.5612E-03     18.9533E-03
            3569            3936     19.5612E-03     18.9533E-03
            3570            3936     19.5612E-03     18.9533E-03
            3620            3937     18.3124E-03     17.9134E-03
            3570            3937     18.3124E-03     17.9134E-03
            3621            3937     18.3124E-03     17.9134E-03
            3571            3937     18.3124E-03     17.9134E-03
            3572            3938     16.3958E-03     18.1131E-03
            3621            3938     16.3958E-03     18.1131E-03
            3571            3938     16.3958E-03     18.1131E-03
            3622            3938     16.3958E-03     18.1131E-03
            3573            3939     18.0787E-03     17.2616E-03
            3572            3939     18.0787E-03     17.2616E-03
            3623            3939     18.0787E-03     17.2616E-03
            3622            3939     18.0787E-03     17.2616E-03
            3574            3940     18.5040E-03     17.4370E-03
            3573            3940     18.5040E-03     17.4370E-03
            3623            3940     18.5040E-03     17.4370E-03
            3624            3940     18.5040E-03     17.4370E-03
            3625            3941     16.8133E-03     17.4851E-03
            3574            3941     16.8133E-03     17.4851E-03
            3575            3941     16.8133E-03     17.4851E-03
            3624            3941     16.8133E-03     17.4851E-03
            3575            3942     16.6533E-03     16.3338E-03
            3576            3942     16.6533E-03     16.3338E-03
            3625            3942     16.6533E-03     16.3338E-03
            3626            3942     16.6533E-03     16.3338E-03
            3627            3943     16.0091E-03     15.9115E-03
            3576            3943     16.0091E-03     15.9115E-03
            3577            3943     16.0091E-03     15.9115E-03
            3626            3943     16.0091E-03     15.9115E-03
            3578            3944     15.2502E-03     15.3387E-03
            3577            3944     15.2502E-03     15.3387E-03
            3627            3944     15.2502E-03     15.3387E-03
            3628            3944     15.2502E-03     15.3387E-03
            3579            3945     14.6424E-03     14.6542E-03
            3578            3945     14.6424E-03     14.6542E-03
            3629            3945     14.6424E-03     14.6542E-03
            3628            3945     14.6424E-03     14.6542E-03
            3580            3946     13.9114E-03     14.1441E-03
            3579            3946     13.9114E-03     14.1441E-03
            3630            3946     13.9114E-03     14.1441E-03
            3629            3946     13.9114E-03     14.1441E-03
            3581            3947     13.4856E-03     13.2711E-03
            3580            3947     13.4856E-03     13.2711E-03
            3631            3947     13.4856E-03     13.2711E-03
            3630            3947     13.4856E-03     13.2711E-03
            3582            3948     12.8075E-03     12.6561E-03
            3631            3948     12.8075E-03     12.6561E-03
            3632            3948     12.8075E-03     12.6561E-03
            3581            3948     12.8075E-03     12.6561E-03
            3583            3949     11.7189E-03     12.4297E-03
            3633            3949     11.7189E-03     12.4297E-03
            3582            3949     11.7189E-03     12.4297E-03
            3632            3949     11.7189E-03     12.4297E-03
            3583            3950     12.2738E-03     11.7861E-03
            3633            3950     12.2738E-03     11.7861E-03
            3634            3950     12.2738E-03     11.7861E-03
            3584            3950     12.2738E-03     11.7861E-03
            3634            3951     12.3768E-03     11.7986E-03
            3584            3951     12.3768E-03     11.7986E-03
            3635            3951     12.3768E-03     11.7986E-03
            3585            3951     12.3768E-03     11.7986E-03
            3635            3952     11.3597E-03     11.6580E-03
            3586            3952     11.3597E-03     11.6580E-03
            3585            3952     11.3597E-03     11.6580E-03
            3636            3952     11.3597E-03     11.6580E-03
            3587            3953     11.1564E-03     10.9840E-03
            3636            3953     11.1564E-03     10.9840E-03
            3637            3953     11.1564E-03     10.9840E-03
            3586            3953     11.1564E-03     10.9840E-03
            3587            3954     10.7356E-03     10.7005E-03
            3637            3954     10.7356E-03     10.7005E-03
            3588            3954     10.7356E-03     10.7005E-03
            3638            3954     10.7356E-03     10.7005E-03
            3588            3955     10.2722E-03     10.3614E-03
            3589            3955     10.2722E-03     10.3614E-03
            3639            3955     10.2722E-03     10.3614E-03
            3638            3955     10.2722E-03     10.3614E-03
            3590            3956     9.93757E-03     9.99589E-03
            3639            3956     9.93757E-03     9.99589E-03
            3589            3956     9.93757E-03     9.99589E-03
            3640            3956     9.93757E-03     9.99589E-03
            3591            3957     9.62620E-03     9.66310E-03
            3640            3957     9.62620E-03     9.66310E-03
            3641            3957     9.62620E-03     9.66310E-03
            3590            3957     9.62620E-03     9.66310E-03
            3641            3958     9.36062E-03     9.34719E-03
            3591            3958     9.36062E-03     9.34719E-03
            3642            3958     9.36062E-03     9.34719E-03
            3592            3958     9.36062E-03     9.34719E-03
            3642            3959     9.16988E-03     9.15763E-03
            3593            3959     9.16988E-03     9.15763E-03
            3592            3959     9.16988E-03     9.15763E-03
            3643            3959     9.16988E-03     9.15763E-03
            3593            3960     8.47538E-03     8.49709E-03
            3594            3960     8.47538E-03     8.49709E-03
            3644            3960     8.47538E-03     8.49709E-03
            3643            3960     8.47538E-03     8.49709E-03
            3644            3961     8.03294E-03     7.88934E-03
            3645            3961     8.03294E-03     7.88934E-03
            3595            3961     8.03294E-03     7.88934E-03
            3594            3961     8.03294E-03     7.88934E-03
            3645            3962     8.01509E-03     7.94008E-03
            3646            3962     8.01509E-03     7.94008E-03
            3595            3962     8.01509E-03     7.94008E-03
            3596            3962     8.01509E-03     7.94008E-03
            3597            3963     7.78925E-03     7.84471E-03
            3596            3963     7.78925E-03     7.84471E-03
            3647            3963     7.78925E-03     7.84471E-03
            3646            3963     7.78925E-03     7.84471E-03
            3648            3964     7.77832E-03     7.74195E-03
            3597            3964     7.77832E-03     7.74195E-03
            3647            3964     7.77832E-03     7.74195E-03
            3598            3964     7.77832E-03     7.74195E-03
            3649            3965     7.81656E-03     7.74285E-03
            3599            3965     7.81656E-03     7.74285E-03
            3598            3965     7.81656E-03     7.74285E-03
            3648            3965     7.81656E-03     7.74285E-03
            3650            3966     7.79199E-03     7.74778E-03
            3649            3966     7.79199E-03     7.74778E-03
            3599            3966     7.79199E-03     7.74778E-03
            3600            3966     7.79199E-03     7.74778E-03
            3652            3967     45.1037E-03     43.4206E-03
            3601            3967     45.1037E-03     43.4206E-03
            3602            3967     45.1037E-03     43.4206E-03
            3651            3967     45.1037E-03     43.4206E-03
            3653            3968     46.7730E-03     42.8534E-03
            3652            3968     46.7730E-03     42.8534E-03
            3602            3968     46.7730E-03     42.8534E-03
            3603            3968     46.7730E-03     42.8534E-03
            3654            3969     41.3193E-03     43.2592E-03
            3653            3969     41.3193E-03     43.2592E-03
            3603            3969     41.3193E-03     43.2592E-03
            3604            3969     41.3193E-03     43.2592E-03
            3655            3970     40.8071E-03     39.9388E-03
            3604            3970     40.8071E-03     39.9388E-03
            3605            3970     40.8071E-03     39.9388E-03
            3654            3970     40.8071E-03     39.9388E-03
            3656            3971     39.5450E-03     38.8992E-03
            3655            3971     39.5450E-03     38.8992E-03
            3605            3971     39.5450E-03     38.8992E-03
            3606            3971     39.5450E-03     38.8992E-03
            3657            3972     37.8214E-03     37.6788E-03
            3656            3972     37.8214E-03     37.6788E-03
            3606            3972     37.8214E-03     37.6788E-03
            3607            3972     37.8214E-03     37.6788E-03
            3658            3973     36.0111E-03     37.5865E-03
            3657            3973     36.0111E-03     37.5865E-03
            3607            3973     36.0111E-03     37.5865E-03
            3608            3973     36.0111E-03     37.5865E-03
            3659            3974     36.8781E-03     35.2713E-03
            3608            3974     36.8781E-03     35.2713E-03
            3609            3974     36.8781E-03     35.2713E-03
            3658            3974     36.8781E-03     35.2713E-03
            3660            3975     34.1315E-03     33.3562E-03
            3659            3975     34.1315E-03     33.3562E-03
            3609            3975     34.1315E-03     33.3562E-03
            3610            3975     34.1315E-03     33.3562E-03
            3660            3976     29.4006E-03     35.3188E-03
            3610            3976     29.4006E-03     35.3188E-03
            3611            3976     29.4006E-03     35.3188E-03
            3661            3976     29.4006E-03     35.3188E-03
            3662            3977     34.5338E-03     33.2488E-03
            3661            3977     34.5338E-03     33.2488E-03
            3611            3977     34.5338E-03     33.2488E-03
            3612            3977     34.5338E-03     33.2488E-03
            3663            3978     35.5861E-03     32.5781E-03
            3662            3978     35.5861E-03     32.5781E-03
            3612            3978     35.5861E-03     32.5781E-03
            3613            3978     35.5861E-03     32.5781E-03
            3664            3979     31.1902E-03     32.6750E-03
            3663            3979     31.1902E-03     32.6750E-03
            3613            3979     31.1902E-03     32.6750E-03
            3614            3979     31.1902E-03     32.6750E-03
            3665            3980     30.6551E-03     29.8056E-03
            3614            3980     30.6551E-03     29.8056E-03
            3615            3980     30.6551E-03     29.8056E-03
            3664            3980     30.6551E-03     29.8056E-03
            3666            3981     29.2470E-03     28.9190E-03
            3665            3981     29.2470E-03     28.9190E-03
            3615            3981     29.2470E-03     28.9190E-03
            3616            3981     29.2470E-03     28.9190E-03
            3667            3982     27.8452E-03     27.8584E-03
            3616            3982     27.8452E-03     27.8584E-03
            3617            3982     27.8452E-03     27.8584E-03
            3666            3982     27.8452E-03     27.8584E-03
            3668            3983     26.8209E-03     26.6309E-03
            3667            3983     26.8209E-03     26.6309E-03
            3617            3983     26.8209E-03     26.6309E-03
            3618            3983     26.8209E-03     26.6309E-03
            3669            3984     25.2881E-03     26.4846E-03
            3668            3984     25.2881E-03     26.4846E-03
            3618            3984     25.2881E-03     26.4846E-03
            3619            3984     25.2881E-03     26.4846E-03
            3670            3985     25.4959E-03     24.7247E-03
            3619            3985     25.4959E-03     24.7247E-03
            3620            3985     25.4959E-03     24.7247E-03
            3669            3985     25.4959E-03     24.7247E-03
            3670            3986     23.6258E-03     23.2205E-03
            3620            3986     23.6258E-03     23.2205E-03
            3671            3986     23.6258E-03     23.2205E-03
            3621            3986     23.6258E-03     23.2205E-03
            3622            3987     20.5384E-03     24.3806E-03
            3671            3987     20.5384E-03     24.3806E-03
            3672            3987     20.5384E-03     24.3806E-03
            3621            3987     20.5384E-03     24.3806E-03
            3672            3988     23.8012E-03     22.9093E-03
            3623            3988     23.8012E-03     22.9093E-03
            3622            3988     23.8012E-03     22.9093E-03
            3673            3988     23.8012E-03     22.9093E-03
            3624            3989     24.3119E-03     22.2256E-03
            3674            3989     24.3119E-03     22.2256E-03
            3623            3989     24.3119E-03     22.2256E-03
            3673            3989     24.3119E-03     22.2256E-03
            3625            3990     21.1228E-03     22.0645E-03
            3624            3990     21.1228E-03     22.0645E-03
            3674            3990     21.1228E-03     22.0645E-03
            3675            3990     21.1228E-03     22.0645E-03
            3676            3991     20.5474E-03     19.9713E-03
            3625            3991     20.5474E-03     19.9713E-03
            3675            3991     20.5474E-03     19.9713E-03
            3626            3991     20.5474E-03     19.9713E-03
            3677            3992     19.4113E-03     19.1859E-03
            3676            3992     19.4113E-03     19.1859E-03
            3626            3992     19.4113E-03     19.1859E-03
            3627            3992     19.4113E-03     19.1859E-03
            3628            3993     18.2356E-03     18.3020E-03
            3627            3993     18.2356E-03     18.3020E-03
            3678            3993     18.2356E-03     18.3020E-03
            3677            3993     18.2356E-03     18.3020E-03
            3628            3994     17.3344E-03     17.3267E-03
            3629            3994     17.3344E-03     17.3267E-03
            3678            3994     17.3344E-03     17.3267E-03
            3679            3994     17.3344E-03     17.3267E-03
            3629            3995     16.1904E-03     16.8818E-03
            3680            3995     16.1904E-03     16.8818E-03
            3630            3995     16.1904E-03     16.8818E-03
            3679            3995     16.1904E-03     16.8818E-03
            3631            3996     15.8129E-03     15.6816E-03
            3630            3996     15.8129E-03     15.6816E-03
            3681            3996     15.8129E-03     15.6816E-03
            3680            3996     15.8129E-03     15.6816E-03
            3631            3997     14.6741E-03     14.5760E-03
            3632            3997     14.6741E-03     14.5760E-03
            3681            3997     14.6741E-03     14.5760E-03
            3682            3997     14.6741E-03     14.5760E-03
            3682            3998     13.0369E-03     14.9670E-03
            3683            3998     13.0369E-03     14.9670E-03
            3632            3998     13.0369E-03     14.9670E-03
            3633            3998     13.0369E-03     14.9670E-03
            3684            3999     14.6008E-03     14.0747E-03
            3683            3999     14.6008E-03     14.0747E-03
            3633            3999     14.6008E-03     14.0747E-03
            3634            3999     14.6008E-03     14.0747E-03
            3635            4000     14.6688E-03     13.4444E-03
            3634            4000     14.6688E-03     13.4444E-03
            3684            4000     14.6688E-03     13.4444E-03
            3685            4000     14.6688E-03     13.4444E-03
            3635            4001     12.6570E-03     13.1243E-03
            3686            4001     12.6570E-03     13.1243E-03
            3636            4001     12.6570E-03     13.1243E-03
            3685            4001     12.6570E-03     13.1243E-03
            3637            4002     12.1315E-03     11.8260E-03
            3636            4002     12.1315E-03     11.8260E-03
            3687            4002     12.1315E-03     11.8260E-03
            3686            4002     12.1315E-03     11.8260E-03
            3637            4003     11.3456E-03     11.2282E-03
            3638            4003     11.3456E-03     11.2282E-03
            3687            4003     11.3456E-03     11.2282E-03
            3688            4003     11.3456E-03     11.2282E-03
            3638            4004     10.5143E-03     10.6121E-03
            3689            4004     10.5143E-03     10.6121E-03
            3639            4004     10.5143E-03     10.6121E-03
            3688            4004     10.5143E-03     10.6121E-03
            3689            4005     9.86698E-03     9.98836E-03
            3690            4005     9.86698E-03     9.98836E-03
            3639            4005     9.86698E-03     9.98836E-03
            3640            4005     9.86698E-03     9.98836E-03
            3691            4006     9.21187E-03     9.48774E-03
            3690            4006     9.21187E-03     9.48774E-03
            3641            4006     9.21187E-03     9.48774E-03
            3640            4006     9.21187E-03     9.48774E-03
            3642            4007     8.64549E-03     8.91449E-03
            3641            4007     8.64549E-03     8.91449E-03
            3691            4007     8.64549E-03     8.91449E-03
            3692            4007     8.64549E-03     8.91449E-03
            3693            4008     8.24937E-03     8.38902E-03
            3642            4008     8.24937E-03     8.38902E-03
            3643            4008     8.24937E-03     8.38902E-03
            3692            4008     8.24937E-03     8.38902E-03
            3694            4009     7.60989E-03     7.89766E-03
            3643            4009     7.60989E-03     7.89766E-03
            3644            4009     7.60989E-03     7.89766E-03
            3693            4009     7.60989E-03     7.89766E-03
            3644            4010     7.49983E-03     7.31880E-03
            3695            4010     7.49983E-03     7.31880E-03
            3694            4010     7.49983E-03     7.31880E-03
            3645            4010     7.49983E-03     7.31880E-03
            3646            4011     7.37907E-03     7.09722E-03
            3696            4011     7.37907E-03     7.09722E-03
            3645            4011     7.37907E-03     7.09722E-03
            3695            4011     7.37907E-03     7.09722E-03
            3697            4012     6.82398E-03     6.97762E-03
            3647            4012     6.82398E-03     6.97762E-03
            3696            4012     6.82398E-03     6.97762E-03
            3646            4012     6.82398E-03     6.97762E-03
            3647            4013     6.69132E-03     6.74277E-03
            3698            4013     6.69132E-03     6.74277E-03
            3648            4013     6.69132E-03     6.74277E-03
            3697            4013     6.69132E-03     6.74277E-03
            3648            4014     6.65813E-03     6.64732E-03
            3649            4014     6.65813E-03     6.64732E-03
            3699            4014     6.65813E-03     6.64732E-03
            3698            4014     6.65813E-03     6.64732E-03
            3700            4015     6.63957E-03     6.64899E-03
            3650            4015     6.63957E-03     6.64899E-03
            3649            4015     6.63957E-03     6.64899E-03
            3699            4015     6.63957E-03     6.64899E-03
            3702            4016     56.7673E-03     55.5821E-03
            3651            4016     56.7673E-03     55.5821E-03
            3652            4016     56.7673E-03     55.5821E-03
            3701            4016     56.7673E-03     55.5821E-03
            3702            4017     58.0047E-03     52.8271E-03
            3652            4017     58.0047E-03     52.8271E-03
            3653            4017     58.0047E-03     52.8271E-03
            3703            4017     58.0047E-03     52.8271E-03
            3654            4018     49.6830E-03     53.2341E-03
            3653            4018     49.6830E-03     53.2341E-03
            3703            4018     49.6830E-03     53.2341E-03
            3704            4018     49.6830E-03     53.2341E-03
            3655            4019     48.7139E-03     48.4741E-03
            3654            4019     48.7139E-03     48.4741E-03
            3704            4019     48.7139E-03     48.4741E-03
            3705            4019     48.7139E-03     48.4741E-03
            3655            4020     47.0631E-03     47.0222E-03
            3705            4020     47.0631E-03     47.0222E-03
            3706            4020     47.0631E-03     47.0222E-03
            3656            4020     47.0631E-03     47.0222E-03
            3657            4021     45.0005E-03     45.2523E-03
            3656            4021     45.0005E-03     45.2523E-03
            3706            4021     45.0005E-03     45.2523E-03
            3707            4021     45.0005E-03     45.2523E-03
            3708            4022     43.1032E-03     45.5659E-03
            3658            4022     43.1032E-03     45.5659E-03
            3657            4022     43.1032E-03     45.5659E-03
            3707            4022     43.1032E-03     45.5659E-03
            3658            4023     45.7206E-03     43.3282E-03
            3659            4023     45.7206E-03     43.3282E-03
            3708            4023     45.7206E-03     43.3282E-03
            3709            4023     45.7206E-03     43.3282E-03
            3710            4024     42.9288E-03     42.5366E-03
            3659            4024     42.9288E-03     42.5366E-03
            3660            4024     42.9288E-03     42.5366E-03
            3709            4024     42.9288E-03     42.5366E-03
            3661            4025     36.4084E-03     46.6460E-03
            3710            4025     36.4084E-03     46.6460E-03
            3711            4025     36.4084E-03     46.6460E-03
            3660            4025     36.4084E-03     46.6460E-03
            3661            4026     43.1782E-03     42.2933E-03
            3662            4026     43.1782E-03     42.2933E-03
            3712            4026     43.1782E-03     42.2933E-03
            3711            4026     43.1782E-03     42.2933E-03
            3663            4027     43.8960E-03     39.9813E-03
            3662            4027     43.8960E-03     39.9813E-03
            3713            4027     43.8960E-03     39.9813E-03
            3712            4027     43.8960E-03     39.9813E-03
            3663            4028     37.2790E-03     40.1601E-03
            3713            4028     37.2790E-03     40.1601E-03
            3664            4028     37.2790E-03     40.1601E-03
            3714            4028     37.2790E-03     40.1601E-03
            3714            4029     36.4148E-03     36.0784E-03
            3715            4029     36.4148E-03     36.0784E-03
            3665            4029     36.4148E-03     36.0784E-03
            3664            4029     36.4148E-03     36.0784E-03
            3715            4030     34.4682E-03     34.8048E-03
            3666            4030     34.4682E-03     34.8048E-03
            3665            4030     34.4682E-03     34.8048E-03
            3716            4030     34.4682E-03     34.8048E-03
            3667            4031     32.6543E-03     33.2899E-03
            3716            4031     32.6543E-03     33.2899E-03
            3666            4031     32.6543E-03     33.2899E-03
            3717            4031     32.6543E-03     33.2899E-03
            3668            4032     31.5812E-03     31.5077E-03
            3667            4032     31.5812E-03     31.5077E-03
            3717            4032     31.5812E-03     31.5077E-03
            3718            4032     31.5812E-03     31.5077E-03
            3668            4033     29.8469E-03     31.6946E-03
            3719            4033     29.8469E-03     31.6946E-03
            3669            4033     29.8469E-03     31.6946E-03
            3718            4033     29.8469E-03     31.6946E-03
            3670            4034     31.2073E-03     29.9310E-03
            3719            4034     31.2073E-03     29.9310E-03
            3720            4034     31.2073E-03     29.9310E-03
            3669            4034     31.2073E-03     29.9310E-03
            3671            4035     29.2569E-03     29.1161E-03
            3670            4035     29.2569E-03     29.1161E-03
            3721            4035     29.2569E-03     29.1161E-03
            3720            4035     29.2569E-03     29.1161E-03
            3721            4036     24.8253E-03     31.6802E-03
            3722            4036     24.8253E-03     31.6802E-03
            3672            4036     24.8253E-03     31.6802E-03
            3671            4036     24.8253E-03     31.6802E-03
            3722            4037     29.2129E-03     28.5994E-03
            3723            4037     29.2129E-03     28.5994E-03
            3672            4037     29.2129E-03     28.5994E-03
            3673            4037     29.2129E-03     28.5994E-03
            3674            4038     29.4855E-03     26.7584E-03
            3723            4038     29.4855E-03     26.7584E-03
            3724            4038     29.4855E-03     26.7584E-03
            3673            4038     29.4855E-03     26.7584E-03
            3725            4039     24.7173E-03     26.6537E-03
            3724            4039     24.7173E-03     26.6537E-03
            3675            4039     24.7173E-03     26.6537E-03
            3674            4039     24.7173E-03     26.6537E-03
            3676            4040     23.8597E-03     23.6218E-03
            3725            4040     23.8597E-03     23.6218E-03
            3726            4040     23.8597E-03     23.6218E-03
            3675            4040     23.8597E-03     23.6218E-03
            3727            4041     22.2804E-03     22.4431E-03
            3677            4041     22.2804E-03     22.4431E-03
            3726            4041     22.2804E-03     22.4431E-03
            3676            4041     22.2804E-03     22.4431E-03
            3678            4042     20.7108E-03     21.1331E-03
            3677            4042     20.7108E-03     21.1331E-03
            3728            4042     20.7108E-03     21.1331E-03
            3727            4042     20.7108E-03     21.1331E-03
            3729            4043     19.6795E-03     19.6732E-03
            3679            4043     19.6795E-03     19.6732E-03
            3678            4043     19.6795E-03     19.6732E-03
            3728            4043     19.6795E-03     19.6732E-03
            3680            4044     18.2955E-03     19.3260E-03
            3730            4044     18.2955E-03     19.3260E-03
            3729            4044     18.2955E-03     19.3260E-03
            3679            4044     18.2955E-03     19.3260E-03
            3731            4045     18.4626E-03     18.0853E-03
            3681            4045     18.4626E-03     18.0853E-03
            3730            4045     18.4626E-03     18.0853E-03
            3680            4045     18.4626E-03     18.0853E-03
            3732            4046     17.1537E-03     17.2272E-03
            3681            4046     17.1537E-03     17.2272E-03
            3682            4046     17.1537E-03     17.2272E-03
            3731            4046     17.1537E-03     17.2272E-03
            3683            4047     14.7100E-03     18.4454E-03
            3733            4047     14.7100E-03     18.4454E-03
            3682            4047     14.7100E-03     18.4454E-03
            3732            4047     14.7100E-03     18.4454E-03
            3734            4048     17.0063E-03     16.6552E-03
            3683            4048     17.0063E-03     16.6552E-03
            3733            4048     17.0063E-03     16.6552E-03
            3684            4048     17.0063E-03     16.6552E-03
            3684            4049     16.9125E-03     15.2831E-03
            3734            4049     16.9125E-03     15.2831E-03
            3735            4049     16.9125E-03     15.2831E-03
            3685            4049     16.9125E-03     15.2831E-03
            3686            4050     13.8669E-03     14.9622E-03
            3735            4050     13.8669E-03     14.9622E-03
            3736            4050     13.8669E-03     14.9622E-03
            3685            4050     13.8669E-03     14.9622E-03
            3736            4051     13.0797E-03     12.9345E-03
            3737            4051     13.0797E-03     12.9345E-03
            3686            4051     13.0797E-03     12.9345E-03
            3687            4051     13.0797E-03     12.9345E-03
            3738            4052     11.9093E-03     11.9159E-03
            3688            4052     11.9093E-03     11.9159E-03
            3687            4052     11.9093E-03     11.9159E-03
            3737            4052     11.9093E-03     11.9159E-03
            3689            4053     10.6743E-03     10.8845E-03
            3688            4053     10.6743E-03     10.8845E-03
            3739            4053     10.6743E-03     10.8845E-03
            3738            4053     10.6743E-03     10.8845E-03
            3689            4054     9.80140E-03     9.83817E-03
            3740            4054     9.80140E-03     9.83817E-03
            3739            4054     9.80140E-03     9.83817E-03
            3690            4054     9.80140E-03     9.83817E-03
            3691            4055     8.86060E-03     9.20441E-03
            3740            4055     8.86060E-03     9.20441E-03
            3741            4055     8.86060E-03     9.20441E-03
            3690            4055     8.86060E-03     9.20441E-03
            3742            4056     8.20913E-03     8.55823E-03
            3691            4056     8.20913E-03     8.55823E-03
            3741            4056     8.20913E-03     8.55823E-03
            3692            4056     8.20913E-03     8.55823E-03
            3743            4057     7.59490E-03     7.88794E-03
            3742            4057     7.59490E-03     7.88794E-03
            3693            4057     7.59490E-03     7.88794E-03
            3692            4057     7.59490E-03     7.88794E-03
            3743            4058     6.68908E-03     7.60155E-03
            3744            4058     6.68908E-03     7.60155E-03
            3693            4058     6.68908E-03     7.60155E-03
            3694            4058     6.68908E-03     7.60155E-03
            3695            4059     6.82806E-03     6.71374E-03
            3745            4059     6.82806E-03     6.71374E-03
            3694            4059     6.82806E-03     6.71374E-03
            3744            4059     6.82806E-03     6.71374E-03
            3745            4060     6.59520E-03     6.07560E-03
            3696            4060     6.59520E-03     6.07560E-03
            3695            4060     6.59520E-03     6.07560E-03
            3746            4060     6.59520E-03     6.07560E-03
            3747            4061     5.61432E-03     5.86820E-03
            3746            4061     5.61432E-03     5.86820E-03
            3696            4061     5.61432E-03     5.86820E-03
            3697            4061     5.61432E-03     5.86820E-03
            3698            4062     5.34584E-03     5.36758E-03
            3697            4062     5.34584E-03     5.36758E-03
            3748            4062     5.34584E-03     5.36758E-03
            3747            4062     5.34584E-03     5.36758E-03
            3698            4063     5.14918E-03     5.23125E-03
            3748            4063     5.14918E-03     5.23125E-03
            3749            4063     5.14918E-03     5.23125E-03
            3699            4063     5.14918E-03     5.23125E-03
            3700            4064     5.03251E-03     5.21713E-03
            3699            4064     5.03251E-03     5.21713E-03
            3750            4064     5.03251E-03     5.21713E-03
            3749            4064     5.03251E-03     5.21713E-03
            3701            4065     66.1334E-03     65.8602E-03
            3751            4065     66.1334E-03     65.8602E-03
            3752            4065     66.1334E-03     65.8602E-03
            3702            4065     66.1334E-03     65.8602E-03
            3702            4066     66.3864E-03     62.0565E-03
            3753            4066     66.3864E-03     62.0565E-03
            3752            4066     66.3864E-03     62.0565E-03
            3703            4066     66.3864E-03     62.0565E-03
            3753            4067     56.0618E-03     62.0640E-03
            3704            4067     56.0618E-03     62.0640E-03
            3703            4067     56.0618E-03     62.0640E-03
            3754            4067     56.0618E-03     62.0640E-03
            3755            4068     55.2342E-03     56.2556E-03
            3704            4068     55.2342E-03     56.2556E-03
            3705            4068     55.2342E-03     56.2556E-03
            3754            4068     55.2342E-03     56.2556E-03
            3756            4069     52.8330E-03     54.6232E-03
            3705            4069     52.8330E-03     54.6232E-03
            3755            4069     52.8330E-03     54.6232E-03
            3706            4069     52.8330E-03     54.6232E-03
            3756            4070     50.5092E-03     51.9242E-03
            3757            4070     50.5092E-03     51.9242E-03
            3706            4070     50.5092E-03     51.9242E-03
            3707            4070     50.5092E-03     51.9242E-03
            3707            4071     47.9095E-03     51.9089E-03
            3757            4071     47.9095E-03     51.9089E-03
            3758            4071     47.9095E-03     51.9089E-03
            3708            4071     47.9095E-03     51.9089E-03
            3708            4072     51.4133E-03     49.4005E-03
            3758            4072     51.4133E-03     49.4005E-03
            3709            4072     51.4133E-03     49.4005E-03
            3759            4072     51.4133E-03     49.4005E-03
            3710            4073     49.6384E-03     49.4696E-03
            3759            4073     49.6384E-03     49.4696E-03
            3760            4073     49.6384E-03     49.4696E-03
            3709            4073     49.6384E-03     49.4696E-03
            3711            4074     42.2973E-03     55.3238E-03
            3760            4074     42.2973E-03     55.3238E-03
            3710            4074     42.2973E-03     55.3238E-03
            3761            4074     42.2973E-03     55.3238E-03
            3762            4075     50.1621E-03     49.9600E-03
            3711            4075     50.1621E-03     49.9600E-03
            3761            4075     50.1621E-03     49.9600E-03
            3712            4075     50.1621E-03     49.9600E-03
            3763            4076     50.2449E-03     46.8921E-03
            3762            4076     50.2449E-03     46.8921E-03
            3713            4076     50.2449E-03     46.8921E-03
            3712            4076     50.2449E-03     46.8921E-03
            3763            4077     42.0581E-03     46.7828E-03
            3714            4077     42.0581E-03     46.7828E-03
            3764            4077     42.0581E-03     46.7828E-03
            3713            4077     42.0581E-03     46.7828E-03
            3764            4078     41.3480E-03     41.8713E-03
            3714            4078     41.3480E-03     41.8713E-03
            3765            4078     41.3480E-03     41.8713E-03
            3715            4078     41.3480E-03     41.8713E-03
            3715            4079     38.7880E-03     40.3636E-03
            3716            4079     38.7880E-03     40.3636E-03
            3766            4079     38.7880E-03     40.3636E-03
            3765            4079     38.7880E-03     40.3636E-03
            3716            4080     36.5632E-03     38.3414E-03
            3766            4080     36.5632E-03     38.3414E-03
            3717            4080     36.5632E-03     38.3414E-03
            3767            4080     36.5632E-03     38.3414E-03
            3718            4081     35.2925E-03     35.8956E-03
            3768            4081     35.2925E-03     35.8956E-03
            3767            4081     35.2925E-03     35.8956E-03
            3717            4081     35.2925E-03     35.8956E-03
            3719            4082     32.8591E-03     35.7263E-03
            3768            4082     32.8591E-03     35.7263E-03
            3718            4082     32.8591E-03     35.7263E-03
            3769            4082     32.8591E-03     35.7263E-03
            3719            4083     34.8797E-03     33.6823E-03
            3770            4083     34.8797E-03     33.6823E-03
            3720            4083     34.8797E-03     33.6823E-03
            3769            4083     34.8797E-03     33.6823E-03
            3721            4084     33.5730E-03     33.5056E-03
            3770            4084     33.5730E-03     33.5056E-03
            3720            4084     33.5730E-03     33.5056E-03
            3771            4084     33.5730E-03     33.5056E-03
            3771            4085     28.5907E-03     37.3340E-03
            3772            4085     28.5907E-03     37.3340E-03
            3721            4085     28.5907E-03     37.3340E-03
            3722            4085     28.5907E-03     37.3340E-03
            3723            4086     33.7658E-03     33.6484E-03
            3772            4086     33.7658E-03     33.6484E-03
            3722            4086     33.7658E-03     33.6484E-03
            3773            4086     33.7658E-03     33.6484E-03
            3774            4087     33.6465E-03     31.2918E-03
            3723            4087     33.6465E-03     31.2918E-03
            3724            4087     33.6465E-03     31.2918E-03
            3773            4087     33.6465E-03     31.2918E-03
            3774            4088     27.7176E-03     30.9147E-03
            3724            4088     27.7176E-03     30.9147E-03
            3775            4088     27.7176E-03     30.9147E-03
            3725            4088     27.7176E-03     30.9147E-03
            3775            4089     26.8613E-03     27.1745E-03
            3776            4089     26.8613E-03     27.1745E-03
            3726            4089     26.8613E-03     27.1745E-03
            3725            4089     26.8613E-03     27.1745E-03
            3727            4090     24.7627E-03     25.7161E-03
            3776            4090     24.7627E-03     25.7161E-03
            3726            4090     24.7627E-03     25.7161E-03
            3777            4090     24.7627E-03     25.7161E-03
            3778            4091     22.8074E-03     23.9364E-03
            3728            4091     22.8074E-03     23.9364E-03
            3777            4091     22.8074E-03     23.9364E-03
            3727            4091     22.8074E-03     23.9364E-03
            3779            4092     21.5396E-03     21.9184E-03
            3729            4092     21.5396E-03     21.9184E-03
            3728            4092     21.5396E-03     21.9184E-03
            3778            4092     21.5396E-03     21.9184E-03
            3729            4093     19.6450E-03     21.1906E-03
            3779            4093     19.6450E-03     21.1906E-03
            3780            4093     19.6450E-03     21.1906E-03
            3730            4093     19.6450E-03     21.1906E-03
            3780            4094     20.1412E-03     19.6995E-03
            3781            4094     20.1412E-03     19.6995E-03
            3731            4094     20.1412E-03     19.6995E-03
            3730            4094     20.1412E-03     19.6995E-03
            3781            4095     19.2062E-03     19.2187E-03
            3732            4095     19.2062E-03     19.2187E-03
            3782            4095     19.2062E-03     19.2187E-03
            3731            4095     19.2062E-03     19.2187E-03
            3732            4096     16.4472E-03     21.3186E-03
            3783            4096     16.4472E-03     21.3186E-03
            3733            4096     16.4472E-03     21.3186E-03
            3782            4096     16.4472E-03     21.3186E-03
            3733            4097     19.3082E-03     19.2755E-03
            3734            4097     19.3082E-03     19.2755E-03
            3783            4097     19.3082E-03     19.2755E-03
            3784            4097     19.3082E-03     19.2755E-03
            3785            4098     19.0223E-03     17.5733E-03
            3734            4098     19.0223E-03     17.5733E-03
            3784            4098     19.0223E-03     17.5733E-03
            3735            4098     19.0223E-03     17.5733E-03
            3736            4099     15.1400E-03     16.9701E-03
            3735            4099     15.1400E-03     16.9701E-03
            3786            4099     15.1400E-03     16.9701E-03
            3785            4099     15.1400E-03     16.9701E-03
            3786            4100     14.1888E-03     14.3102E-03
            3736            4100     14.1888E-03     14.3102E-03
            3787            4100     14.1888E-03     14.3102E-03
            3737            4100     14.1888E-03     14.3102E-03
            3737            4101     12.5446E-03     12.9398E-03
            3787            4101     12.5446E-03     12.9398E-03
            3738            4101     12.5446E-03     12.9398E-03
            3788            4101     12.5446E-03     12.9398E-03
            3789            4102     10.9000E-03     11.4353E-03
            3738            4102     10.9000E-03     11.4353E-03
            3788            4102     10.9000E-03     11.4353E-03
            3739            4102     10.9000E-03     11.4353E-03
            3739            4103     9.71862E-03     9.88070E-03
            3789            4103     9.71862E-03     9.88070E-03
            3790            4103     9.71862E-03     9.88070E-03
            3740            4103     9.71862E-03     9.88070E-03
            3740            4104     8.41020E-03     8.79712E-03
            3790            4104     8.41020E-03     8.79712E-03
            3791            4104     8.41020E-03     8.79712E-03
            3741            4104     8.41020E-03     8.79712E-03
            3742            4105     7.74383E-03     7.92599E-03
            3791            4105     7.74383E-03     7.92599E-03
            3741            4105     7.74383E-03     7.92599E-03
            3792            4105     7.74383E-03     7.92599E-03
            3792            4106     7.23471E-03     7.35074E-03
            3793            4106     7.23471E-03     7.35074E-03
            3742            4106     7.23471E-03     7.35074E-03
            3743            4106     7.23471E-03     7.35074E-03
            3743            4107     6.12548E-03     7.58150E-03
            3794            4107     6.12548E-03     7.58150E-03
            3744            4107     6.12548E-03     7.58150E-03
            3793            4107     6.12548E-03     7.58150E-03
            3744            4108     6.51083E-03     6.59148E-03
            3795            4108     6.51083E-03     6.59148E-03
            3794            4108     6.51083E-03     6.59148E-03
            3745            4108     6.51083E-03     6.59148E-03
            3745            4109     6.03691E-03     5.46831E-03
            3746            4109     6.03691E-03     5.46831E-03
            3796            4109     6.03691E-03     5.46831E-03
            3795            4109     6.03691E-03     5.46831E-03
            3797            4110     4.28471E-03     4.73509E-03
            3746            4110     4.28471E-03     4.73509E-03
            3747            4110     4.28471E-03     4.73509E-03
            3796            4110     4.28471E-03     4.73509E-03
            3748            4111     3.70363E-03     3.51495E-03
            3797            4111     3.70363E-03     3.51495E-03
            3798            4111     3.70363E-03     3.51495E-03
            3747            4111     3.70363E-03     3.51495E-03
            3748            4112     3.45232E-03     3.31887E-03
            3798            4112     3.45232E-03     3.31887E-03
            3749            4112     3.45232E-03     3.31887E-03
            3799            4112     3.45232E-03     3.31887E-03
            3799            4113     3.40639E-03     3.61506E-03
            3749            4113     3.40639E-03     3.61506E-03
            3750            4113     3.40639E-03     3.61506E-03
            3800            4113     3.40639E-03     3.61506E-03
            3801            4114     73.9851E-03     72.6973E-03
            3751            4114     73.9851E-03     72.6973E-03
            3752            4114     73.9851E-03     72.6973E-03
            3802            4114     73.9851E-03     72.6973E-03
            3803            4115     71.6819E-03     68.0337E-03
            3802            4115     71.6819E-03     68.0337E-03
            3753            4115     71.6819E-03     68.0337E-03
            3752            4115     71.6819E-03     68.0337E-03
            3803            4116     62.3415E-03     66.9095E-03
            3754            4116     62.3415E-03     66.9095E-03
            3804            4116     62.3415E-03     66.9095E-03
            3753            4116     62.3415E-03     66.9095E-03
            3754            4117     61.3466E-03     61.3673E-03
            3755            4117     61.3466E-03     61.3673E-03
            3804            4117     61.3466E-03     61.3673E-03
            3805            4117     61.3466E-03     61.3673E-03
            3806            4118     58.1494E-03     59.5690E-03
            3805            4118     58.1494E-03     59.5690E-03
            3756            4118     58.1494E-03     59.5690E-03
            3755            4118     58.1494E-03     59.5690E-03
            3756            4119     55.7547E-03     56.2205E-03
            3807            4119     55.7547E-03     56.2205E-03
            3757            4119     55.7547E-03     56.2205E-03
            3806            4119     55.7547E-03     56.2205E-03
            3757            4120     52.2873E-03     55.1382E-03
            3808            4120     52.2873E-03     55.1382E-03
            3807            4120     52.2873E-03     55.1382E-03
            3758            4120     52.2873E-03     55.1382E-03
            3808            4121     53.8130E-03     51.7206E-03
            3809            4121     53.8130E-03     51.7206E-03
            3759            4121     53.8130E-03     51.7206E-03
            3758            4121     53.8130E-03     51.7206E-03
            3759            4122     52.2070E-03     50.7321E-03
            3810            4122     52.2070E-03     50.7321E-03
            3760            4122     52.2070E-03     50.7321E-03
            3809            4122     52.2070E-03     50.7321E-03
            3760            4123     48.4293E-03     58.0440E-03
            3810            4123     48.4293E-03     58.0440E-03
            3811            4123     48.4293E-03     58.0440E-03
            3761            4123     48.4293E-03     58.0440E-03
            3761            4124     56.2241E-03     55.2794E-03
            3812            4124     56.2241E-03     55.2794E-03
            3762            4124     56.2241E-03     55.2794E-03
            3811            4124     56.2241E-03     55.2794E-03
            3813            4125     54.2642E-03     51.4573E-03
            3812            4125     54.2642E-03     51.4573E-03
            3763            4125     54.2642E-03     51.4573E-03
            3762            4125     54.2642E-03     51.4573E-03
            3763            4126     46.7958E-03     50.3403E-03
            3814            4126     46.7958E-03     50.3403E-03
            3813            4126     46.7958E-03     50.3403E-03
            3764            4126     46.7958E-03     50.3403E-03
            3765            4127     45.8276E-03     45.6970E-03
            3815            4127     45.8276E-03     45.6970E-03
            3814            4127     45.8276E-03     45.6970E-03
            3764            4127     45.8276E-03     45.6970E-03
            3766            4128     42.9197E-03     43.9800E-03
            3815            4128     42.9197E-03     43.9800E-03
            3816            4128     42.9197E-03     43.9800E-03
            3765            4128     42.9197E-03     43.9800E-03
            3766            4129     40.5546E-03     41.5583E-03
            3817            4129     40.5546E-03     41.5583E-03
            3767            4129     40.5546E-03     41.5583E-03
            3816            4129     40.5546E-03     41.5583E-03
            3818            4130     38.6603E-03     38.8417E-03
            3768            4130     38.6603E-03     38.8417E-03
            3767            4130     38.6603E-03     38.8417E-03
            3817            4130     38.6603E-03     38.8417E-03
            3818            4131     35.7096E-03     37.6214E-03
            3768            4131     35.7096E-03     37.6214E-03
            3769            4131     35.7096E-03     37.6214E-03
            3819            4131     35.7096E-03     37.6214E-03
            3769            4132     36.1621E-03     34.8115E-03
            3770            4132     36.1621E-03     34.8115E-03
            3820            4132     36.1621E-03     34.8115E-03
            3819            4132     36.1621E-03     34.8115E-03
            3770            4133     34.7636E-03     33.6687E-03
            3820            4133     34.7636E-03     33.6687E-03
            3821            4133     34.7636E-03     33.6687E-03
            3771            4133     34.7636E-03     33.6687E-03
            3822            4134     32.5890E-03     38.9997E-03
            3821            4134     32.5890E-03     38.9997E-03
            3771            4134     32.5890E-03     38.9997E-03
            3772            4134     32.5890E-03     38.9997E-03
            3772            4135     38.1300E-03     37.5650E-03
            3822            4135     38.1300E-03     37.5650E-03
            3823            4135     38.1300E-03     37.5650E-03
            3773            4135     38.1300E-03     37.5650E-03
            3823            4136     36.4576E-03     34.5128E-03
            3824            4136     36.4576E-03     34.5128E-03
            3774            4136     36.4576E-03     34.5128E-03
            3773            4136     36.4576E-03     34.5128E-03
            3824            4137     30.8634E-03     33.2977E-03
            3825            4137     30.8634E-03     33.2977E-03
            3774            4137     30.8634E-03     33.2977E-03
            3775            4137     30.8634E-03     33.2977E-03
            3775            4138     29.7460E-03     29.6274E-03
            3825            4138     29.7460E-03     29.6274E-03
            3776            4138     29.7460E-03     29.6274E-03
            3826            4138     29.7460E-03     29.6274E-03
            3776            4139     27.3013E-03     27.9760E-03
            3827            4139     27.3013E-03     27.9760E-03
            3777            4139     27.3013E-03     27.9760E-03
            3826            4139     27.3013E-03     27.9760E-03
            3777            4140     25.2095E-03     25.8334E-03
            3827            4140     25.2095E-03     25.8334E-03
            3828            4140     25.2095E-03     25.8334E-03
            3778            4140     25.2095E-03     25.8334E-03
            3778            4141     23.4092E-03     23.5627E-03
            3779            4141     23.4092E-03     23.5627E-03
            3828            4141     23.4092E-03     23.5627E-03
            3829            4141     23.4092E-03     23.5627E-03
            3780            4142     21.0668E-03     22.0466E-03
            3830            4142     21.0668E-03     22.0466E-03
            3829            4142     21.0668E-03     22.0466E-03
            3779            4142     21.0668E-03     22.0466E-03
            3780            4143     20.4647E-03     19.8086E-03
            3831            4143     20.4647E-03     19.8086E-03
            3830            4143     20.4647E-03     19.8086E-03
            3781            4143     20.4647E-03     19.8086E-03
            3782            4144     19.1992E-03     18.4909E-03
            3831            4144     19.1992E-03     18.4909E-03
            3832            4144     19.1992E-03     18.4909E-03
            3781            4144     19.1992E-03     18.4909E-03
            3832            4145     18.4986E-03     22.0536E-03
            3782            4145     18.4986E-03     22.0536E-03
            3833            4145     18.4986E-03     22.0536E-03
            3783            4145     18.4986E-03     22.0536E-03
            3834            4146     22.0942E-03     21.8617E-03
            3783            4146     22.0942E-03     21.8617E-03
            3784            4146     22.0942E-03     21.8617E-03
            3833            4146     22.0942E-03     21.8617E-03
            3784            4147     20.6922E-03     19.5159E-03
            3785            4147     20.6922E-03     19.5159E-03
            3835            4147     20.6922E-03     19.5159E-03
            3834            4147     20.6922E-03     19.5159E-03
            3785            4148     16.7958E-03     18.2376E-03
            3835            4148     16.7958E-03     18.2376E-03
            3786            4148     16.7958E-03     18.2376E-03
            3836            4148     16.7958E-03     18.2376E-03
            3837            4149     15.5737E-03     15.4663E-03
            3836            4149     15.5737E-03     15.4663E-03
            3787            4149     15.5737E-03     15.4663E-03
            3786            4149     15.5737E-03     15.4663E-03
            3837            4150     13.5743E-03     13.9054E-03
            3787            4150     13.5743E-03     13.9054E-03
            3838            4150     13.5743E-03     13.9054E-03
            3788            4150     13.5743E-03     13.9054E-03
            3789            4151     11.7635E-03     12.0496E-03
            3788            4151     11.7635E-03     12.0496E-03
            3838            4151     11.7635E-03     12.0496E-03
            3839            4151     11.7635E-03     12.0496E-03
            3840            4152     10.0984E-03     10.2172E-03
            3790            4152     10.0984E-03     10.2172E-03
            3839            4152     10.0984E-03     10.2172E-03
            3789            4152     10.0984E-03     10.2172E-03
            3841            4153     8.35361E-03     8.50963E-03
            3790            4153     8.35361E-03     8.50963E-03
            3840            4153     8.35361E-03     8.50963E-03
            3791            4153     8.35361E-03     8.50963E-03
            3791            4154     6.94106E-03     6.87338E-03
            3842            4154     6.94106E-03     6.87338E-03
            3841            4154     6.94106E-03     6.87338E-03
            3792            4154     6.94106E-03     6.87338E-03
            3792            4155     5.92473E-03     5.58411E-03
            3842            4155     5.92473E-03     5.58411E-03
            3793            4155     5.92473E-03     5.58411E-03
            3843            4155     5.92473E-03     5.58411E-03
            3843            4156     6.16051E-03     7.23698E-03
            3844            4156     6.16051E-03     7.23698E-03
            3794            4156     6.16051E-03     7.23698E-03
            3793            4156     6.16051E-03     7.23698E-03
            3794            4157     7.52779E-03     7.60455E-03
            3844            4157     7.52779E-03     7.60455E-03
            3845            4157     7.52779E-03     7.60455E-03
            3795            4157     7.52779E-03     7.60455E-03
            3796            4158     6.20074E-03     5.70377E-03
            3846            4158     6.20074E-03     5.70377E-03
            3845            4158     6.20074E-03     5.70377E-03
            3795            4158     6.20074E-03     5.70377E-03
            3797            4159     3.78625E-03     4.30475E-03
            3847            4159     3.78625E-03     4.30475E-03
            3846            4159     3.78625E-03     4.30475E-03
            3796            4159     3.78625E-03     4.30475E-03
            3798            4160     2.63946E-03     2.39594E-03
            3847            4160     2.63946E-03     2.39594E-03
            3797            4160     2.63946E-03     2.39594E-03
            3848            4160     2.63946E-03     2.39594E-03
            3798            4161     2.17385E-03     1.83773E-03
            3799            4161     2.17385E-03     1.83773E-03
            3849            4161     2.17385E-03     1.83773E-03
            3848            4161     2.17385E-03     1.83773E-03
            3850            4162     2.54325E-03     2.80564E-03
            3800            4162     2.54325E-03     2.80564E-03
            3799            4162     2.54325E-03     2.80564E-03
            3849            4162     2.54325E-03     2.80564E-03
            4107            4328     11.5190E-03     11.4389E-03
            4108            4328     11.5190E-03     11.4389E-03
            4068            4328     11.5190E-03     11.4389E-03
            4067            4328     11.5190E-03     11.4389E-03
            4108            4329     11.5035E-03     11.4688E-03
            4068            4329     11.5035E-03     11.4688E-03
            4069            4329     11.5035E-03     11.4688E-03
            4109            4329     11.5035E-03     11.4688E-03
            4070            4330     11.5323E-03     11.4896E-03
            4110            4330     11.5323E-03     11.4896E-03
            4069            4330     11.5323E-03     11.4896E-03
            4109            4330     11.5323E-03     11.4896E-03
            4111            4331     11.5001E-03     11.2895E-03
            4071            4331     11.5001E-03     11.2895E-03
            4110            4331     11.5001E-03     11.2895E-03
            4070            4331     11.5001E-03     11.2895E-03
            4072            4332     12.2880E-03     12.1719E-03
            4111            4332     12.2880E-03     12.1719E-03
            4112            4332     12.2880E-03     12.1719E-03
            4071            4332     12.2880E-03     12.1719E-03
            4112            4333     13.2637E-03     13.1391E-03
            4073            4333     13.2637E-03     13.1391E-03
            4072            4333     13.2637E-03     13.1391E-03
            4113            4333     13.2637E-03     13.1391E-03
            4113            4334     13.3389E-03     13.1173E-03
            4114            4334     13.3389E-03     13.1173E-03
            4073            4334     13.3389E-03     13.1173E-03
            4074            4334     13.3389E-03     13.1173E-03
            4074            4335     13.3813E-03     13.2053E-03
            4114            4335     13.3813E-03     13.2053E-03
            4075            4335     13.3813E-03     13.2053E-03
            4115            4335     13.3813E-03     13.2053E-03
            4075            4336     13.4098E-03     13.2836E-03
            4076            4336     13.4098E-03     13.2836E-03
            4115            4336     13.4098E-03     13.2836E-03
            4116            4336     13.4098E-03     13.2836E-03
            4076            4337     13.4586E-03     13.4215E-03
            4077            4337     13.4586E-03     13.4215E-03
            4117            4337     13.4586E-03     13.4215E-03
            4116            4337     13.4586E-03     13.4215E-03
            4118            4338     13.5660E-03     13.5760E-03
            4117            4338     13.5660E-03     13.5760E-03
            4078            4338     13.5660E-03     13.5760E-03
            4077            4338     13.5660E-03     13.5760E-03
            4078            4339     13.6662E-03     13.6662E-03
            4118            4339     13.6662E-03     13.6662E-03
            4079            4339     13.6662E-03     13.6662E-03
            4119            4339     13.6662E-03     13.6662E-03
            4079            4340     13.6182E-03     13.9227E-03
            4080            4340     13.6182E-03     13.9227E-03
            4120            4340     13.6182E-03     13.9227E-03
            4119            4340     13.6182E-03     13.9227E-03
            4080            4341     14.0810E-03     14.0026E-03
            4120            4341     14.0810E-03     14.0026E-03
            4081            4341     14.0810E-03     14.0026E-03
            4121            4341     14.0810E-03     14.0026E-03
            4122            4342     14.0723E-03     13.5890E-03
            4121            4342     14.0723E-03     13.5890E-03
            4082            4342     14.0723E-03     13.5890E-03
            4081            4342     14.0723E-03     13.5890E-03
            4083            4343     14.3411E-03     14.3654E-03
            4123            4343     14.3411E-03     14.3654E-03
            4082            4343     14.3411E-03     14.3654E-03
            4122            4343     14.3411E-03     14.3654E-03
            4084            4344     15.2710E-03     15.1626E-03
            4123            4344     15.2710E-03     15.1626E-03
            4124            4344     15.2710E-03     15.1626E-03
            4083            4344     15.2710E-03     15.1626E-03
            4084            4345     15.5920E-03     15.1168E-03
            4125            4345     15.5920E-03     15.1168E-03
            4124            4345     15.5920E-03     15.1168E-03
            4085            4345     15.5920E-03     15.1168E-03
            4085            4346     15.8539E-03     15.4855E-03
            4126            4346     15.8539E-03     15.4855E-03
            4125            4346     15.8539E-03     15.4855E-03
            4086            4346     15.8539E-03     15.4855E-03
            4126            4347     16.0557E-03     15.7917E-03
            4086            4347     16.0557E-03     15.7917E-03
            4127            4347     16.0557E-03     15.7917E-03
            4087            4347     16.0557E-03     15.7917E-03
            4087            4348     16.2883E-03     16.1116E-03
            4127            4348     16.2883E-03     16.1116E-03
            4088            4348     16.2883E-03     16.1116E-03
            4128            4348     16.2883E-03     16.1116E-03
            4088            4349     16.4782E-03     16.5057E-03
            4129            4349     16.4782E-03     16.5057E-03
            4089            4349     16.4782E-03     16.5057E-03
            4128            4349     16.4782E-03     16.5057E-03
            4129            4350     16.7380E-03     16.8263E-03
            4089            4350     16.7380E-03     16.8263E-03
            4130            4350     16.7380E-03     16.8263E-03
            4090            4350     16.7380E-03     16.8263E-03
            4130            4351     16.9185E-03     16.9964E-03
            4090            4351     16.9185E-03     16.9964E-03
            4091            4351     16.9185E-03     16.9964E-03
            4131            4351     16.9185E-03     16.9964E-03
            4132            4352     16.7723E-03     17.4957E-03
            4092            4352     16.7723E-03     17.4957E-03
            4131            4352     16.7723E-03     17.4957E-03
            4091            4352     16.7723E-03     17.4957E-03
            4133            4353     17.6922E-03     17.4876E-03
            4093            4353     17.6922E-03     17.4876E-03
            4132            4353     17.6922E-03     17.4876E-03
            4092            4353     17.6922E-03     17.4876E-03
            4133            4354     17.5431E-03     16.7479E-03
            4134            4354     17.5431E-03     16.7479E-03
            4093            4354     17.5431E-03     16.7479E-03
            4094            4354     17.5431E-03     16.7479E-03
            4094            4355     17.2013E-03     17.7136E-03
            4095            4355     17.2013E-03     17.7136E-03
            4134            4355     17.2013E-03     17.7136E-03
            4135            4355     17.2013E-03     17.7136E-03
            4136            4356     18.6135E-03     18.4485E-03
            4095            4356     18.6135E-03     18.4485E-03
            4096            4356     18.6135E-03     18.4485E-03
            4135            4356     18.6135E-03     18.4485E-03
            4097            4357     19.2703E-03     18.4883E-03
            4096            4357     19.2703E-03     18.4883E-03
            4137            4357     19.2703E-03     18.4883E-03
            4136            4357     19.2703E-03     18.4883E-03
            4137            4358     19.6353E-03     19.2938E-03
            4098            4358     19.6353E-03     19.2938E-03
            4138            4358     19.6353E-03     19.2938E-03
            4097            4358     19.6353E-03     19.2938E-03
            4139            4359     20.0031E-03     19.7195E-03
            4138            4359     20.0031E-03     19.7195E-03
            4098            4359     20.0031E-03     19.7195E-03
            4099            4359     20.0031E-03     19.7195E-03
            4099            4360     20.3052E-03     20.2959E-03
            4140            4360     20.3052E-03     20.2959E-03
            4100            4360     20.3052E-03     20.2959E-03
            4139            4360     20.3052E-03     20.2959E-03
            4140            4361     20.6464E-03     20.7928E-03
            4141            4361     20.6464E-03     20.7928E-03
            4101            4361     20.6464E-03     20.7928E-03
            4100            4361     20.6464E-03     20.7928E-03
            4142            4362     20.8257E-03     20.9710E-03
            4101            4362     20.8257E-03     20.9710E-03
            4141            4362     20.8257E-03     20.9710E-03
            4102            4362     20.8257E-03     20.9710E-03
            4142            4363     20.5038E-03     21.6415E-03
            4103            4363     20.5038E-03     21.6415E-03
            4143            4363     20.5038E-03     21.6415E-03
            4102            4363     20.5038E-03     21.6415E-03
            4144            4364     21.7738E-03     21.4448E-03
            4104            4364     21.7738E-03     21.4448E-03
            4103            4364     21.7738E-03     21.4448E-03
            4143            4364     21.7738E-03     21.4448E-03
            4104            4365     21.3875E-03     20.3265E-03
            4144            4365     21.3875E-03     20.3265E-03
            4105            4365     21.3875E-03     20.3265E-03
            4145            4365     21.3875E-03     20.3265E-03
            4106            4366     18.4536E-03     18.8391E-03
            4105            4366     18.4536E-03     18.8391E-03
            4145            4366     18.4536E-03     18.8391E-03
            4146            4366     18.4536E-03     18.8391E-03
            4147            4367     10.5987E-03     10.5360E-03
            4148            4367     10.5987E-03     10.5360E-03
            4108            4367     10.5987E-03     10.5360E-03
            4107            4367     10.5987E-03     10.5360E-03
            4148            4368     10.6066E-03     10.5583E-03
            4108            4368     10.6066E-03     10.5583E-03
            4149            4368     10.6066E-03     10.5583E-03
            4109            4368     10.6066E-03     10.5583E-03
            4150            4369     10.6900E-03     10.6086E-03
            4149            4369     10.6900E-03     10.6086E-03
            4110            4369     10.6900E-03     10.6086E-03
            4109            4369     10.6900E-03     10.6086E-03
            4110            4370     10.6567E-03     10.5217E-03
            4111            4370     10.6567E-03     10.5217E-03
            4151            4370     10.6567E-03     10.5217E-03
            4150            4370     10.6567E-03     10.5217E-03
            4112            4371     11.2458E-03     11.2290E-03
            4152            4371     11.2458E-03     11.2290E-03
            4151            4371     11.2458E-03     11.2290E-03
            4111            4371     11.2458E-03     11.2290E-03
            4113            4372     12.0455E-03     12.0240E-03
            4153            4372     12.0455E-03     12.0240E-03
            4112            4372     12.0455E-03     12.0240E-03
            4152            4372     12.0455E-03     12.0240E-03
            4113            4373     12.2248E-03     12.1996E-03
            4153            4373     12.2248E-03     12.1996E-03
            4154            4373     12.2248E-03     12.1996E-03
            4114            4373     12.2248E-03     12.1996E-03
            4154            4374     12.4891E-03     12.5140E-03
            4114            4374     12.4891E-03     12.5140E-03
            4115            4374     12.4891E-03     12.5140E-03
            4155            4374     12.4891E-03     12.5140E-03
            4155            4375     12.8109E-03     12.8860E-03
            4156            4375     12.8109E-03     12.8860E-03
            4116            4375     12.8109E-03     12.8860E-03
            4115            4375     12.8109E-03     12.8860E-03
            4117            4376     13.1805E-03     13.2994E-03
            4157            4376     13.1805E-03     13.2994E-03
            4156            4376     13.1805E-03     13.2994E-03
            4116            4376     13.1805E-03     13.2994E-03
            4157            4377     13.7157E-03     13.6836E-03
            4158            4377     13.7157E-03     13.6836E-03
            4118            4377     13.7157E-03     13.6836E-03
            4117            4377     13.7157E-03     13.6836E-03
            4118            4378     14.1993E-03     14.0213E-03
            4158            4378     14.1993E-03     14.0213E-03
            4119            4378     14.1993E-03     14.0213E-03
            4159            4378     14.1993E-03     14.0213E-03
            4119            4379     14.4651E-03     14.8061E-03
            4159            4379     14.4651E-03     14.8061E-03
            4120            4379     14.4651E-03     14.8061E-03
            4160            4379     14.4651E-03     14.8061E-03
            4121            4380     15.6810E-03     14.9792E-03
            4120            4380     15.6810E-03     14.9792E-03
            4161            4380     15.6810E-03     14.9792E-03
            4160            4380     15.6810E-03     14.9792E-03
            4122            4381     15.5589E-03     14.9758E-03
            4161            4381     15.5589E-03     14.9758E-03
            4162            4381     15.5589E-03     14.9758E-03
            4121            4381     15.5589E-03     14.9758E-03
            4162            4382     14.8386E-03     15.6533E-03
            4122            4382     14.8386E-03     15.6533E-03
            4123            4382     14.8386E-03     15.6533E-03
            4163            4382     14.8386E-03     15.6533E-03
            4163            4383     15.9898E-03     15.8448E-03
            4164            4383     15.9898E-03     15.8448E-03
            4123            4383     15.9898E-03     15.8448E-03
            4124            4383     15.9898E-03     15.8448E-03
            4164            4384     16.7728E-03     16.5356E-03
            4165            4384     16.7728E-03     16.5356E-03
            4124            4384     16.7728E-03     16.5356E-03
            4125            4384     16.7728E-03     16.5356E-03
            4125            4385     17.2888E-03     17.5691E-03
            4165            4385     17.2888E-03     17.5691E-03
            4166            4385     17.2888E-03     17.5691E-03
            4126            4385     17.2888E-03     17.5691E-03
            4167            4386     18.1381E-03     18.2273E-03
            4127            4386     18.1381E-03     18.2273E-03
            4166            4386     18.1381E-03     18.2273E-03
            4126            4386     18.1381E-03     18.2273E-03
            4127            4387     18.9663E-03     18.9646E-03
            4128            4387     18.9663E-03     18.9646E-03
            4167            4387     18.9663E-03     18.9646E-03
            4168            4387     18.9663E-03     18.9646E-03
            4169            4388     19.6912E-03     19.7567E-03
            4128            4388     19.6912E-03     19.7567E-03
            4129            4388     19.6912E-03     19.7567E-03
            4168            4388     19.6912E-03     19.7567E-03
            4170            4389     20.6739E-03     20.4071E-03
            4169            4389     20.6739E-03     20.4071E-03
            4130            4389     20.6739E-03     20.4071E-03
            4129            4389     20.6739E-03     20.4071E-03
            4131            4390     21.4321E-03     20.9819E-03
            4171            4390     21.4321E-03     20.9819E-03
            4170            4390     21.4321E-03     20.9819E-03
            4130            4390     21.4321E-03     20.9819E-03
            4131            4391     21.6451E-03     22.4639E-03
            4132            4391     21.6451E-03     22.4639E-03
            4171            4391     21.6451E-03     22.4639E-03
            4172            4391     21.6451E-03     22.4639E-03
            4132            4392     23.8408E-03     22.3686E-03
            4172            4392     23.8408E-03     22.3686E-03
            4173            4392     23.8408E-03     22.3686E-03
            4133            4392     23.8408E-03     22.3686E-03
            4174            4393     23.2408E-03     22.1958E-03
            4133            4393     23.2408E-03     22.1958E-03
            4173            4393     23.2408E-03     22.1958E-03
            4134            4393     23.2408E-03     22.1958E-03
            4135            4394     20.9202E-03     23.2019E-03
            4175            4394     20.9202E-03     23.2019E-03
            4174            4394     20.9202E-03     23.2019E-03
            4134            4394     20.9202E-03     23.2019E-03
            4175            4395     23.2614E-03     22.7577E-03
            4135            4395     23.2614E-03     22.7577E-03
            4136            4395     23.2614E-03     22.7577E-03
            4176            4395     23.2614E-03     22.7577E-03
            4137            4396     24.8572E-03     24.0342E-03
            4177            4396     24.8572E-03     24.0342E-03
            4136            4396     24.8572E-03     24.0342E-03
            4176            4396     24.8572E-03     24.0342E-03
            4137            4397     25.1960E-03     25.8791E-03
            4177            4397     25.1960E-03     25.8791E-03
            4178            4397     25.1960E-03     25.8791E-03
            4138            4397     25.1960E-03     25.8791E-03
            4179            4398     26.5782E-03     26.5191E-03
            4178            4398     26.5782E-03     26.5191E-03
            4138            4398     26.5782E-03     26.5191E-03
            4139            4398     26.5782E-03     26.5191E-03
            4180            4399     27.5796E-03     27.6884E-03
            4139            4399     27.5796E-03     27.6884E-03
            4140            4399     27.5796E-03     27.6884E-03
            4179            4399     27.5796E-03     27.6884E-03
            4181            4400     28.7671E-03     28.5857E-03
            4180            4400     28.7671E-03     28.5857E-03
            4140            4400     28.7671E-03     28.5857E-03
            4141            4400     28.7671E-03     28.5857E-03
            4182            4401     29.6990E-03     29.1936E-03
            4181            4401     29.6990E-03     29.1936E-03
            4141            4401     29.6990E-03     29.1936E-03
            4142            4401     29.6990E-03     29.1936E-03
            4183            4402     29.7402E-03     31.1452E-03
            4142            4402     29.7402E-03     31.1452E-03
            4143            4402     29.7402E-03     31.1452E-03
            4182            4402     29.7402E-03     31.1452E-03
            4184            4403     32.7001E-03     30.5970E-03
            4183            4403     32.7001E-03     30.5970E-03
            4143            4403     32.7001E-03     30.5970E-03
            4144            4403     32.7001E-03     30.5970E-03
            4185            4404     31.5256E-03     30.0635E-03
            4184            4404     31.5256E-03     30.0635E-03
            4144            4404     31.5256E-03     30.0635E-03
            4145            4404     31.5256E-03     30.0635E-03
            4186            4405     27.6493E-03     29.9621E-03
            4185            4405     27.6493E-03     29.9621E-03
            4145            4405     27.6493E-03     29.9621E-03
            4146            4405     27.6493E-03     29.9621E-03
            4188            4406     9.14201E-03     9.13311E-03
            4147            4406     9.14201E-03     9.13311E-03
            4148            4406     9.14201E-03     9.13311E-03
            4187            4406     9.14201E-03     9.13311E-03
            4149            4407     9.12840E-03     9.17951E-03
            4188            4407     9.12840E-03     9.17951E-03
            4148            4407     9.12840E-03     9.17951E-03
            4189            4407     9.12840E-03     9.17951E-03
            4149            4408     9.43889E-03     9.27667E-03
            4189            4408     9.43889E-03     9.27667E-03
            4190            4408     9.43889E-03     9.27667E-03
            4150            4408     9.43889E-03     9.27667E-03
            4191            4409     9.54674E-03     9.43377E-03
            4150            4409     9.54674E-03     9.43377E-03
            4151            4409     9.54674E-03     9.43377E-03
            4190            4409     9.54674E-03     9.43377E-03
            4192            4410     9.83629E-03     10.0071E-03
            4191            4410     9.83629E-03     10.0071E-03
            4151            4410     9.83629E-03     10.0071E-03
            4152            4410     9.83629E-03     10.0071E-03
            4193            4411     10.4503E-03     10.6440E-03
            4192            4411     10.4503E-03     10.6440E-03
            4152            4411     10.4503E-03     10.6440E-03
            4153            4411     10.4503E-03     10.6440E-03
            4194            4412     10.8240E-03     11.1749E-03
            4153            4412     10.8240E-03     11.1749E-03
            4154            4412     10.8240E-03     11.1749E-03
            4193            4412     10.8240E-03     11.1749E-03
            4195            4413     11.4885E-03     11.7915E-03
            4194            4413     11.4885E-03     11.7915E-03
            4154            4413     11.4885E-03     11.7915E-03
            4155            4413     11.4885E-03     11.7915E-03
            4196            4414     12.2240E-03     12.4028E-03
            4156            4414     12.2240E-03     12.4028E-03
            4155            4414     12.2240E-03     12.4028E-03
            4195            4414     12.2240E-03     12.4028E-03
            4197            4415     12.9945E-03     13.1279E-03
            4156            4415     12.9945E-03     13.1279E-03
            4196            4415     12.9945E-03     13.1279E-03
            4157            4415     12.9945E-03     13.1279E-03
            4198            4416     13.9894E-03     13.8483E-03
            4157            4416     13.9894E-03     13.8483E-03
            4158            4416     13.9894E-03     13.8483E-03
            4197            4416     13.9894E-03     13.8483E-03
            4198            4417     14.9118E-03     14.5854E-03
            4158            4417     14.9118E-03     14.5854E-03
            4159            4417     14.9118E-03     14.5854E-03
            4199            4417     14.9118E-03     14.5854E-03
            4160            4418     15.5895E-03     16.1195E-03
            4199            4418     15.5895E-03     16.1195E-03
            4159            4418     15.5895E-03     16.1195E-03
            4200            4418     15.5895E-03     16.1195E-03
            4201            4419     18.0222E-03     16.5065E-03
            4160            4419     18.0222E-03     16.5065E-03
            4161            4419     18.0222E-03     16.5065E-03
            4200            4419     18.0222E-03     16.5065E-03
            4202            4420     17.9407E-03     17.3225E-03
            4201            4420     17.9407E-03     17.3225E-03
            4161            4420     17.9407E-03     17.3225E-03
            4162            4420     17.9407E-03     17.3225E-03
            4203            4421     16.0653E-03     18.3660E-03
            4163            4421     16.0653E-03     18.3660E-03
            4162            4421     16.0653E-03     18.3660E-03
            4202            4421     16.0653E-03     18.3660E-03
            4204            4422     17.9222E-03     17.8842E-03
            4203            4422     17.9222E-03     17.8842E-03
            4163            4422     17.9222E-03     17.8842E-03
            4164            4422     17.9222E-03     17.8842E-03
            4164            4423     19.2717E-03     19.1746E-03
            4204            4423     19.2717E-03     19.1746E-03
            4165            4423     19.2717E-03     19.1746E-03
            4205            4423     19.2717E-03     19.1746E-03
            4205            4424     19.7289E-03     20.6476E-03
            4165            4424     19.7289E-03     20.6476E-03
            4206            4424     19.7289E-03     20.6476E-03
            4166            4424     19.7289E-03     20.6476E-03
            4207            4425     21.0952E-03     21.2515E-03
            4206            4425     21.0952E-03     21.2515E-03
            4166            4425     21.0952E-03     21.2515E-03
            4167            4425     21.0952E-03     21.2515E-03
            4167            4426     22.2909E-03     22.2511E-03
            4208            4426     22.2909E-03     22.2511E-03
            4168            4426     22.2909E-03     22.2511E-03
            4207            4426     22.2909E-03     22.2511E-03
            4208            4427     23.3915E-03     23.4963E-03
            4169            4427     23.3915E-03     23.4963E-03
            4168            4427     23.3915E-03     23.4963E-03
            4209            4427     23.3915E-03     23.4963E-03
            4209            4428     25.0108E-03     24.5810E-03
            4169            4428     25.0108E-03     24.5810E-03
            4210            4428     25.0108E-03     24.5810E-03
            4170            4428     25.0108E-03     24.5810E-03
            4210            4429     26.3962E-03     25.7149E-03
            4211            4429     26.3962E-03     25.7149E-03
            4170            4429     26.3962E-03     25.7149E-03
            4171            4429     26.3962E-03     25.7149E-03
            4211            4430     27.1682E-03     28.3923E-03
            4212            4430     27.1682E-03     28.3923E-03
            4171            4430     27.1682E-03     28.3923E-03
            4172            4430     27.1682E-03     28.3923E-03
            4212            4431     31.2943E-03     28.5201E-03
            4173            4431     31.2943E-03     28.5201E-03
            4213            4431     31.2943E-03     28.5201E-03
            4172            4431     31.2943E-03     28.5201E-03
            4213            4432     30.5258E-03     29.4432E-03
            4173            4432     30.5258E-03     29.4432E-03
            4214            4432     30.5258E-03     29.4432E-03
            4174            4432     30.5258E-03     29.4432E-03
            4175            4433     26.1760E-03     31.2372E-03
            4215            4433     26.1760E-03     31.2372E-03
            4214            4433     26.1760E-03     31.2372E-03
            4174            4433     26.1760E-03     31.2372E-03
            4216            4434     30.0504E-03     29.5336E-03
            4176            4434     30.0504E-03     29.5336E-03
            4215            4434     30.0504E-03     29.5336E-03
            4175            4434     30.0504E-03     29.5336E-03
            4217            4435     32.4656E-03     31.3828E-03
            4177            4435     32.4656E-03     31.3828E-03
            4216            4435     32.4656E-03     31.3828E-03
            4176            4435     32.4656E-03     31.3828E-03
            4177            4436     32.1289E-03     33.6427E-03
            4218            4436     32.1289E-03     33.6427E-03
            4217            4436     32.1289E-03     33.6427E-03
            4178            4436     32.1289E-03     33.6427E-03
            4179            4437     34.0028E-03     33.8063E-03
            4219            4437     34.0028E-03     33.8063E-03
            4178            4437     34.0028E-03     33.8063E-03
            4218            4437     34.0028E-03     33.8063E-03
            4219            4438     35.3029E-03     35.2931E-03
            4220            4438     35.3029E-03     35.2931E-03
            4180            4438     35.3029E-03     35.2931E-03
            4179            4438     35.3029E-03     35.2931E-03
            4181            4439     37.0297E-03     36.5737E-03
            4220            4439     37.0297E-03     36.5737E-03
            4180            4439     37.0297E-03     36.5737E-03
            4221            4439     37.0297E-03     36.5737E-03
            4222            4440     38.6931E-03     37.6996E-03
            4182            4440     38.6931E-03     37.6996E-03
            4181            4440     38.6931E-03     37.6996E-03
            4221            4440     38.6931E-03     37.6996E-03
            4182            4441     39.3859E-03     41.2396E-03
            4223            4441     39.3859E-03     41.2396E-03
            4222            4441     39.3859E-03     41.2396E-03
            4183            4441     39.3859E-03     41.2396E-03
            4224            4442     44.8951E-03     40.9596E-03
            4184            4442     44.8951E-03     40.9596E-03
            4183            4442     44.8951E-03     40.9596E-03
            4223            4442     44.8951E-03     40.9596E-03
            4184            4443     43.3828E-03     41.7976E-03
            4225            4443     43.3828E-03     41.7976E-03
            4185            4443     43.3828E-03     41.7976E-03
            4224            4443     43.3828E-03     41.7976E-03
            4186            4444     37.7621E-03     42.4958E-03
            4226            4444     37.7621E-03     42.4958E-03
            4185            4444     37.7621E-03     42.4958E-03
            4225            4444     37.7621E-03     42.4958E-03
            4227            4445     7.11396E-03     7.23800E-03
            4228            4445     7.11396E-03     7.23800E-03
            4188            4445     7.11396E-03     7.23800E-03
            4187            4445     7.11396E-03     7.23800E-03
            4228            4446     7.19878E-03     7.49655E-03
            4229            4446     7.19878E-03     7.49655E-03
            4189            4446     7.19878E-03     7.49655E-03
            4188            4446     7.19878E-03     7.49655E-03
            4229            4447     7.87471E-03     7.55437E-03
            4190            4447     7.87471E-03     7.55437E-03
            4230            4447     7.87471E-03     7.55437E-03
            4189            4447     7.87471E-03     7.55437E-03
            4190            4448     8.06865E-03     7.98547E-03
            4231            4448     8.06865E-03     7.98547E-03
            4191            4448     8.06865E-03     7.98547E-03
            4230            4448     8.06865E-03     7.98547E-03
            4192            4449     8.15020E-03     8.80270E-03
            4231            4449     8.15020E-03     8.80270E-03
            4232            4449     8.15020E-03     8.80270E-03
            4191            4449     8.15020E-03     8.80270E-03
            4233            4450     8.95650E-03     9.38289E-03
            4192            4450     8.95650E-03     9.38289E-03
            4193            4450     8.95650E-03     9.38289E-03
            4232            4450     8.95650E-03     9.38289E-03
            4193            4451     9.60030E-03     10.1444E-03
            4194            4451     9.60030E-03     10.1444E-03
            4234            4451     9.60030E-03     10.1444E-03
            4233            4451     9.60030E-03     10.1444E-03
            4234            4452     10.4886E-03     10.8435E-03
            4194            4452     10.4886E-03     10.8435E-03
            4195            4452     10.4886E-03     10.8435E-03
            4235            4452     10.4886E-03     10.8435E-03
            4236            4453     11.5944E-03     11.6493E-03
            4196            4453     11.5944E-03     11.6493E-03
            4235            4453     11.5944E-03     11.6493E-03
            4195            4453     11.5944E-03     11.6493E-03
            4237            4454     12.6801E-03     12.9036E-03
            4197            4454     12.6801E-03     12.9036E-03
            4236            4454     12.6801E-03     12.9036E-03
            4196            4454     12.6801E-03     12.9036E-03
            4198            4455     14.2122E-03     14.1616E-03
            4197            4455     14.2122E-03     14.1616E-03
            4237            4455     14.2122E-03     14.1616E-03
            4238            4455     14.2122E-03     14.1616E-03
            4238            4456     15.6236E-03     15.4748E-03
            4239            4456     15.6236E-03     15.4748E-03
            4199            4456     15.6236E-03     15.4748E-03
            4198            4456     15.6236E-03     15.4748E-03
            4240            4457     16.6611E-03     17.9427E-03
            4199            4457     16.6611E-03     17.9427E-03
            4239            4457     16.6611E-03     17.9427E-03
            4200            4457     16.6611E-03     17.9427E-03
            4200            4458     20.3818E-03     18.3295E-03
            4241            4458     20.3818E-03     18.3295E-03
            4240            4458     20.3818E-03     18.3295E-03
            4201            4458     20.3818E-03     18.3295E-03
            4202            4459     20.4725E-03     20.0819E-03
            4201            4459     20.4725E-03     20.0819E-03
            4242            4459     20.4725E-03     20.0819E-03
            4241            4459     20.4725E-03     20.0819E-03
            4203            4460     17.7729E-03     22.2963E-03
            4202            4460     17.7729E-03     22.2963E-03
            4243            4460     17.7729E-03     22.2963E-03
            4242            4460     17.7729E-03     22.2963E-03
            4243            4461     20.6745E-03     20.8791E-03
            4204            4461     20.6745E-03     20.8791E-03
            4244            4461     20.6745E-03     20.8791E-03
            4203            4461     20.6745E-03     20.8791E-03
            4245            4462     22.3005E-03     21.8916E-03
            4205            4462     22.3005E-03     21.8916E-03
            4204            4462     22.3005E-03     21.8916E-03
            4244            4462     22.3005E-03     21.8916E-03
            4205            4463     22.0930E-03     23.3963E-03
            4206            4463     22.0930E-03     23.3963E-03
            4245            4463     22.0930E-03     23.3963E-03
            4246            4463     22.0930E-03     23.3963E-03
            4206            4464     23.7314E-03     23.9219E-03
            4207            4464     23.7314E-03     23.9219E-03
            4246            4464     23.7314E-03     23.9219E-03
            4247            4464     23.7314E-03     23.9219E-03
            4248            4465     25.1645E-03     25.3961E-03
            4208            4465     25.1645E-03     25.3961E-03
            4247            4465     25.1645E-03     25.3961E-03
            4207            4465     25.1645E-03     25.3961E-03
            4209            4466     26.5181E-03     27.2510E-03
            4208            4466     26.5181E-03     27.2510E-03
            4249            4466     26.5181E-03     27.2510E-03
            4248            4466     26.5181E-03     27.2510E-03
            4209            4467     28.7798E-03     28.8761E-03
            4210            4467     28.7798E-03     28.8761E-03
            4249            4467     28.7798E-03     28.8761E-03
            4250            4467     28.7798E-03     28.8761E-03
            4210            4468     30.6781E-03     30.5526E-03
            4211            4468     30.6781E-03     30.5526E-03
            4250            4468     30.6781E-03     30.5526E-03
            4251            4468     30.6781E-03     30.5526E-03
            4252            4469     31.8454E-03     34.3611E-03
            4211            4469     31.8454E-03     34.3611E-03
            4212            4469     31.8454E-03     34.3611E-03
            4251            4469     31.8454E-03     34.3611E-03
            4212            4470     37.9743E-03     34.3558E-03
            4213            4470     37.9743E-03     34.3558E-03
            4253            4470     37.9743E-03     34.3558E-03
            4252            4470     37.9743E-03     34.3558E-03
            4214            4471     37.4267E-03     36.7245E-03
            4213            4471     37.4267E-03     36.7245E-03
            4253            4471     37.4267E-03     36.7245E-03
            4254            4471     37.4267E-03     36.7245E-03
            4255            4472     31.6168E-03     40.5724E-03
            4214            4472     31.6168E-03     40.5724E-03
            4215            4472     31.6168E-03     40.5724E-03
            4254            4472     31.6168E-03     40.5724E-03
            4255            4473     37.2318E-03     37.0690E-03
            4256            4473     37.2318E-03     37.0690E-03
            4216            4473     37.2318E-03     37.0690E-03
            4215            4473     37.2318E-03     37.0690E-03
            4256            4474     39.7923E-03     38.0272E-03
            4216            4474     39.7923E-03     38.0272E-03
            4257            4474     39.7923E-03     38.0272E-03
            4217            4474     39.7923E-03     38.0272E-03
            4257            4475     37.9667E-03     40.2989E-03
            4258            4475     37.9667E-03     40.2989E-03
            4217            4475     37.9667E-03     40.2989E-03
            4218            4475     37.9667E-03     40.2989E-03
            4219            4476     40.0519E-03     40.0040E-03
            4258            4476     40.0519E-03     40.0040E-03
            4218            4476     40.0519E-03     40.0040E-03
            4259            4476     40.0519E-03     40.0040E-03
            4219            4477     41.4150E-03     42.1512E-03
            4259            4477     41.4150E-03     42.1512E-03
            4220            4477     41.4150E-03     42.1512E-03
            4260            4477     41.4150E-03     42.1512E-03
            4260            4478     43.6440E-03     43.9798E-03
            4221            4478     43.6440E-03     43.9798E-03
            4220            4478     43.6440E-03     43.9798E-03
            4261            4478     43.6440E-03     43.9798E-03
            4222            4479     45.9481E-03     45.5992E-03
            4221            4479     45.9481E-03     45.5992E-03
            4261            4479     45.9481E-03     45.5992E-03
            4262            4479     45.9481E-03     45.5992E-03
            4262            4480     47.0853E-03     50.6544E-03
            4222            4480     47.0853E-03     50.6544E-03
            4263            4480     47.0853E-03     50.6544E-03
            4223            4480     47.0853E-03     50.6544E-03
            4263            4481     55.4049E-03     50.2356E-03
            4224            4481     55.4049E-03     50.2356E-03
            4264            4481     55.4049E-03     50.2356E-03
            4223            4481     55.4049E-03     50.2356E-03
            4264            4482     54.2356E-03     53.1782E-03
            4225            4482     54.2356E-03     53.1782E-03
            4224            4482     54.2356E-03     53.1782E-03
            4265            4482     54.2356E-03     53.1782E-03
            4265            4483     46.8455E-03     54.6227E-03
            4225            4483     46.8455E-03     54.6227E-03
            4226            4483     46.8455E-03     54.6227E-03
            4266            4483     46.8455E-03     54.6227E-03
            4227            4484     4.73659E-03     4.94469E-03
            4228            4484     4.73659E-03     4.94469E-03
            4268            4484     4.73659E-03     4.94469E-03
            4267            4484     4.73659E-03     4.94469E-03
            4229            4485     4.87597E-03     5.14805E-03
            4268            4485     4.87597E-03     5.14805E-03
            4269            4485     4.87597E-03     5.14805E-03
            4228            4485     4.87597E-03     5.14805E-03
            4229            4486     6.19089E-03     5.48144E-03
            4270            4486     6.19089E-03     5.48144E-03
            4269            4486     6.19089E-03     5.48144E-03
            4230            4486     6.19089E-03     5.48144E-03
            4271            4487     6.60525E-03     6.77639E-03
            4230            4487     6.60525E-03     6.77639E-03
            4270            4487     6.60525E-03     6.77639E-03
            4231            4487     6.60525E-03     6.77639E-03
            4231            4488     6.63559E-03     7.89636E-03
            4272            4488     6.63559E-03     7.89636E-03
            4271            4488     6.63559E-03     7.89636E-03
            4232            4488     6.63559E-03     7.89636E-03
            4272            4489     7.87859E-03     8.06643E-03
            4233            4489     7.87859E-03     8.06643E-03
            4273            4489     7.87859E-03     8.06643E-03
            4232            4489     7.87859E-03     8.06643E-03
            4234            4490     8.41778E-03     8.73613E-03
            4273            4490     8.41778E-03     8.73613E-03
            4233            4490     8.41778E-03     8.73613E-03
            4274            4490     8.41778E-03     8.73613E-03
            4234            4491     9.39266E-03     9.69503E-03
            4235            4491     9.39266E-03     9.69503E-03
            4275            4491     9.39266E-03     9.69503E-03
            4274            4491     9.39266E-03     9.69503E-03
            4236            4492     10.9564E-03     11.1203E-03
            4276            4492     10.9564E-03     11.1203E-03
            4235            4492     10.9564E-03     11.1203E-03
            4275            4492     10.9564E-03     11.1203E-03
            4276            4493     12.4742E-03     13.0619E-03
            4236            4493     12.4742E-03     13.0619E-03
            4237            4493     12.4742E-03     13.0619E-03
            4277            4493     12.4742E-03     13.0619E-03
            4278            4494     14.5850E-03     14.9680E-03
            4237            4494     14.5850E-03     14.9680E-03
            4277            4494     14.5850E-03     14.9680E-03
            4238            4494     14.5850E-03     14.9680E-03
            4239            4495     16.6320E-03     16.7918E-03
            4279            4495     16.6320E-03     16.7918E-03
            4238            4495     16.6320E-03     16.7918E-03
            4278            4495     16.6320E-03     16.7918E-03
            4280            4496     17.9403E-03     20.1156E-03
            4239            4496     17.9403E-03     20.1156E-03
            4279            4496     17.9403E-03     20.1156E-03
            4240            4496     17.9403E-03     20.1156E-03
            4281            4497     22.7521E-03     20.8766E-03
            4240            4497     22.7521E-03     20.8766E-03
            4280            4497     22.7521E-03     20.8766E-03
            4241            4497     22.7521E-03     20.8766E-03
            4281            4498     23.0398E-03     23.0515E-03
            4242            4498     23.0398E-03     23.0515E-03
            4282            4498     23.0398E-03     23.0515E-03
            4241            4498     23.0398E-03     23.0515E-03
            4282            4499     19.6589E-03     25.5994E-03
            4243            4499     19.6589E-03     25.5994E-03
            4242            4499     19.6589E-03     25.5994E-03
            4283            4499     19.6589E-03     25.5994E-03
            4243            4500     23.0234E-03     23.0910E-03
            4283            4500     23.0234E-03     23.0910E-03
            4244            4500     23.0234E-03     23.0910E-03
            4284            4500     23.0234E-03     23.0910E-03
            4285            4501     24.1762E-03     23.6412E-03
            4284            4501     24.1762E-03     23.6412E-03
            4245            4501     24.1762E-03     23.6412E-03
            4244            4501     24.1762E-03     23.6412E-03
            4286            4502     23.6120E-03     25.4041E-03
            4285            4502     23.6120E-03     25.4041E-03
            4245            4502     23.6120E-03     25.4041E-03
            4246            4502     23.6120E-03     25.4041E-03
            4246            4503     25.7592E-03     26.4285E-03
            4247            4503     25.7592E-03     26.4285E-03
            4286            4503     25.7592E-03     26.4285E-03
            4287            4503     25.7592E-03     26.4285E-03
            4247            4504     27.6241E-03     28.5881E-03
            4248            4504     27.6241E-03     28.5881E-03
            4287            4504     27.6241E-03     28.5881E-03
            4288            4504     27.6241E-03     28.5881E-03
            4249            4505     29.3708E-03     30.9601E-03
            4288            4505     29.3708E-03     30.9601E-03
            4289            4505     29.3708E-03     30.9601E-03
            4248            4505     29.3708E-03     30.9601E-03
            4290            4506     32.1062E-03     33.1626E-03
            4250            4506     32.1062E-03     33.1626E-03
            4289            4506     32.1062E-03     33.1626E-03
            4249            4506     32.1062E-03     33.1626E-03
            4251            4507     34.5867E-03     35.1448E-03
            4250            4507     34.5867E-03     35.1448E-03
            4291            4507     34.5867E-03     35.1448E-03
            4290            4507     34.5867E-03     35.1448E-03
            4251            4508     35.7464E-03     39.8242E-03
            4252            4508     35.7464E-03     39.8242E-03
            4292            4508     35.7464E-03     39.8242E-03
            4291            4508     35.7464E-03     39.8242E-03
            4293            4509     43.3247E-03     40.1190E-03
            4292            4509     43.3247E-03     40.1190E-03
            4252            4509     43.3247E-03     40.1190E-03
            4253            4509     43.3247E-03     40.1190E-03
            4294            4510     43.2074E-03     43.1086E-03
            4254            4510     43.2074E-03     43.1086E-03
            4253            4510     43.2074E-03     43.1086E-03
            4293            4510     43.2074E-03     43.1086E-03
            4294            4511     36.3902E-03     47.7823E-03
            4254            4511     36.3902E-03     47.7823E-03
            4295            4511     36.3902E-03     47.7823E-03
            4255            4511     36.3902E-03     47.7823E-03
            4295            4512     42.7728E-03     42.7102E-03
            4255            4512     42.7728E-03     42.7102E-03
            4256            4512     42.7728E-03     42.7102E-03
            4296            4512     42.7728E-03     42.7102E-03
            4296            4513     44.5241E-03     42.8342E-03
            4257            4513     44.5241E-03     42.8342E-03
            4297            4513     44.5241E-03     42.8342E-03
            4256            4513     44.5241E-03     42.8342E-03
            4257            4514     41.8016E-03     45.4360E-03
            4297            4514     41.8016E-03     45.4360E-03
            4258            4514     41.8016E-03     45.4360E-03
            4298            4514     41.8016E-03     45.4360E-03
            4298            4515     44.7386E-03     45.5466E-03
            4259            4515     44.7386E-03     45.5466E-03
            4299            4515     44.7386E-03     45.5466E-03
            4258            4515     44.7386E-03     45.5466E-03
            4299            4516     46.3303E-03     48.5257E-03
            4259            4516     46.3303E-03     48.5257E-03
            4300            4516     46.3303E-03     48.5257E-03
            4260            4516     46.3303E-03     48.5257E-03
            4301            4517     49.0750E-03     50.9834E-03
            4300            4517     49.0750E-03     50.9834E-03
            4261            4517     49.0750E-03     50.9834E-03
            4260            4517     49.0750E-03     50.9834E-03
            4261            4518     52.1368E-03     52.8985E-03
            4301            4518     52.1368E-03     52.8985E-03
            4262            4518     52.1368E-03     52.8985E-03
            4302            4518     52.1368E-03     52.8985E-03
            4303            4519     53.0885E-03     59.0127E-03
            4263            4519     53.0885E-03     59.0127E-03
            4262            4519     53.0885E-03     59.0127E-03
            4302            4519     53.0885E-03     59.0127E-03
            4263            4520     63.4287E-03     58.9255E-03
            4303            4520     63.4287E-03     58.9255E-03
            4304            4520     63.4287E-03     58.9255E-03
            4264            4520     63.4287E-03     58.9255E-03
            4305            4521     63.0149E-03     62.8393E-03
            4265            4521     63.0149E-03     62.8393E-03
            4264            4521     63.0149E-03     62.8393E-03
            4304            4521     63.0149E-03     62.8393E-03
            4306            4522     54.0453E-03     63.9477E-03
            4266            4522     54.0453E-03     63.9477E-03
            4305            4522     54.0453E-03     63.9477E-03
            4265            4522     54.0453E-03     63.9477E-03
            4268            4523     3.06223E-03     3.52863E-03
            4307            4523     3.06223E-03     3.52863E-03
            4267            4523     3.06223E-03     3.52863E-03
            4308            4523     3.06223E-03     3.52863E-03
            4308            4524     3.03315E-03     3.22759E-03
            4268            4524     3.03315E-03     3.22759E-03
            4269            4524     3.03315E-03     3.22759E-03
            4309            4524     3.03315E-03     3.22759E-03
            4309            4525     5.30573E-03     4.50705E-03
            4269            4525     5.30573E-03     4.50705E-03
            4310            4525     5.30573E-03     4.50705E-03
            4270            4525     5.30573E-03     4.50705E-03
            4310            4526     7.02126E-03     7.29602E-03
            4270            4526     7.02126E-03     7.29602E-03
            4271            4526     7.02126E-03     7.29602E-03
            4311            4526     7.02126E-03     7.29602E-03
            4312            4527     5.98761E-03     7.08152E-03
            4272            4527     5.98761E-03     7.08152E-03
            4271            4527     5.98761E-03     7.08152E-03
            4311            4527     5.98761E-03     7.08152E-03
            4312            4528     5.72958E-03     5.43086E-03
            4272            4528     5.72958E-03     5.43086E-03
            4273            4528     5.72958E-03     5.43086E-03
            4313            4528     5.72958E-03     5.43086E-03
            4314            4529     6.91269E-03     6.91607E-03
            4273            4529     6.91269E-03     6.91607E-03
            4313            4529     6.91269E-03     6.91607E-03
            4274            4529     6.91269E-03     6.91607E-03
            4314            4530     8.87124E-03     8.91538E-03
            4315            4530     8.87124E-03     8.91538E-03
            4275            4530     8.87124E-03     8.91538E-03
            4274            4530     8.87124E-03     8.91538E-03
            4316            4531     11.0528E-03     11.1969E-03
            4315            4531     11.0528E-03     11.1969E-03
            4275            4531     11.0528E-03     11.1969E-03
            4276            4531     11.0528E-03     11.1969E-03
            4277            4532     13.2300E-03     13.5495E-03
            4276            4532     13.2300E-03     13.5495E-03
            4317            4532     13.2300E-03     13.5495E-03
            4316            4532     13.2300E-03     13.5495E-03
            4318            4533     15.5948E-03     15.9487E-03
            4317            4533     15.5948E-03     15.9487E-03
            4278            4533     15.5948E-03     15.9487E-03
            4277            4533     15.5948E-03     15.9487E-03
            4279            4534     18.1472E-03     18.0332E-03
            4278            4534     18.1472E-03     18.0332E-03
            4319            4534     18.1472E-03     18.0332E-03
            4318            4534     18.1472E-03     18.0332E-03
            4320            4535     19.8195E-03     21.5654E-03
            4280            4535     19.8195E-03     21.5654E-03
            4319            4535     19.8195E-03     21.5654E-03
            4279            4535     19.8195E-03     21.5654E-03
            4280            4536     24.7406E-03     23.2219E-03
            4281            4536     24.7406E-03     23.2219E-03
            4320            4536     24.7406E-03     23.2219E-03
            4321            4536     24.7406E-03     23.2219E-03
            4321            4537     26.4663E-03     26.2480E-03
            4282            4537     26.4663E-03     26.2480E-03
            4322            4537     26.4663E-03     26.2480E-03
            4281            4537     26.4663E-03     26.2480E-03
            4282            4538     22.0604E-03     26.3981E-03
            4323            4538     22.0604E-03     26.3981E-03
            4322            4538     22.0604E-03     26.3981E-03
            4283            4538     22.0604E-03     26.3981E-03
            4283            4539     22.8147E-03     21.9334E-03
            4323            4539     22.8147E-03     21.9334E-03
            4284            4539     22.8147E-03     21.9334E-03
            4324            4539     22.8147E-03     21.9334E-03
            4324            4540     24.3553E-03     23.5096E-03
            4325            4540     24.3553E-03     23.5096E-03
            4284            4540     24.3553E-03     23.5096E-03
            4285            4540     24.3553E-03     23.5096E-03
            4325            4541     25.1214E-03     26.2356E-03
            4286            4541     25.1214E-03     26.2356E-03
            4285            4541     25.1214E-03     26.2356E-03
            4326            4541     25.1214E-03     26.2356E-03
            4327            4542     27.9179E-03     28.1745E-03
            4286            4542     27.9179E-03     28.1745E-03
            4287            4542     27.9179E-03     28.1745E-03
            4326            4542     27.9179E-03     28.1745E-03
            4288            4543     30.2791E-03     30.8488E-03
            4328            4543     30.2791E-03     30.8488E-03
            4327            4543     30.2791E-03     30.8488E-03
            4287            4543     30.2791E-03     30.8488E-03
            4288            4544     32.6181E-03     33.4413E-03
            4289            4544     32.6181E-03     33.4413E-03
            4329            4544     32.6181E-03     33.4413E-03
            4328            4544     32.6181E-03     33.4413E-03
            4290            4545     35.3296E-03     36.0778E-03
            4329            4545     35.3296E-03     36.0778E-03
            4289            4545     35.3296E-03     36.0778E-03
            4330            4545     35.3296E-03     36.0778E-03
            4331            4546     38.2838E-03     38.2074E-03
            4291            4546     38.2838E-03     38.2074E-03
            4330            4546     38.2838E-03     38.2074E-03
            4290            4546     38.2838E-03     38.2074E-03
            4331            4547     39.7027E-03     42.8170E-03
            4292            4547     39.7027E-03     42.8170E-03
            4291            4547     39.7027E-03     42.8170E-03
            4332            4547     39.7027E-03     42.8170E-03
            4293            4548     46.8471E-03     44.2008E-03
            4333            4548     46.8471E-03     44.2008E-03
            4292            4548     46.8471E-03     44.2008E-03
            4332            4548     46.8471E-03     44.2008E-03
            4333            4549     48.7414E-03     48.0577E-03
            4293            4549     48.7414E-03     48.0577E-03
            4334            4549     48.7414E-03     48.0577E-03
            4294            4549     48.7414E-03     48.0577E-03
            4334            4550     41.5210E-03     49.9089E-03
            4335            4550     41.5210E-03     49.9089E-03
            4294            4550     41.5210E-03     49.9089E-03
            4295            4550     41.5210E-03     49.9089E-03
            4295            4551     44.3632E-03     42.9762E-03
            4335            4551     44.3632E-03     42.9762E-03
            4336            4551     44.3632E-03     42.9762E-03
            4296            4551     44.3632E-03     42.9762E-03
            4337            4552     46.1391E-03     44.2890E-03
            4297            4552     46.1391E-03     44.2890E-03
            4296            4552     46.1391E-03     44.2890E-03
            4336            4552     46.1391E-03     44.2890E-03
            4297            4553     45.3752E-03     47.8147E-03
            4337            4553     45.3752E-03     47.8147E-03
            4338            4553     45.3752E-03     47.8147E-03
            4298            4553     45.3752E-03     47.8147E-03
            4338            4554     48.9896E-03     49.2478E-03
            4298            4554     48.9896E-03     49.2478E-03
            4339            4554     48.9896E-03     49.2478E-03
            4299            4554     48.9896E-03     49.2478E-03
            4300            4555     51.3351E-03     52.5902E-03
            4339            4555     51.3351E-03     52.5902E-03
            4340            4555     51.3351E-03     52.5902E-03
            4299            4555     51.3351E-03     52.5902E-03
            4301            4556     54.2617E-03     55.5559E-03
            4340            4556     54.2617E-03     55.5559E-03
            4300            4556     54.2617E-03     55.5559E-03
            4341            4556     54.2617E-03     55.5559E-03
            4302            4557     57.7971E-03     57.7102E-03
            4342            4557     57.7971E-03     57.7102E-03
            4301            4557     57.7971E-03     57.7102E-03
            4341            4557     57.7971E-03     57.7102E-03
            4343            4558     59.0311E-03     63.5074E-03
            4342            4558     59.0311E-03     63.5074E-03
            4303            4558     59.0311E-03     63.5074E-03
            4302            4558     59.0311E-03     63.5074E-03
            4304            4559     68.4770E-03     64.7203E-03
            4303            4559     68.4770E-03     64.7203E-03
            4344            4559     68.4770E-03     64.7203E-03
            4343            4559     68.4770E-03     64.7203E-03
            4344            4560     70.6837E-03     69.5477E-03
            4304            4560     70.6837E-03     69.5477E-03
            4345            4560     70.6837E-03     69.5477E-03
            4305            4560     70.6837E-03     69.5477E-03
            4345            4561     61.4855E-03     69.4914E-03
            4305            4561     61.4855E-03     69.4914E-03
            4306            4561     61.4855E-03     69.4914E-03
            4346            4561     61.4855E-03     69.4914E-03
            5283            5395     84.7906E-03     85.2247E-03
            5290            5395     84.7906E-03     85.2247E-03
            5289            5395     84.7906E-03     85.2247E-03
            5284            5395     84.7906E-03     85.2247E-03
            5290            5396     86.3338E-03     88.9472E-03
            5284            5396     86.3338E-03     88.9472E-03
            5291            5396     86.3338E-03     88.9472E-03
            5285            5396     86.3338E-03     88.9472E-03
            5292            5397     89.7333E-03     93.0645E-03
            5291            5397     89.7333E-03     93.0645E-03
            5286            5397     89.7333E-03     93.0645E-03
            5285            5397     89.7333E-03     93.0645E-03
            5287            5398     98.5311E-03     95.1966E-03
            5292            5398     98.5311E-03     95.1966E-03
            5286            5398     98.5311E-03     95.1966E-03
            5293            5398     98.5311E-03     95.1966E-03
            5288            5399     99.6031E-03     103.688E-03
            5287            5399     99.6031E-03     103.688E-03
            5293            5399     99.6031E-03     103.688E-03
            5294            5399     99.6031E-03     103.688E-03
            5295            5400     109.311E-03     108.828E-03
            5290            5400     109.311E-03     108.828E-03
            5296            5400     109.311E-03     108.828E-03
            5289            5400     109.311E-03     108.828E-03
            5296            5401     111.656E-03     114.385E-03
            5297            5401     111.656E-03     114.385E-03
            5291            5401     111.656E-03     114.385E-03
            5290            5401     111.656E-03     114.385E-03
            5297            5402     115.065E-03     119.445E-03
            5292            5402     115.065E-03     119.445E-03
            5291            5402     115.065E-03     119.445E-03
            5298            5402     115.065E-03     119.445E-03
            5298            5403     124.930E-03     120.646E-03
            5293            5403     124.930E-03     120.646E-03
            5292            5403     124.930E-03     120.646E-03
            5299            5403     124.930E-03     120.646E-03
            5293            5404     125.408E-03     128.203E-03
            5300            5404     125.408E-03     128.203E-03
            5294            5404     125.408E-03     128.203E-03
            5299            5404     125.408E-03     128.203E-03
            5301            5405     134.152E-03     131.883E-03
            5296            5405     134.152E-03     131.883E-03
            5295            5405     134.152E-03     131.883E-03
            5302            5405     134.152E-03     131.883E-03
            5296            5406     136.948E-03     138.010E-03
            5297            5406     136.948E-03     138.010E-03
            5302            5406     136.948E-03     138.010E-03
            5303            5406     136.948E-03     138.010E-03
            5298            5407     139.041E-03     143.548E-03
            5304            5407     139.041E-03     143.548E-03
            5303            5407     139.041E-03     143.548E-03
            5297            5407     139.041E-03     143.548E-03
            5299            5408     148.371E-03     144.041E-03
            5298            5408     148.371E-03     144.041E-03
            5305            5408     148.371E-03     144.041E-03
            5304            5408     148.371E-03     144.041E-03
            5300            5409     147.590E-03     150.498E-03
            5305            5409     147.590E-03     150.498E-03
            5306            5409     147.590E-03     150.498E-03
            5299            5409     147.590E-03     150.498E-03
            5301            5410     155.977E-03     151.341E-03
            5302            5410     155.977E-03     151.341E-03
            5308            5410     155.977E-03     151.341E-03
            5307            5410     155.977E-03     151.341E-03
            5302            5411     158.746E-03     157.325E-03
            5308            5411     158.746E-03     157.325E-03
            5303            5411     158.746E-03     157.325E-03
            5309            5411     158.746E-03     157.325E-03
            5303            5412     159.123E-03     163.808E-03
            5310            5412     159.123E-03     163.808E-03
            5304            5412     159.123E-03     163.808E-03
            5309            5412     159.123E-03     163.808E-03
            5304            5413     168.801E-03     164.416E-03
            5311            5413     168.801E-03     164.416E-03
            5310            5413     168.801E-03     164.416E-03
            5305            5413     168.801E-03     164.416E-03
            5311            5414     167.568E-03     171.828E-03
            5306            5414     167.568E-03     171.828E-03
            5305            5414     167.568E-03     171.828E-03
            5312            5414     167.568E-03     171.828E-03
            5313            5415     169.388E-03     166.587E-03
            5314            5415     169.388E-03     166.587E-03
            5308            5415     169.388E-03     166.587E-03
            5307            5415     169.388E-03     166.587E-03
            5308            5416     173.208E-03     172.645E-03
            5315            5416     173.208E-03     172.645E-03
            5314            5416     173.208E-03     172.645E-03
            5309            5416     173.208E-03     172.645E-03
            5315            5417     174.022E-03     181.270E-03
            5309            5417     174.022E-03     181.270E-03
            5310            5417     174.022E-03     181.270E-03
            5316            5417     174.022E-03     181.270E-03
            5317            5418     186.746E-03     183.169E-03
            5316            5418     186.746E-03     183.169E-03
            5311            5418     186.746E-03     183.169E-03
            5310            5418     186.746E-03     183.169E-03
            5312            5419     189.121E-03     190.742E-03
            5317            5419     189.121E-03     190.742E-03
            5311            5419     189.121E-03     190.742E-03
            5318            5419     189.121E-03     190.742E-03
            5314            5420     172.807E-03     176.276E-03
            5320            5420     172.807E-03     176.276E-03
            5313            5420     172.807E-03     176.276E-03
            5319            5420     172.807E-03     176.276E-03
            5314            5421     183.068E-03     183.613E-03
            5315            5421     183.068E-03     183.613E-03
            5320            5421     183.068E-03     183.613E-03
            5321            5421     183.068E-03     183.613E-03
            5316            5422     186.899E-03     193.308E-03
            5321            5422     186.899E-03     193.308E-03
            5315            5422     186.899E-03     193.308E-03
            5322            5422     186.899E-03     193.308E-03
            5323            5423     201.933E-03     199.242E-03
            5316            5423     201.933E-03     199.242E-03
            5322            5423     201.933E-03     199.242E-03
            5317            5423     201.933E-03     199.242E-03
            5323            5424     210.160E-03     206.456E-03
            5317            5424     210.160E-03     206.456E-03
            5318            5424     210.160E-03     206.456E-03
            5324            5424     210.160E-03     206.456E-03
            6568            6525     658.520E-06     644.182E-06
            6574            6525     658.520E-06     644.182E-06
            6573            6525     658.520E-06     644.182E-06
            6567            6525     658.520E-06     644.182E-06
            6569            6526     659.003E-06     651.685E-06
            6574            6526     659.003E-06     651.685E-06
            6575            6526     659.003E-06     651.685E-06
            6568            6526     659.003E-06     651.685E-06
            6576            6527     648.899E-06     649.761E-06
            6575            6527     648.899E-06     649.761E-06
            6570            6527     648.899E-06     649.761E-06
            6569            6527     648.899E-06     649.761E-06
            6571            6528     652.196E-06     644.700E-06
            6576            6528     652.196E-06     644.700E-06
            6577            6528     652.196E-06     644.700E-06
            6570            6528     652.196E-06     644.700E-06
            6577            6529     648.901E-06     641.173E-06
            6578            6529     648.901E-06     641.173E-06
            6572            6529     648.901E-06     641.173E-06
            6571            6529     648.901E-06     641.173E-06
            6574            6530     626.578E-06     617.197E-06
            6579            6530     626.578E-06     617.197E-06
            6580            6530     626.578E-06     617.197E-06
            6573            6530     626.578E-06     617.197E-06
            6574            6531     624.852E-06     613.229E-06
            6581            6531     624.852E-06     613.229E-06
            6575            6531     624.852E-06     613.229E-06
            6580            6531     624.852E-06     613.229E-06
            6576            6532     600.697E-06     604.153E-06
            6575            6532     600.697E-06     604.153E-06
            6582            6532     600.697E-06     604.153E-06
            6581            6532     600.697E-06     604.153E-06
            6576            6533     598.553E-06     591.331E-06
            6577            6533     598.553E-06     591.331E-06
            6582            6533     598.553E-06     591.331E-06
            6583            6533     598.553E-06     591.331E-06
            6578            6534     592.650E-06     585.073E-06
            6577            6534     592.650E-06     585.073E-06
            6584            6534     592.650E-06     585.073E-06
            6583            6534     592.650E-06     585.073E-06
            6585            6535     585.636E-06     573.725E-06
            6580            6535     585.636E-06     573.725E-06
            6586            6535     585.636E-06     573.725E-06
            6579            6535     585.636E-06     573.725E-06
            6586            6536     574.452E-06     548.530E-06
            6580            6536     574.452E-06     548.530E-06
            6581            6536     574.452E-06     548.530E-06
            6587            6536     574.452E-06     548.530E-06
            6588            6537     521.338E-06     534.038E-06
            6581            6537     521.338E-06     534.038E-06
            6587            6537     521.338E-06     534.038E-06
            6582            6537     521.338E-06     534.038E-06
            6583            6538     507.694E-06     508.476E-06
            6582            6538     507.694E-06     508.476E-06
            6588            6538     507.694E-06     508.476E-06
            6589            6538     507.694E-06     508.476E-06
            6589            6539     499.926E-06     495.476E-06
            6590            6539     499.926E-06     495.476E-06
            6583            6539     499.926E-06     495.476E-06
            6584            6539     499.926E-06     495.476E-06
            6591            6540     530.996E-06     523.403E-06
            6586            6540     530.996E-06     523.403E-06
            6592            6540     530.996E-06     523.403E-06
            6585            6540     530.996E-06     523.403E-06
            6592            6541     510.868E-06     463.168E-06
            6587            6541     510.868E-06     463.168E-06
            6586            6541     510.868E-06     463.168E-06
            6593            6541     510.868E-06     463.168E-06
            6594            6542     420.350E-06     442.998E-06
            6588            6542     420.350E-06     442.998E-06
            6593            6542     420.350E-06     442.998E-06
            6587            6542     420.350E-06     442.998E-06
            6589            6543     389.341E-06     398.753E-06
            6594            6543     389.341E-06     398.753E-06
            6595            6543     389.341E-06     398.753E-06
            6588            6543     389.341E-06     398.753E-06
            6595            6544     369.735E-06     375.428E-06
            6596            6544     369.735E-06     375.428E-06
            6589            6544     369.735E-06     375.428E-06
            6590            6544     369.735E-06     375.428E-06
            6598            6545     505.050E-06     512.485E-06
            6597            6545     505.050E-06     512.485E-06
            6592            6545     505.050E-06     512.485E-06
            6591            6545     505.050E-06     512.485E-06
            6593            6546     463.353E-06     410.369E-06
            6599            6546     463.353E-06     410.369E-06
            6592            6546     463.353E-06     410.369E-06
            6598            6546     463.353E-06     410.369E-06
            6599            6547     310.268E-06     336.560E-06
            6593            6547     310.268E-06     336.560E-06
            6594            6547     310.268E-06     336.560E-06
            6600            6547     310.268E-06     336.560E-06
            6600            6548     248.301E-06     247.372E-06
            6594            6548     248.301E-06     247.372E-06
            6601            6548     248.301E-06     247.372E-06
            6595            6548     248.301E-06     247.372E-06
            6595            6549     216.252E-06     234.555E-06
            6601            6549     216.252E-06     234.555E-06
            6596            6549     216.252E-06     234.555E-06
            6602            6549     216.252E-06     234.555E-06
            6597            6550     607.351E-06     611.671E-06
            6603            6550     607.351E-06     611.671E-06
            6598            6550     607.351E-06     611.671E-06
            6604            6550     607.351E-06     611.671E-06
            6605            6551     486.570E-06     447.993E-06
            6599            6551     486.570E-06     447.993E-06
            6598            6551     486.570E-06     447.993E-06
            6604            6551     486.570E-06     447.993E-06
            6600            6552     283.655E-06     312.636E-06
            6605            6552     283.655E-06     312.636E-06
            6599            6552     283.655E-06     312.636E-06
            6606            6552     283.655E-06     312.636E-06
            6600            6553     195.969E-06     179.074E-06
            6601            6553     195.969E-06     179.074E-06
            6607            6553     195.969E-06     179.074E-06
            6606            6553     195.969E-06     179.074E-06
            6607            6554     157.504E-06     197.561E-06
            6602            6554     157.504E-06     197.561E-06
            6601            6554     157.504E-06     197.561E-06
            6608            6554     157.504E-06     197.561E-06


  Minimum                            152.641E-06     179.074E-06
      At Element                            1784            6607
            Node                              18            6553

  Maximum                            219.642E-03     217.522E-03
      At Element                            5324            5324
            Node                             629              22

           Total                         185.925         188.727


Field Output reported at element nodes for region: A320-1.Region_4
   Computation algorithm: EXTRAPOLATE_COMPUTE_AVERAGE
   Averaged at nodes
   Averaging regions: ODB_REGIONS

   Element Label      Node Label         S.Mises         S.Mises
                                          @Loc 1          @Loc 2
-----------------------------------------------------------------
            5049              13     1.43787E-03     2.32324E-03
            5739              13     1.43787E-03     2.32324E-03
            5829              14     112.100E-06     214.044E-06
            2510              16     1.44045E-03     1.67947E-03
             785              16     1.44045E-03     1.67947E-03
            2493              17     1.33440E-03     2.00432E-03
             802              17     1.33440E-03     2.00432E-03
             856              18     84.3043E-06     183.631E-06
             839              19     251.216E-06     296.436E-06
            3392              20     42.9670E-03     43.5896E-03
            2402              20     42.9670E-03     43.5896E-03
            3375              21     87.2703E-03     89.6978E-03
            2385              21     87.2703E-03     89.6978E-03
            5175              22     200.029E-03     202.193E-03
            2475              22     200.029E-03     202.193E-03
            5192              23     179.009E-03     164.284E-03
            2492              23     179.009E-03     164.284E-03
            4364              24     71.2225E-03     72.1522E-03
            5282              24     71.2225E-03     72.1522E-03
            5265              25     114.267E-03     118.942E-03
            4347              25     114.267E-03     118.942E-03
            5066              26     1.74728E-03     1.94953E-03
            5756              26     1.74728E-03     1.94953E-03
            5846              28     268.471E-06     327.164E-06
            5739             194     572.569E-06     602.467E-06
            5757             194     572.569E-06     602.467E-06
            5775             195     426.628E-06     421.158E-06
            5757             195     426.628E-06     421.158E-06
            5793             196     277.204E-06     279.645E-06
            5775             196     277.204E-06     279.645E-06
            5811             197     154.056E-06     137.597E-06
            5793             197     154.056E-06     137.597E-06
            5829             198     96.2626E-06     150.545E-06
            5811             198     96.2626E-06     150.545E-06
            2510             289     1.51136E-03     1.64295E-03
             786             289     1.51136E-03     1.64295E-03
             785             289     1.51136E-03     1.64295E-03
            2509             289     1.51136E-03     1.64295E-03
             786             290     1.59327E-03     1.57378E-03
            2508             290     1.59327E-03     1.57378E-03
             787             290     1.59327E-03     1.57378E-03
            2509             290     1.59327E-03     1.57378E-03
            2508             291     1.61876E-03     1.55405E-03
            2507             291     1.61876E-03     1.55405E-03
             788             291     1.61876E-03     1.55405E-03
             787             291     1.61876E-03     1.55405E-03
             788             292     1.64302E-03     1.56253E-03
             789             292     1.64302E-03     1.56253E-03
            2507             292     1.64302E-03     1.56253E-03
            2506             292     1.64302E-03     1.56253E-03
            2505             293     1.66734E-03     1.56850E-03
             790             293     1.66734E-03     1.56850E-03
             789             293     1.66734E-03     1.56850E-03
            2506             293     1.66734E-03     1.56850E-03
             791             294     1.69491E-03     1.58338E-03
            2505             294     1.69491E-03     1.58338E-03
             790             294     1.69491E-03     1.58338E-03
            2504             294     1.69491E-03     1.58338E-03
             792             295     1.72284E-03     1.59913E-03
             791             295     1.72284E-03     1.59913E-03
            2503             295     1.72284E-03     1.59913E-03
            2504             295     1.72284E-03     1.59913E-03
            2502             296     1.75236E-03     1.61599E-03
            2503             296     1.75236E-03     1.61599E-03
             792             296     1.75236E-03     1.61599E-03
             793             296     1.75236E-03     1.61599E-03
            2501             297     1.77978E-03     1.63274E-03
             793             297     1.77978E-03     1.63274E-03
             794             297     1.77978E-03     1.63274E-03
            2502             297     1.77978E-03     1.63274E-03
             795             298     1.80327E-03     1.64326E-03
            2500             298     1.80327E-03     1.64326E-03
             794             298     1.80327E-03     1.64326E-03
            2501             298     1.80327E-03     1.64326E-03
            2499             299     1.81486E-03     1.64360E-03
             795             299     1.81486E-03     1.64360E-03
             796             299     1.81486E-03     1.64360E-03
            2500             299     1.81486E-03     1.64360E-03
             796             300     1.80820E-03     1.62217E-03
             797             300     1.80820E-03     1.62217E-03
            2499             300     1.80820E-03     1.62217E-03
            2498             300     1.80820E-03     1.62217E-03
             797             301     1.75487E-03     1.55399E-03
             798             301     1.75487E-03     1.55399E-03
            2497             301     1.75487E-03     1.55399E-03
            2498             301     1.75487E-03     1.55399E-03
             798             302     1.65157E-03     1.42405E-03
            2497             302     1.65157E-03     1.42405E-03
            2496             302     1.65157E-03     1.42405E-03
             799             302     1.65157E-03     1.42405E-03
            2496             303     1.39547E-03     1.13838E-03
            2495             303     1.39547E-03     1.13838E-03
             800             303     1.39547E-03     1.13838E-03
             799             303     1.39547E-03     1.13838E-03
            2494             304     1.01580E-03     739.743E-06
             800             304     1.01580E-03     739.743E-06
             801             304     1.01580E-03     739.743E-06
            2495             304     1.01580E-03     739.743E-06
            2493             305     1.08452E-03     1.27347E-03
             801             305     1.08452E-03     1.27347E-03
             802             305     1.08452E-03     1.27347E-03
            2494             305     1.08452E-03     1.27347E-03
             820             306     319.364E-06     353.735E-06
             802             306     319.364E-06     353.735E-06
             838             307     151.911E-06     156.375E-06
             820             307     151.911E-06     156.375E-06
             838             308     59.9919E-06     139.587E-06
             856             308     59.9919E-06     139.587E-06
             856             309     179.240E-06     200.698E-06
             855             309     179.240E-06     200.698E-06
             855             310     279.983E-06     236.389E-06
             854             310     279.983E-06     236.389E-06
             853             311     308.555E-06     269.467E-06
             854             311     308.555E-06     269.467E-06
             852             312     319.877E-06     277.651E-06
             853             312     319.877E-06     277.651E-06
             852             313     312.786E-06     275.739E-06
             851             313     312.786E-06     275.739E-06
             850             314     312.141E-06     276.255E-06
             851             314     312.141E-06     276.255E-06
             849             315     307.707E-06     274.001E-06
             850             315     307.707E-06     274.001E-06
             849             316     305.339E-06     273.851E-06
             848             316     305.339E-06     273.851E-06
             848             317     301.687E-06     272.639E-06
             847             317     301.687E-06     272.639E-06
             846             318     298.896E-06     272.446E-06
             847             318     298.896E-06     272.446E-06
             845             319     295.690E-06     272.114E-06
             846             319     295.690E-06     272.114E-06
             845             320     292.899E-06     272.376E-06
             844             320     292.899E-06     272.376E-06
             843             321     290.307E-06     272.575E-06
             844             321     290.307E-06     272.575E-06
             843             322     287.160E-06     274.277E-06
             842             322     287.160E-06     274.277E-06
             842             323     285.861E-06     274.323E-06
             841             323     285.861E-06     274.323E-06
             840             324     283.009E-06     274.139E-06
             841             324     283.009E-06     274.139E-06
             839             325     265.233E-06     285.861E-06
             840             325     265.233E-06     285.861E-06
             821             326     274.951E-06     275.731E-06
             839             326     274.951E-06     275.731E-06
             803             327     296.404E-06     250.080E-06
             821             327     296.404E-06     250.080E-06
             803             328     265.711E-06     264.344E-06
             785             328     265.711E-06     264.344E-06
            3374             363     2.20169E-03     3.84034E-03
            3392             363     2.20169E-03     3.84034E-03
            3356             364     1.45810E-03     3.12923E-03
            3374             364     1.45810E-03     3.12923E-03
            3356             365     2.42109E-03     3.10400E-03
            3338             365     2.42109E-03     3.10400E-03
            3320             366     3.85563E-03     4.33315E-03
            3338             366     3.85563E-03     4.33315E-03
            3320             367     5.55253E-03     5.64609E-03
            3302             367     5.55253E-03     5.64609E-03
            3284             368     7.17350E-03     7.42619E-03
            3302             368     7.17350E-03     7.42619E-03
            3266             369     8.82187E-03     8.92668E-03
            3284             369     8.82187E-03     8.92668E-03
            3266             370     10.7312E-03     11.1981E-03
            3248             370     10.7312E-03     11.1981E-03
            3230             371     11.8137E-03     13.9335E-03
            3248             371     11.8137E-03     13.9335E-03
            3212             372     6.89942E-03     8.53409E-03
            3230             372     6.89942E-03     8.53409E-03
            3194             373     1.23283E-03     2.35890E-03
            3212             373     1.23283E-03     2.35890E-03
            3194             374     1.19646E-03     2.26304E-03
            3176             374     1.19646E-03     2.26304E-03
            3176             375     2.21607E-03     2.59773E-03
            3158             375     2.21607E-03     2.59773E-03
            3140             376     3.33717E-03     3.46629E-03
            3158             376     3.33717E-03     3.46629E-03
            3140             377     4.43328E-03     4.52237E-03
            3122             377     4.43328E-03     4.52237E-03
            3122             378     5.56435E-03     5.48818E-03
            3104             378     5.56435E-03     5.48818E-03
            3086             379     6.64008E-03     6.76273E-03
            3104             379     6.64008E-03     6.76273E-03
            3068             380     7.74984E-03     7.76411E-03
            3086             380     7.74984E-03     7.76411E-03
            3068             381     9.06471E-03     9.38976E-03
            3050             381     9.06471E-03     9.38976E-03
            3032             382     9.72658E-03     11.4071E-03
            3050             382     9.72658E-03     11.4071E-03
            3014             383     5.21133E-03     6.59017E-03
            3032             383     5.21133E-03     6.59017E-03
            3014             384     945.839E-06     1.43239E-03
            2996             384     945.839E-06     1.43239E-03
            2978             385     1.66432E-03     1.88611E-03
            2996             385     1.66432E-03     1.88611E-03
            2978             386     2.46425E-03     2.48943E-03
            2960             386     2.46425E-03     2.48943E-03
            2960             387     3.23867E-03     3.14256E-03
            2942             387     3.23867E-03     3.14256E-03
            2924             388     3.94511E-03     3.86944E-03
            2942             388     3.94511E-03     3.86944E-03
            2906             389     4.67054E-03     4.50613E-03
            2924             389     4.67054E-03     4.50613E-03
            2906             390     5.35129E-03     5.33829E-03
            2888             390     5.35129E-03     5.33829E-03
            2870             391     6.04413E-03     5.97425E-03
            2888             391     6.04413E-03     5.97425E-03
            2870             392     6.87952E-03     7.04125E-03
            2852             392     6.87952E-03     7.04125E-03
            2834             393     7.22394E-03     8.40815E-03
            2852             393     7.22394E-03     8.40815E-03
            2816             394     4.22222E-03     5.28181E-03
            2834             394     4.22222E-03     5.28181E-03
            2816             395     1.66866E-03     1.91216E-03
            2798             395     1.66866E-03     1.91216E-03
            2780             396     2.27791E-03     2.16689E-03
            2798             396     2.27791E-03     2.16689E-03
            2762             397     2.67618E-03     2.54309E-03
            2780             397     2.67618E-03     2.54309E-03
            2744             398     3.09235E-03     2.90050E-03
            2762             398     3.09235E-03     2.90050E-03
            2726             399     3.44752E-03     3.27351E-03
            2744             399     3.44752E-03     3.27351E-03
            2726             400     3.81079E-03     3.59850E-03
            2708             400     3.81079E-03     3.59850E-03
            2690             401     4.14245E-03     4.02906E-03
            2708             401     4.14245E-03     4.02906E-03
            2672             402     4.46847E-03     4.33703E-03
            2690             402     4.46847E-03     4.33703E-03
            2654             403     4.88138E-03     4.90741E-03
            2672             403     4.88138E-03     4.90741E-03
            2636             404     4.95203E-03     5.69428E-03
            2654             404     4.95203E-03     5.69428E-03
            2636             405     3.32016E-03     4.10189E-03
            2618             405     3.32016E-03     4.10189E-03
            2618             406     2.09440E-03     2.32126E-03
            2600             406     2.09440E-03     2.32126E-03
            2582             407     2.46063E-03     2.21738E-03
            2600             407     2.46063E-03     2.21738E-03
            2582             408     2.56776E-03     2.32798E-03
            2564             408     2.56776E-03     2.32798E-03
            2546             409     2.69848E-03     2.42991E-03
            2564             409     2.69848E-03     2.42991E-03
            2528             410     2.82300E-03     2.64071E-03
            2546             410     2.82300E-03     2.64071E-03
            2510             411     2.74740E-03     3.01764E-03
            2528             411     2.74740E-03     3.01764E-03
            3357             440     69.5094E-03     69.9656E-03
            3375             440     69.5094E-03     69.9656E-03
            3339             441     67.6180E-03     67.5958E-03
            3357             441     67.6180E-03     67.5958E-03
            3321             442     65.0991E-03     66.3428E-03
            3339             442     65.0991E-03     66.3428E-03
            3303             443     63.2580E-03     63.6327E-03
            3321             443     63.2580E-03     63.6327E-03
            3285             444     60.8232E-03     61.6885E-03
            3303             444     60.8232E-03     61.6885E-03
            3267             445     58.7367E-03     59.0642E-03
            3285             445     58.7367E-03     59.0642E-03
            3249             446     56.0532E-03     56.7366E-03
            3267             446     56.0532E-03     56.7366E-03
            3231             447     53.1256E-03     53.1746E-03
            3249             447     53.1256E-03     53.1746E-03
            3231             448     49.6908E-03     48.8133E-03
            3213             448     49.6908E-03     48.8133E-03
            3195             449     50.0750E-03     51.4000E-03
            3213             449     50.0750E-03     51.4000E-03
            3195             450     52.5962E-03     53.0449E-03
            3177             450     52.5962E-03     53.0449E-03
            3159             451     50.8201E-03     50.8146E-03
            3177             451     50.8201E-03     50.8146E-03
            3141             452     48.5802E-03     49.5082E-03
            3159             452     48.5802E-03     49.5082E-03
            3123             453     46.8587E-03     47.1877E-03
            3141             453     46.8587E-03     47.1877E-03
            3105             454     44.8354E-03     45.4076E-03
            3123             454     44.8354E-03     45.4076E-03
            3087             455     42.9799E-03     43.3368E-03
            3105             455     42.9799E-03     43.3368E-03
            3087             456     40.8738E-03     41.1974E-03
            3069             456     40.8738E-03     41.1974E-03
            3069             457     38.6863E-03     38.9906E-03
            3051             457     38.6863E-03     38.9906E-03
            3051             458     36.0527E-03     36.1175E-03
            3033             458     36.0527E-03     36.1175E-03
            3015             459     33.1513E-03     32.3700E-03
            3033             459     33.1513E-03     32.3700E-03
            2997             460     33.6469E-03     34.5167E-03
            3015             460     33.6469E-03     34.5167E-03
            2979             461     35.6572E-03     36.1046E-03
            2997             461     35.6572E-03     36.1046E-03
            2961             462     33.9824E-03     33.9625E-03
            2979             462     33.9824E-03     33.9625E-03
            2943             463     31.9678E-03     32.6257E-03
            2961             463     31.9678E-03     32.6257E-03
            2943             464     30.3978E-03     30.6014E-03
            2925             464     30.3978E-03     30.6014E-03
            2925             465     28.6063E-03     28.9895E-03
            2907             465     28.6063E-03     28.9895E-03
            2889             466     26.9737E-03     27.1657E-03
            2907             466     26.9737E-03     27.1657E-03
            2889             467     25.1306E-03     25.3267E-03
            2871             467     25.1306E-03     25.3267E-03
            2853             468     23.2630E-03     23.3631E-03
            2871             468     23.2630E-03     23.3631E-03
            2853             469     20.9944E-03     21.0239E-03
            2835             469     20.9944E-03     21.0239E-03
            2817             470     18.5391E-03     17.9062E-03
            2835             470     18.5391E-03     17.9062E-03
            2817             471     19.1063E-03     19.5953E-03
            2799             471     19.1063E-03     19.5953E-03
            2781             472     20.6634E-03     21.1008E-03
            2799             472     20.6634E-03     21.1008E-03
            2763             473     19.1318E-03     19.0920E-03
            2781             473     19.1318E-03     19.0920E-03
            2745             474     17.3669E-03     17.7757E-03
            2763             474     17.3669E-03     17.7757E-03
            2745             475     15.9777E-03     16.0647E-03
            2727             475     15.9777E-03     16.0647E-03
            2709             476     14.4433E-03     14.6508E-03
            2727             476     14.4433E-03     14.6508E-03
            2709             477     13.0615E-03     13.1025E-03
            2691             477     13.0615E-03     13.1025E-03
            2691             478     11.5206E-03     11.5910E-03
            2673             478     11.5206E-03     11.5910E-03
            2655             479     10.0124E-03     9.92496E-03
            2673             479     10.0124E-03     9.92496E-03
            2637             480     8.20735E-03     8.15211E-03
            2655             480     8.20735E-03     8.15211E-03
            2619             481     6.23718E-03     5.88115E-03
            2637             481     6.23718E-03     5.88115E-03
            2601             482     6.45838E-03     6.76062E-03
            2619             482     6.45838E-03     6.76062E-03
            2601             483     7.17226E-03     7.57185E-03
            2583             483     7.17226E-03     7.57185E-03
            2583             484     5.78479E-03     5.66800E-03
            2565             484     5.78479E-03     5.66800E-03
            2565             485     4.26686E-03     4.39855E-03
            2547             485     4.26686E-03     4.39855E-03
            2547             486     3.16811E-03     3.01102E-03
            2529             486     3.16811E-03     3.01102E-03
            2511             487     2.39024E-03     2.13883E-03
            2529             487     2.39024E-03     2.13883E-03
            2493             488     2.23116E-03     2.69475E-03
            2511             488     2.23116E-03     2.69475E-03
            2403             520     138.107E-03     142.849E-03
            2385             520     138.107E-03     142.849E-03
            2421             521     179.009E-03     183.584E-03
            2403             521     179.009E-03     183.584E-03
            2421             522     188.127E-03     189.034E-03
            2439             522     188.127E-03     189.034E-03
            2457             523     195.483E-03     196.064E-03
            2439             523     195.483E-03     196.064E-03
            2457             524     200.550E-03     201.437E-03
            2475             524     200.550E-03     201.437E-03
            3375             531     83.7228E-03     85.5958E-03
            2386             531     83.7228E-03     85.5958E-03
            2385             531     83.7228E-03     85.5958E-03
            3376             531     83.7228E-03     85.5958E-03
            3376             532     78.3409E-03     79.4266E-03
            2387             532     78.3409E-03     79.4266E-03
            2386             532     78.3409E-03     79.4266E-03
            3377             532     78.3409E-03     79.4266E-03
            2388             533     74.6962E-03     75.6512E-03
            3377             533     74.6962E-03     75.6512E-03
            2387             533     74.6962E-03     75.6512E-03
            3378             533     74.6962E-03     75.6512E-03
            2388             534     71.4441E-03     72.4532E-03
            3378             534     71.4441E-03     72.4532E-03
            2389             534     71.4441E-03     72.4532E-03
            3379             534     71.4441E-03     72.4532E-03
            2389             535     68.5623E-03     69.6148E-03
            2390             535     68.5623E-03     69.6148E-03
            3379             535     68.5623E-03     69.6148E-03
            3380             535     68.5623E-03     69.6148E-03
            2391             536     65.8415E-03     66.9799E-03
            2390             536     65.8415E-03     66.9799E-03
            3381             536     65.8415E-03     66.9799E-03
            3380             536     65.8415E-03     66.9799E-03
            3382             537     63.2896E-03     64.4735E-03
            2391             537     63.2896E-03     64.4735E-03
            2392             537     63.2896E-03     64.4735E-03
            3381             537     63.2896E-03     64.4735E-03
            3383             538     60.8350E-03     62.0681E-03
            2393             538     60.8350E-03     62.0681E-03
            2392             538     60.8350E-03     62.0681E-03
            3382             538     60.8350E-03     62.0681E-03
            2394             539     58.4886E-03     59.7413E-03
            2393             539     58.4886E-03     59.7413E-03
            3383             539     58.4886E-03     59.7413E-03
            3384             539     58.4886E-03     59.7413E-03
            3384             540     56.2248E-03     57.4910E-03
            2394             540     56.2248E-03     57.4910E-03
            3385             540     56.2248E-03     57.4910E-03
            2395             540     56.2248E-03     57.4910E-03
            3385             541     54.0549E-03     55.3135E-03
            3386             541     54.0549E-03     55.3135E-03
            2396             541     54.0549E-03     55.3135E-03
            2395             541     54.0549E-03     55.3135E-03
            3387             542     51.9743E-03     53.2117E-03
            2396             542     51.9743E-03     53.2117E-03
            3386             542     51.9743E-03     53.2117E-03
            2397             542     51.9743E-03     53.2117E-03
            2398             543     49.9943E-03     51.1880E-03
            3387             543     49.9943E-03     51.1880E-03
            3388             543     49.9943E-03     51.1880E-03
            2397             543     49.9943E-03     51.1880E-03
            3388             544     48.1264E-03     49.2472E-03
            2398             544     48.1264E-03     49.2472E-03
            3389             544     48.1264E-03     49.2472E-03
            2399             544     48.1264E-03     49.2472E-03
            3389             545     46.3905E-03     47.3960E-03
            3390             545     46.3905E-03     47.3960E-03
            2400             545     46.3905E-03     47.3960E-03
            2399             545     46.3905E-03     47.3960E-03
            3391             546     44.8339E-03     45.6659E-03
            3390             546     44.8339E-03     45.6659E-03
            2401             546     44.8339E-03     45.6659E-03
            2400             546     44.8339E-03     45.6659E-03
            2401             547     43.5403E-03     44.2132E-03
            3392             547     43.5403E-03     44.2132E-03
            2402             547     43.5403E-03     44.2132E-03
            3391             547     43.5403E-03     44.2132E-03
            2420             548     108.102E-03     108.726E-03
            2402             548     108.102E-03     108.726E-03
            2438             549     127.299E-03     129.368E-03
            2420             549     127.299E-03     129.368E-03
            2456             550     122.837E-03     114.499E-03
            2438             550     122.837E-03     114.499E-03
            2456             551     128.940E-03     121.615E-03
            2474             551     128.940E-03     121.615E-03
            2474             552     155.722E-03     150.241E-03
            2492             552     155.722E-03     150.241E-03
            2491             553     175.036E-03     165.628E-03
            5192             553     175.036E-03     165.628E-03
            5191             553     175.036E-03     165.628E-03
            2492             553     175.036E-03     165.628E-03
            2491             554     168.599E-03     165.358E-03
            2490             554     168.599E-03     165.358E-03
            5190             554     168.599E-03     165.358E-03
            5191             554     168.599E-03     165.358E-03
            5189             555     169.285E-03     167.967E-03
            2490             555     169.285E-03     167.967E-03
            2489             555     169.285E-03     167.967E-03
            5190             555     169.285E-03     167.967E-03
            2488             556     171.631E-03     171.930E-03
            5189             556     171.631E-03     171.930E-03
            5188             556     171.631E-03     171.930E-03
            2489             556     171.631E-03     171.930E-03
            2487             557     171.526E-03     172.823E-03
            5188             557     171.526E-03     172.823E-03
            5187             557     171.526E-03     172.823E-03
            2488             557     171.526E-03     172.823E-03
            2487             558     171.615E-03     173.627E-03
            2486             558     171.615E-03     173.627E-03
            5187             558     171.615E-03     173.627E-03
            5186             558     171.615E-03     173.627E-03
            5186             559     171.397E-03     173.948E-03
            2486             559     171.397E-03     173.948E-03
            2485             559     171.397E-03     173.948E-03
            5185             559     171.397E-03     173.948E-03
            5185             560     171.779E-03     174.764E-03
            5184             560     171.779E-03     174.764E-03
            2485             560     171.779E-03     174.764E-03
            2484             560     171.779E-03     174.764E-03
            2483             561     172.405E-03     175.688E-03
            2484             561     172.405E-03     175.688E-03
            5183             561     172.405E-03     175.688E-03
            5184             561     172.405E-03     175.688E-03
            2482             562     173.701E-03     177.134E-03
            2483             562     173.701E-03     177.134E-03
            5183             562     173.701E-03     177.134E-03
            5182             562     173.701E-03     177.134E-03
            2482             563     175.364E-03     178.838E-03
            5182             563     175.364E-03     178.838E-03
            2481             563     175.364E-03     178.838E-03
            5181             563     175.364E-03     178.838E-03
            2480             564     177.775E-03     181.101E-03
            5180             564     177.775E-03     181.101E-03
            5181             564     177.775E-03     181.101E-03
            2481             564     177.775E-03     181.101E-03
            2480             565     180.568E-03     183.739E-03
            5179             565     180.568E-03     183.739E-03
            2479             565     180.568E-03     183.739E-03
            5180             565     180.568E-03     183.739E-03
            2479             566     184.445E-03     187.089E-03
            5179             566     184.445E-03     187.089E-03
            2478             566     184.445E-03     187.089E-03
            5178             566     184.445E-03     187.089E-03
            2477             567     188.424E-03     190.770E-03
            2478             567     188.424E-03     190.770E-03
            5177             567     188.424E-03     190.770E-03
            5178             567     188.424E-03     190.770E-03
            2477             568     194.682E-03     195.581E-03
            2476             568     194.682E-03     195.581E-03
            5177             568     194.682E-03     195.581E-03
            5176             568     194.682E-03     195.581E-03
            2476             569     199.739E-03     200.421E-03
            5175             569     199.739E-03     200.421E-03
            2475             569     199.739E-03     200.421E-03
            5176             569     199.739E-03     200.421E-03
            5264             604     131.320E-03     132.592E-03
            5282             604     131.320E-03     132.592E-03
            5264             605     118.863E-03     115.277E-03
            5246             605     118.863E-03     115.277E-03
            5246             606     119.310E-03     109.416E-03
            5228             606     119.310E-03     109.416E-03
            5210             607     128.270E-03     124.060E-03
            5228             607     128.270E-03     124.060E-03
            5210             608     156.916E-03     151.606E-03
            5192             608     156.916E-03     151.606E-03
            5265             625     175.269E-03     180.135E-03
            5247             625     175.269E-03     180.135E-03
            5247             626     184.180E-03     185.508E-03
            5229             626     184.180E-03     185.508E-03
            5229             627     189.616E-03     190.907E-03
            5211             627     189.616E-03     190.907E-03
            5193             628     197.133E-03     197.707E-03
            5211             628     197.133E-03     197.707E-03
            5175             629     200.880E-03     202.071E-03
            5193             629     200.880E-03     202.071E-03
            4365             636     63.2086E-03     65.7917E-03
            4347             636     63.2086E-03     65.7917E-03
            4365             637     66.1815E-03     66.7498E-03
            4383             637     66.1815E-03     66.7498E-03
            4401             638     64.0219E-03     63.9871E-03
            4383             638     64.0219E-03     63.9871E-03
            4401             639     61.2606E-03     62.4347E-03
            4419             639     61.2606E-03     62.4347E-03
            4419             640     59.1605E-03     59.5784E-03
            4437             640     59.1605E-03     59.5784E-03
            4437             641     56.6683E-03     57.3923E-03
            4455             641     56.6683E-03     57.3923E-03
            4455             642     54.3880E-03     54.8466E-03
            4473             642     54.3880E-03     54.8466E-03
            4491             643     51.7996E-03     52.2089E-03
            4473             643     51.7996E-03     52.2089E-03
            4509             644     49.0917E-03     49.4881E-03
            4491             644     49.0917E-03     49.4881E-03
            4509             645     45.8413E-03     45.9054E-03
            4527             645     45.8413E-03     45.9054E-03
            4545             646     42.2694E-03     41.2693E-03
            4527             646     42.2694E-03     41.2693E-03
            4545             647     42.9105E-03     44.0903E-03
            4563             647     42.9105E-03     44.0903E-03
            4563             648     45.4856E-03     46.0864E-03
            4581             648     45.4856E-03     46.0864E-03
            4599             649     43.4172E-03     43.3673E-03
            4581             649     43.4172E-03     43.3673E-03
            4617             650     40.8907E-03     41.7494E-03
            4599             650     40.8907E-03     41.7494E-03
            4635             651     38.9508E-03     39.2126E-03
            4617             651     38.9508E-03     39.2126E-03
            4635             652     36.7158E-03     37.2349E-03
            4653             652     36.7158E-03     37.2349E-03
            4671             653     34.7417E-03     34.9897E-03
            4653             653     34.7417E-03     34.9897E-03
            4671             654     32.5157E-03     32.8254E-03
            4689             654     32.5157E-03     32.8254E-03
            4689             655     30.3118E-03     30.4436E-03
            4707             655     30.3118E-03     30.4436E-03
            4707             656     27.9169E-03     28.0431E-03
            4725             656     27.9169E-03     28.0431E-03
            4743             657     25.1211E-03     25.0927E-03
            4725             657     25.1211E-03     25.0927E-03
            4743             658     22.0591E-03     21.2461E-03
            4761             658     22.0591E-03     21.2461E-03
            4761             659     22.8297E-03     23.4612E-03
            4779             659     22.8297E-03     23.4612E-03
            4779             660     24.7770E-03     25.3767E-03
            4797             660     24.7770E-03     25.3767E-03
            4797             661     22.7806E-03     22.7073E-03
            4815             661     22.7806E-03     22.7073E-03
            4815             662     20.4770E-03     20.9756E-03
            4833             662     20.4770E-03     20.9756E-03
            4851             663     18.6738E-03     18.7643E-03
            4833             663     18.6738E-03     18.7643E-03
            4869             664     16.6900E-03     16.9295E-03
            4851             664     16.6900E-03     16.9295E-03
            4869             665     14.9151E-03     14.9380E-03
            4887             665     14.9151E-03     14.9380E-03
            4887             666     12.9479E-03     13.0094E-03
            4905             666     12.9479E-03     13.0094E-03
            4905             667     11.0396E-03     10.8817E-03
            4923             667     11.0396E-03     10.8817E-03
            4923             668     8.80640E-03     8.68004E-03
            4941             668     8.80640E-03     8.68004E-03
            4941             669     6.37113E-03     6.10584E-03
            4959             669     6.37113E-03     6.10584E-03
            4977             670     6.33331E-03     6.93889E-03
            4959             670     6.33331E-03     6.93889E-03
            4977             671     6.68905E-03     7.29105E-03
            4995             671     6.68905E-03     7.29105E-03
            4995             672     4.69274E-03     4.36970E-03
            5013             672     4.69274E-03     4.36970E-03
            5031             673     2.71619E-03     2.57761E-03
            5013             673     2.71619E-03     2.57761E-03
            5049             674     2.13238E-03     2.83009E-03
            5031             674     2.13238E-03     2.83009E-03
            5266             675     116.388E-03     118.943E-03
            4347             675     116.388E-03     118.943E-03
            4348             675     116.388E-03     118.943E-03
            5265             675     116.388E-03     118.943E-03
            5266             676     118.976E-03     119.490E-03
            5267             676     118.976E-03     119.490E-03
            4348             676     118.976E-03     119.490E-03
            4349             676     118.976E-03     119.490E-03
            4349             677     119.312E-03     119.835E-03
            4350             677     119.312E-03     119.835E-03
            5268             677     119.312E-03     119.835E-03
            5267             677     119.312E-03     119.835E-03
            4351             678     118.743E-03     119.125E-03
            5269             678     118.743E-03     119.125E-03
            4350             678     118.743E-03     119.125E-03
            5268             678     118.743E-03     119.125E-03
            5270             679     117.563E-03     117.850E-03
            4351             679     117.563E-03     117.850E-03
            4352             679     117.563E-03     117.850E-03
            5269             679     117.563E-03     117.850E-03
            4353             680     116.011E-03     116.187E-03
            5271             680     116.011E-03     116.187E-03
            5270             680     116.011E-03     116.187E-03
            4352             680     116.011E-03     116.187E-03
            5272             681     190.074E-03     189.465E-03
            5271             681     190.729E-03     189.994E-03
            4353             681     39.6745E-03     40.5806E-03
            4354             681     36.2094E-03     37.1155E-03
            4354             682     36.2094E-03     37.1155E-03
            5273             682     190.001E-03     189.274E-03
            5272             682     190.074E-03     189.465E-03
            4355             682     32.7443E-03     33.6505E-03
            4355             683     32.7443E-03     33.6505E-03
            5273             683     190.001E-03     189.274E-03
            5274             683     188.635E-03     188.132E-03
            4356             683     29.2792E-03     30.1854E-03
            5275             684     188.681E-03     188.395E-03
            5274             684     188.635E-03     188.132E-03
            4356             684     29.2792E-03     30.1854E-03
            4357             684     25.8141E-03     26.7203E-03
            5276             685     186.262E-03     186.250E-03
            5275             685     188.681E-03     188.395E-03
            4358             685     22.3491E-03     23.2552E-03
            4357             685     25.8141E-03     26.7203E-03
            4358             686     22.3491E-03     23.2552E-03
            5277             686     186.203E-03     186.868E-03
            4359             686     18.8840E-03     19.7901E-03
            5276             686     186.262E-03     186.250E-03
            4360             687     15.4189E-03     16.3250E-03
            5278             687     181.017E-03     181.761E-03
            5277             687     186.203E-03     186.868E-03
            4359             687     18.8840E-03     19.7901E-03
            5278             688     181.017E-03     181.761E-03
            4360             688     15.4189E-03     16.3250E-03
            5279             688     178.737E-03     180.415E-03
            4361             688     11.9539E-03     12.8599E-03
            5279             689     178.737E-03     180.415E-03
            5280             689     166.018E-03     167.710E-03
            4362             689     8.48881E-03     9.39484E-03
            4361             689     11.9539E-03     12.8599E-03
            4362             690     8.48881E-03     9.39484E-03
            5280             690     166.018E-03     167.710E-03
            5281             690     160.439E-03     162.660E-03
            4363             690     5.02383E-03     5.92976E-03
            5281             691     160.439E-03     162.660E-03
            5282             691     140.886E-03     141.840E-03
            4364             691     1.55934E-03     2.46470E-03
            4363             691     5.02383E-03     5.92976E-03
            4382             692     1.97805E-03     2.82335E-03
            4364             692     1.97805E-03     2.82335E-03
            4400             693     1.64570E-03     3.09207E-03
            4382             693     1.64570E-03     3.09207E-03
            4418             694     1.43877E-03     2.85447E-03
            4400             694     1.43877E-03     2.85447E-03
            4436             695     2.60146E-03     3.15047E-03
            4418             695     2.60146E-03     3.15047E-03
            4436             696     3.98643E-03     4.19815E-03
            4454             696     3.98643E-03     4.19815E-03
            4472             697     5.36320E-03     5.50262E-03
            4454             697     5.36320E-03     5.50262E-03
            4490             698     6.79041E-03     6.71607E-03
            4472             698     6.79041E-03     6.71607E-03
            4508             699     8.14482E-03     8.31891E-03
            4490             699     8.14482E-03     8.31891E-03
            4526             700     9.54878E-03     9.57944E-03
            4508             700     9.54878E-03     9.57944E-03
            4544             701     11.1908E-03     11.6321E-03
            4526             701     11.1908E-03     11.6321E-03
            4562             702     12.0269E-03     14.1418E-03
            4544             702     12.0269E-03     14.1418E-03
            4580             703     6.45215E-03     8.15978E-03
            4562             703     6.45215E-03     8.15978E-03
            4598             704     1.16881E-03     1.77711E-03
            4580             704     1.16881E-03     1.77711E-03
            4598             705     2.01752E-03     2.31562E-03
            4616             705     2.01752E-03     2.31562E-03
            4616             706     3.00029E-03     3.02807E-03
            4634             706     3.00029E-03     3.02807E-03
            4652             707     3.88526E-03     3.82848E-03
            4634             707     3.88526E-03     3.82848E-03
            4670             708     4.76038E-03     4.60348E-03
            4652             708     4.76038E-03     4.60348E-03
            4670             709     5.54676E-03     5.44047E-03
            4688             709     5.54676E-03     5.44047E-03
            4688             710     6.36890E-03     6.17120E-03
            4706             710     6.36890E-03     6.17120E-03
            4724             711     7.13991E-03     7.14054E-03
            4706             711     7.13991E-03     7.14054E-03
            4742             712     7.93785E-03     7.86656E-03
            4724             712     7.93785E-03     7.86656E-03
            4742             713     8.92255E-03     9.15418E-03
            4760             713     8.92255E-03     9.15418E-03
            4778             714     9.28097E-03     10.8243E-03
            4760             714     9.28097E-03     10.8243E-03
            4778             715     5.54318E-03     6.93461E-03
            4796             715     5.54318E-03     6.93461E-03
            4796             716     2.39983E-03     2.72916E-03
            4814             716     2.39983E-03     2.72916E-03
            4814             717     3.14226E-03     2.97325E-03
            4832             717     3.14226E-03     2.97325E-03
            4832             718     3.59171E-03     3.39007E-03
            4850             718     3.59171E-03     3.39007E-03
            4850             719     4.07245E-03     3.80121E-03
            4868             719     4.07245E-03     3.80121E-03
            4868             720     4.47824E-03     4.22335E-03
            4886             720     4.47824E-03     4.22335E-03
            4904             721     4.89333E-03     4.59682E-03
            4886             721     4.89333E-03     4.59682E-03
            4904             722     5.26849E-03     5.09462E-03
            4922             722     5.26849E-03     5.09462E-03
            4940             723     5.63481E-03     5.44318E-03
            4922             723     5.63481E-03     5.44318E-03
            4958             724     6.10023E-03     6.11550E-03
            4940             724     6.10023E-03     6.11550E-03
            4958             725     6.13691E-03     7.05097E-03
            4976             725     6.13691E-03     7.05097E-03
            4976             726     4.26971E-03     5.21029E-03
            4994             726     4.26971E-03     5.21029E-03
            4994             727     2.96219E-03     3.20237E-03
            5012             727     2.96219E-03     3.20237E-03
            5012             728     3.43180E-03     2.93735E-03
            5030             728     3.43180E-03     2.93735E-03
            5030             729     3.54565E-03     3.12243E-03
            5048             729     3.54565E-03     3.12243E-03
            5066             730     3.42838E-03     3.61812E-03
            5048             730     3.42838E-03     3.61812E-03
            5066             731     1.83579E-03     1.93571E-03
            5065             731     1.83579E-03     1.93571E-03
            5755             731     1.83579E-03     1.93571E-03
            5756             731     1.83579E-03     1.93571E-03
            5754             732     1.93114E-03     1.87241E-03
            5065             732     1.93114E-03     1.87241E-03
            5064             732     1.93114E-03     1.87241E-03
            5755             732     1.93114E-03     1.87241E-03
            5063             733     1.95722E-03     1.83890E-03
            5064             733     1.95722E-03     1.83890E-03
            5753             733     1.95722E-03     1.83890E-03
            5754             733     1.95722E-03     1.83890E-03
            5753             734     1.98473E-03     1.84988E-03
            5063             734     1.98473E-03     1.84988E-03
            5062             734     1.98473E-03     1.84988E-03
            5752             734     1.98473E-03     1.84988E-03
            5061             735     2.00671E-03     1.85176E-03
            5751             735     2.00671E-03     1.85176E-03
            5752             735     2.00671E-03     1.85176E-03
            5062             735     2.00671E-03     1.85176E-03
            5060             736     2.03590E-03     1.86162E-03
            5751             736     2.03590E-03     1.86162E-03
            5750             736     2.03590E-03     1.86162E-03
            5061             736     2.03590E-03     1.86162E-03
            5749             737     2.06623E-03     1.87397E-03
            5059             737     2.06623E-03     1.87397E-03
            5060             737     2.06623E-03     1.87397E-03
            5750             737     2.06623E-03     1.87397E-03
            5748             738     2.10029E-03     1.88906E-03
            5749             738     2.10029E-03     1.88906E-03
            5058             738     2.10029E-03     1.88906E-03
            5059             738     2.10029E-03     1.88906E-03
            5747             739     2.13456E-03     1.90798E-03
            5748             739     2.13456E-03     1.90798E-03
            5058             739     2.13456E-03     1.90798E-03
            5057             739     2.13456E-03     1.90798E-03
            5747             740     2.17134E-03     1.92561E-03
            5056             740     2.17134E-03     1.92561E-03
            5057             740     2.17134E-03     1.92561E-03
            5746             740     2.17134E-03     1.92561E-03
            5746             741     2.20585E-03     1.94650E-03
            5745             741     2.20585E-03     1.94650E-03
            5055             741     2.20585E-03     1.94650E-03
            5056             741     2.20585E-03     1.94650E-03
            5744             742     2.23669E-03     1.95626E-03
            5055             742     2.23669E-03     1.95626E-03
            5054             742     2.23669E-03     1.95626E-03
            5745             742     2.23669E-03     1.95626E-03
            5053             743     2.24977E-03     1.95175E-03
            5743             743     2.24977E-03     1.95175E-03
            5054             743     2.24977E-03     1.95175E-03
            5744             743     2.24977E-03     1.95175E-03
            5053             744     2.21814E-03     1.90140E-03
            5052             744     2.21814E-03     1.90140E-03
            5742             744     2.21814E-03     1.90140E-03
            5743             744     2.21814E-03     1.90140E-03
            5741             745     2.02014E-03     1.68338E-03
            5742             745     2.02014E-03     1.68338E-03
            5051             745     2.02014E-03     1.68338E-03
            5052             745     2.02014E-03     1.68338E-03
            5050             746     1.67799E-03     1.31028E-03
            5051             746     1.67799E-03     1.31028E-03
            5741             746     1.67799E-03     1.31028E-03
            5740             746     1.67799E-03     1.31028E-03
            5739             747     1.47254E-03     1.71296E-03
            5049             747     1.47254E-03     1.71296E-03
            5740             747     1.47254E-03     1.71296E-03
            5050             747     1.47254E-03     1.71296E-03
            5846             787     290.143E-06     312.655E-06
            5828             787     290.143E-06     312.655E-06
            5810             788     305.308E-06     279.228E-06
            5828             788     305.308E-06     279.228E-06
            5792             789     293.707E-06     258.452E-06
            5810             789     293.707E-06     258.452E-06
            5774             790     286.352E-06     258.619E-06
            5792             790     286.352E-06     258.619E-06
            5774             791     254.996E-06     269.744E-06
            5756             791     254.996E-06     269.744E-06
            5846             808     284.429E-06     317.194E-06
            5845             808     284.429E-06     317.194E-06
            5844             809     304.738E-06     303.698E-06
            5845             809     304.738E-06     303.698E-06
            5843             810     310.642E-06     300.804E-06
            5844             810     310.642E-06     300.804E-06
            5842             811     315.566E-06     301.527E-06
            5843             811     315.566E-06     301.527E-06
            5841             812     320.426E-06     302.338E-06
            5842             812     320.426E-06     302.338E-06
            5840             813     325.100E-06     304.446E-06
            5841             813     325.100E-06     304.446E-06
            5840             814     330.098E-06     306.332E-06
            5839             814     330.098E-06     306.332E-06
            5838             815     335.491E-06     309.228E-06
            5839             815     335.491E-06     309.228E-06
            5838             816     340.329E-06     311.607E-06
            5837             816     340.329E-06     311.607E-06
            5836             817     345.677E-06     314.653E-06
            5837             817     345.677E-06     314.653E-06
            5835             818     348.597E-06     315.617E-06
            5836             818     348.597E-06     315.617E-06
            5834             819     351.126E-06     315.333E-06
            5835             819     351.126E-06     315.333E-06
            5834             820     345.131E-06     308.487E-06
            5833             820     345.131E-06     308.487E-06
            5832             821     332.530E-06     291.313E-06
            5833             821     332.530E-06     291.313E-06
            5831             822     294.836E-06     251.946E-06
            5832             822     294.836E-06     251.946E-06
            5830             823     235.216E-06     185.307E-06
            5831             823     235.216E-06     185.307E-06
            5829             824     161.242E-06     181.783E-06
            5830             824     161.242E-06     181.783E-06
             786            1467     264.008E-06     266.891E-06
             804            1467     264.008E-06     266.891E-06
             785            1467     264.008E-06     266.891E-06
             803            1467     264.008E-06     266.891E-06
             804            1468     261.364E-06     269.868E-06
             787            1468     261.364E-06     269.868E-06
             805            1468     261.364E-06     269.868E-06
             786            1468     261.364E-06     269.868E-06
             788            1469     259.799E-06     270.860E-06
             806            1469     259.799E-06     270.860E-06
             805            1469     259.799E-06     270.860E-06
             787            1469     259.799E-06     270.860E-06
             788            1470     258.975E-06     272.583E-06
             806            1470     258.975E-06     272.583E-06
             807            1470     258.975E-06     272.583E-06
             789            1470     258.975E-06     272.583E-06
             790            1471     258.718E-06     274.834E-06
             789            1471     258.718E-06     274.834E-06
             808            1471     258.718E-06     274.834E-06
             807            1471     258.718E-06     274.834E-06
             808            1472     258.916E-06     277.335E-06
             790            1472     258.916E-06     277.335E-06
             809            1472     258.916E-06     277.335E-06
             791            1472     258.916E-06     277.335E-06
             792            1473     259.408E-06     280.038E-06
             791            1473     259.408E-06     280.038E-06
             809            1473     259.408E-06     280.038E-06
             810            1473     259.408E-06     280.038E-06
             811            1474     260.358E-06     283.046E-06
             792            1474     260.358E-06     283.046E-06
             810            1474     260.358E-06     283.046E-06
             793            1474     260.358E-06     283.046E-06
             794            1475     261.517E-06     286.101E-06
             812            1475     261.517E-06     286.101E-06
             793            1475     261.517E-06     286.101E-06
             811            1475     261.517E-06     286.101E-06
             813            1476     263.362E-06     289.653E-06
             794            1476     263.362E-06     289.653E-06
             795            1476     263.362E-06     289.653E-06
             812            1476     263.362E-06     289.653E-06
             796            1477     265.160E-06     293.078E-06
             813            1477     265.160E-06     293.078E-06
             814            1477     265.160E-06     293.078E-06
             795            1477     265.160E-06     293.078E-06
             797            1478     268.363E-06     297.443E-06
             814            1478     268.363E-06     297.443E-06
             815            1478     268.363E-06     297.443E-06
             796            1478     268.363E-06     297.443E-06
             815            1479     270.926E-06     301.531E-06
             797            1479     270.926E-06     301.531E-06
             816            1479     270.926E-06     301.531E-06
             798            1479     270.926E-06     301.531E-06
             799            1480     277.396E-06     307.628E-06
             816            1480     277.396E-06     307.628E-06
             817            1480     277.396E-06     307.628E-06
             798            1480     277.396E-06     307.628E-06
             818            1481     280.035E-06     311.667E-06
             817            1481     280.035E-06     311.667E-06
             800            1481     280.035E-06     311.667E-06
             799            1481     280.035E-06     311.667E-06
             800            1482     279.324E-06     315.912E-06
             801            1482     279.324E-06     315.912E-06
             818            1482     279.324E-06     315.912E-06
             819            1482     279.324E-06     315.912E-06
             819            1483     301.024E-06     337.510E-06
             801            1483     301.024E-06     337.510E-06
             820            1483     301.024E-06     337.510E-06
             802            1483     301.024E-06     337.510E-06
             804            1484     282.360E-06     261.689E-06
             822            1484     282.360E-06     261.689E-06
             821            1484     282.360E-06     261.689E-06
             803            1484     282.360E-06     261.689E-06
             805            1485     265.174E-06     272.345E-06
             804            1485     265.174E-06     272.345E-06
             823            1485     265.174E-06     272.345E-06
             822            1485     265.174E-06     272.345E-06
             823            1486     264.298E-06     269.208E-06
             824            1486     264.298E-06     269.208E-06
             805            1486     264.298E-06     269.208E-06
             806            1486     264.298E-06     269.208E-06
             806            1487     266.050E-06     268.526E-06
             807            1487     266.050E-06     268.526E-06
             824            1487     266.050E-06     268.526E-06
             825            1487     266.050E-06     268.526E-06
             825            1488     266.477E-06     270.568E-06
             826            1488     266.477E-06     270.568E-06
             807            1488     266.477E-06     270.568E-06
             808            1488     266.477E-06     270.568E-06
             809            1489     268.130E-06     271.831E-06
             827            1489     268.130E-06     271.831E-06
             808            1489     268.130E-06     271.831E-06
             826            1489     268.130E-06     271.831E-06
             827            1490     269.900E-06     273.670E-06
             828            1490     269.900E-06     273.670E-06
             809            1490     269.900E-06     273.670E-06
             810            1490     269.900E-06     273.670E-06
             810            1491     271.796E-06     275.685E-06
             829            1491     271.796E-06     275.685E-06
             828            1491     271.796E-06     275.685E-06
             811            1491     271.796E-06     275.685E-06
             830            1492     274.187E-06     278.059E-06
             811            1492     274.187E-06     278.059E-06
             829            1492     274.187E-06     278.059E-06
             812            1492     274.187E-06     278.059E-06
             831            1493     276.502E-06     280.446E-06
             830            1493     276.502E-06     280.446E-06
             813            1493     276.502E-06     280.446E-06
             812            1493     276.502E-06     280.446E-06
             813            1494     279.528E-06     283.485E-06
             832            1494     279.528E-06     283.485E-06
             814            1494     279.528E-06     283.485E-06
             831            1494     279.528E-06     283.485E-06
             815            1495     282.080E-06     286.121E-06
             833            1495     282.080E-06     286.121E-06
             832            1495     282.080E-06     286.121E-06
             814            1495     282.080E-06     286.121E-06
             815            1496     286.734E-06     290.197E-06
             816            1496     286.734E-06     290.197E-06
             834            1496     286.734E-06     290.197E-06
             833            1496     286.734E-06     290.197E-06
             835            1497     290.372E-06     295.773E-06
             816            1497     290.372E-06     295.773E-06
             834            1497     290.372E-06     295.773E-06
             817            1497     290.372E-06     295.773E-06
             835            1498     305.289E-06     305.071E-06
             817            1498     305.289E-06     305.071E-06
             818            1498     305.289E-06     305.071E-06
             836            1498     305.289E-06     305.071E-06
             837            1499     303.588E-06     309.056E-06
             836            1499     303.588E-06     309.056E-06
             819            1499     303.588E-06     309.056E-06
             818            1499     303.588E-06     309.056E-06
             819            1500     219.076E-06     231.065E-06
             838            1500     219.076E-06     231.065E-06
             837            1500     219.076E-06     231.065E-06
             820            1500     219.076E-06     231.065E-06
             821            1501     275.173E-06     275.245E-06
             839            1501     275.173E-06     275.245E-06
             840            1501     275.173E-06     275.245E-06
             822            1501     275.173E-06     275.245E-06
             840            1502     275.959E-06     273.601E-06
             822            1502     275.959E-06     273.601E-06
             841            1502     275.959E-06     273.601E-06
             823            1502     275.959E-06     273.601E-06
             842            1503     277.297E-06     271.937E-06
             841            1503     277.297E-06     271.937E-06
             824            1503     277.297E-06     271.937E-06
             823            1503     277.297E-06     271.937E-06
             842            1504     279.162E-06     271.247E-06
             824            1504     279.162E-06     271.247E-06
             843            1504     279.162E-06     271.247E-06
             825            1504     279.162E-06     271.247E-06
             844            1505     281.283E-06     271.086E-06
             826            1505     281.283E-06     271.086E-06
             825            1505     281.283E-06     271.086E-06
             843            1505     281.283E-06     271.086E-06
             844            1506     283.650E-06     271.346E-06
             826            1506     283.650E-06     271.346E-06
             827            1506     283.650E-06     271.346E-06
             845            1506     283.650E-06     271.346E-06
             846            1507     286.197E-06     271.875E-06
             845            1507     286.197E-06     271.875E-06
             828            1507     286.197E-06     271.875E-06
             827            1507     286.197E-06     271.875E-06
             829            1508     288.970E-06     272.739E-06
             846            1508     288.970E-06     272.739E-06
             847            1508     288.970E-06     272.739E-06
             828            1508     288.970E-06     272.739E-06
             829            1509     291.778E-06     273.830E-06
             847            1509     291.778E-06     273.830E-06
             848            1509     291.778E-06     273.830E-06
             830            1509     291.778E-06     273.830E-06
             830            1510     294.878E-06     275.269E-06
             831            1510     294.878E-06     275.269E-06
             849            1510     294.878E-06     275.269E-06
             848            1510     294.878E-06     275.269E-06
             849            1511     297.781E-06     276.739E-06
             850            1511     297.781E-06     276.739E-06
             832            1511     297.781E-06     276.739E-06
             831            1511     297.781E-06     276.739E-06
             833            1512     301.098E-06     278.672E-06
             850            1512     301.098E-06     278.672E-06
             851            1512     301.098E-06     278.672E-06
             832            1512     301.098E-06     278.672E-06
             834            1513     304.189E-06     280.342E-06
             852            1513     304.189E-06     280.342E-06
             851            1513     304.189E-06     280.342E-06
             833            1513     304.189E-06     280.342E-06
             853            1514     308.478E-06     283.565E-06
             852            1514     308.478E-06     283.565E-06
             834            1514     308.478E-06     283.565E-06
             835            1514     308.478E-06     283.565E-06
             835            1515     311.925E-06     284.519E-06
             854            1515     311.925E-06     284.519E-06
             853            1515     311.925E-06     284.519E-06
             836            1515     311.925E-06     284.519E-06
             836            1516     293.417E-06     266.337E-06
             854            1516     293.417E-06     266.337E-06
             855            1516     293.417E-06     266.337E-06
             837            1516     293.417E-06     266.337E-06
             837            1517     167.460E-06     194.862E-06
             855            1517     167.460E-06     194.862E-06
             838            1517     167.460E-06     194.862E-06
             856            1517     167.460E-06     194.862E-06
            2386            2866     140.312E-03     143.142E-03
            2403            2866     140.312E-03     143.142E-03
            2385            2866     140.312E-03     143.142E-03
            2404            2866     140.312E-03     143.142E-03
            2404            2867     143.217E-03     143.858E-03
            2386            2867     143.217E-03     143.858E-03
            2387            2867     143.217E-03     143.858E-03
            2405            2867     143.217E-03     143.858E-03
            2406            2868     143.728E-03     144.302E-03
            2387            2868     143.728E-03     144.302E-03
            2388            2868     143.728E-03     144.302E-03
            2405            2868     143.728E-03     144.302E-03
            2406            2869     143.430E-03     143.911E-03
            2389            2869     143.430E-03     143.911E-03
            2407            2869     143.430E-03     143.911E-03
            2388            2869     143.430E-03     143.911E-03
            2408            2870     142.643E-03     142.803E-03
            2390            2870     142.643E-03     142.803E-03
            2389            2870     142.643E-03     142.803E-03
            2407            2870     142.643E-03     142.803E-03
            2409            2871     141.475E-03     141.554E-03
            2391            2871     141.475E-03     141.554E-03
            2408            2871     141.475E-03     141.554E-03
            2390            2871     141.475E-03     141.554E-03
            2409            2872     140.318E-03     140.303E-03
            2410            2872     140.318E-03     140.303E-03
            2392            2872     140.318E-03     140.303E-03
            2391            2872     140.318E-03     140.303E-03
            2393            2873     139.076E-03     139.046E-03
            2410            2873     139.076E-03     139.046E-03
            2411            2873     139.076E-03     139.046E-03
            2392            2873     139.076E-03     139.046E-03
            2411            2874     137.939E-03     137.958E-03
            2393            2874     137.939E-03     137.958E-03
            2412            2874     137.939E-03     137.958E-03
            2394            2874     137.939E-03     137.958E-03
            2394            2875     136.800E-03     136.932E-03
            2413            2875     136.800E-03     136.932E-03
            2395            2875     136.800E-03     136.932E-03
            2412            2875     136.800E-03     136.932E-03
            2413            2876     135.797E-03     136.113E-03
            2396            2876     135.797E-03     136.113E-03
            2395            2876     135.797E-03     136.113E-03
            2414            2876     135.797E-03     136.113E-03
            2396            2877     134.711E-03     135.280E-03
            2414            2877     134.711E-03     135.280E-03
            2415            2877     134.711E-03     135.280E-03
            2397            2877     134.711E-03     135.280E-03
            2397            2878     133.566E-03     134.459E-03
            2415            2878     133.566E-03     134.459E-03
            2416            2878     133.566E-03     134.459E-03
            2398            2878     133.566E-03     134.459E-03
            2417            2879     131.864E-03     133.149E-03
            2398            2879     131.864E-03     133.149E-03
            2416            2879     131.864E-03     133.149E-03
            2399            2879     131.864E-03     133.149E-03
            2417            2880     128.367E-03     129.741E-03
            2399            2880     128.367E-03     129.741E-03
            2400            2880     128.367E-03     129.741E-03
            2418            2880     128.367E-03     129.741E-03
            2418            2881     123.515E-03     125.537E-03
            2400            2881     123.515E-03     125.537E-03
            2419            2881     123.515E-03     125.537E-03
            2401            2881     123.515E-03     125.537E-03
            2420            2882     114.525E-03     116.234E-03
            2402            2882     114.525E-03     116.234E-03
            2401            2882     114.525E-03     116.234E-03
            2419            2882     114.525E-03     116.234E-03
            2403            2883     181.430E-03     185.171E-03
            2404            2883     181.430E-03     185.171E-03
            2421            2883     181.430E-03     185.171E-03
            2422            2883     181.430E-03     185.171E-03
            2405            2884     185.668E-03     187.990E-03
            2422            2884     185.668E-03     187.990E-03
            2404            2884     185.668E-03     187.990E-03
            2423            2884     185.668E-03     187.990E-03
            2406            2885     188.165E-03     189.712E-03
            2405            2885     188.165E-03     189.712E-03
            2424            2885     188.165E-03     189.712E-03
            2423            2885     188.165E-03     189.712E-03
            2406            2886     188.767E-03     189.924E-03
            2424            2886     188.767E-03     189.924E-03
            2407            2886     188.767E-03     189.924E-03
            2425            2886     188.767E-03     189.924E-03
            2425            2887     188.392E-03     189.295E-03
            2407            2887     188.392E-03     189.295E-03
            2408            2887     188.392E-03     189.295E-03
            2426            2887     188.392E-03     189.295E-03
            2408            2888     187.733E-03     188.457E-03
            2427            2888     187.733E-03     188.457E-03
            2426            2888     187.733E-03     188.457E-03
            2409            2888     187.733E-03     188.457E-03
            2409            2889     186.893E-03     187.517E-03
            2427            2889     186.893E-03     187.517E-03
            2428            2889     186.893E-03     187.517E-03
            2410            2889     186.893E-03     187.517E-03
            2411            2890     185.979E-03     186.609E-03
            2410            2890     185.979E-03     186.609E-03
            2428            2890     185.979E-03     186.609E-03
            2429            2890     185.979E-03     186.609E-03
            2429            2891     185.091E-03     185.808E-03
            2430            2891     185.091E-03     185.808E-03
            2412            2891     185.091E-03     185.808E-03
            2411            2891     185.091E-03     185.808E-03
            2431            2892     184.207E-03     185.124E-03
            2413            2892     184.207E-03     185.124E-03
            2412            2892     184.207E-03     185.124E-03
            2430            2892     184.207E-03     185.124E-03
            2414            2893     183.389E-03     184.601E-03
            2413            2893     183.389E-03     184.601E-03
            2432            2893     183.389E-03     184.601E-03
            2431            2893     183.389E-03     184.601E-03
            2433            2894     182.574E-03     184.188E-03
            2432            2894     182.574E-03     184.188E-03
            2414            2894     182.574E-03     184.188E-03
            2415            2894     182.574E-03     184.188E-03
            2415            2895     181.519E-03     183.662E-03
            2416            2895     181.519E-03     183.662E-03
            2434            2895     181.519E-03     183.662E-03
            2433            2895     181.519E-03     183.662E-03
            2417            2896     180.190E-03     182.943E-03
            2416            2896     180.190E-03     182.943E-03
            2434            2896     180.190E-03     182.943E-03
            2435            2896     180.190E-03     182.943E-03
            2417            2897     175.703E-03     178.965E-03
            2418            2897     175.703E-03     178.965E-03
            2435            2897     175.703E-03     178.965E-03
            2436            2897     175.703E-03     178.965E-03
            2418            2898     167.014E-03     171.198E-03
            2419            2898     167.014E-03     171.198E-03
            2437            2898     167.014E-03     171.198E-03
            2436            2898     167.014E-03     171.198E-03
            2438            2899     144.704E-03     148.181E-03
            2419            2899     144.704E-03     148.181E-03
            2420            2899     144.704E-03     148.181E-03
            2437            2899     144.704E-03     148.181E-03
            2439            2900     188.771E-03     191.716E-03
            2422            2900     188.771E-03     191.716E-03
            2421            2900     188.771E-03     191.716E-03
            2440            2900     188.771E-03     191.716E-03
            2423            2901     189.459E-03     193.921E-03
            2422            2901     189.459E-03     193.921E-03
            2440            2901     189.459E-03     193.921E-03
            2441            2901     189.459E-03     193.921E-03
            2424            2902     188.917E-03     192.220E-03
            2441            2902     188.917E-03     192.220E-03
            2423            2902     188.917E-03     192.220E-03
            2442            2902     188.917E-03     192.220E-03
            2424            2903     187.302E-03     190.228E-03
            2443            2903     187.302E-03     190.228E-03
            2442            2903     187.302E-03     190.228E-03
            2425            2903     187.302E-03     190.228E-03
            2426            2904     185.594E-03     188.616E-03
            2444            2904     185.594E-03     188.616E-03
            2443            2904     185.594E-03     188.616E-03
            2425            2904     185.594E-03     188.616E-03
            2444            2905     184.145E-03     187.033E-03
            2427            2905     184.145E-03     187.033E-03
            2445            2905     184.145E-03     187.033E-03
            2426            2905     184.145E-03     187.033E-03
            2428            2906     182.782E-03     185.666E-03
            2445            2906     182.782E-03     185.666E-03
            2446            2906     182.782E-03     185.666E-03
            2427            2906     182.782E-03     185.666E-03
            2446            2907     181.618E-03     184.485E-03
            2429            2907     181.618E-03     184.485E-03
            2447            2907     181.618E-03     184.485E-03
            2428            2907     181.618E-03     184.485E-03
            2430            2908     180.581E-03     183.476E-03
            2448            2908     180.581E-03     183.476E-03
            2447            2908     180.581E-03     183.476E-03
            2429            2908     180.581E-03     183.476E-03
            2431            2909     179.765E-03     182.711E-03
            2448            2909     179.765E-03     182.711E-03
            2430            2909     179.765E-03     182.711E-03
            2449            2909     179.765E-03     182.711E-03
            2450            2910     179.135E-03     182.172E-03
            2449            2910     179.135E-03     182.172E-03
            2432            2910     179.135E-03     182.172E-03
            2431            2910     179.135E-03     182.172E-03
            2451            2911     178.846E-03     181.986E-03
            2433            2911     178.846E-03     181.986E-03
            2432            2911     178.846E-03     181.986E-03
            2450            2911     178.846E-03     181.986E-03
            2433            2912     179.020E-03     182.316E-03
            2452            2912     179.020E-03     182.316E-03
            2451            2912     179.020E-03     182.316E-03
            2434            2912     179.020E-03     182.316E-03
            2434            2913     179.453E-03     182.939E-03
            2453            2913     179.453E-03     182.939E-03
            2452            2913     179.453E-03     182.939E-03
            2435            2913     179.453E-03     182.939E-03
            2454            2914     179.489E-03     183.837E-03
            2436            2914     179.489E-03     183.837E-03
            2435            2914     179.489E-03     183.837E-03
            2453            2914     179.489E-03     183.837E-03
            2436            2915     172.007E-03     175.171E-03
            2454            2915     172.007E-03     175.171E-03
            2455            2915     172.007E-03     175.171E-03
            2437            2915     172.007E-03     175.171E-03
            2438            2916     143.788E-03     140.223E-03
            2456            2916     143.788E-03     140.223E-03
            2437            2916     143.788E-03     140.223E-03
            2455            2916     143.788E-03     140.223E-03
            2457            2917     195.440E-03     197.789E-03
            2439            2917     195.440E-03     197.789E-03
            2458            2917     195.440E-03     197.789E-03
            2440            2917     195.440E-03     197.789E-03
            2441            2918     193.664E-03     197.342E-03
            2440            2918     193.664E-03     197.342E-03
            2458            2918     193.664E-03     197.342E-03
            2459            2918     193.664E-03     197.342E-03
            2441            2919     189.594E-03     193.257E-03
            2460            2919     189.594E-03     193.257E-03
            2442            2919     189.594E-03     193.257E-03
            2459            2919     189.594E-03     193.257E-03
            2443            2920     186.031E-03     189.964E-03
            2442            2920     186.031E-03     189.964E-03
            2460            2920     186.031E-03     189.964E-03
            2461            2920     186.031E-03     189.964E-03
            2444            2921     183.412E-03     187.306E-03
            2443            2921     183.412E-03     187.306E-03
            2462            2921     183.412E-03     187.306E-03
            2461            2921     183.412E-03     187.306E-03
            2444            2922     181.099E-03     185.104E-03
            2462            2922     181.099E-03     185.104E-03
            2463            2922     181.099E-03     185.104E-03
            2445            2922     181.099E-03     185.104E-03
            2464            2923     179.327E-03     183.323E-03
            2446            2923     179.327E-03     183.323E-03
            2463            2923     179.327E-03     183.323E-03
            2445            2923     179.327E-03     183.323E-03
            2464            2924     177.851E-03     181.834E-03
            2446            2924     177.851E-03     181.834E-03
            2447            2924     177.851E-03     181.834E-03
            2465            2924     177.851E-03     181.834E-03
            2466            2925     176.755E-03     180.680E-03
            2448            2925     176.755E-03     180.680E-03
            2465            2925     176.755E-03     180.680E-03
            2447            2925     176.755E-03     180.680E-03
            2466            2926     175.969E-03     179.791E-03
            2448            2926     175.969E-03     179.791E-03
            2449            2926     175.969E-03     179.791E-03
            2467            2926     175.969E-03     179.791E-03
            2467            2927     175.604E-03     179.288E-03
            2468            2927     175.604E-03     179.288E-03
            2450            2927     175.604E-03     179.288E-03
            2449            2927     175.604E-03     179.288E-03
            2450            2928     175.656E-03     179.163E-03
            2451            2928     175.656E-03     179.163E-03
            2468            2928     175.656E-03     179.163E-03
            2469            2928     175.656E-03     179.163E-03
            2469            2929     176.525E-03     179.782E-03
            2451            2929     176.525E-03     179.782E-03
            2470            2929     176.525E-03     179.782E-03
            2452            2929     176.525E-03     179.782E-03
            2471            2930     177.730E-03     180.773E-03
            2470            2930     177.730E-03     180.773E-03
            2453            2930     177.730E-03     180.773E-03
            2452            2930     177.730E-03     180.773E-03
            2472            2931     179.286E-03     182.381E-03
            2453            2931     179.286E-03     182.381E-03
            2454            2931     179.286E-03     182.381E-03
            2471            2931     179.286E-03     182.381E-03
            2454            2932     175.362E-03     176.138E-03
            2473            2932     175.362E-03     176.138E-03
            2472            2932     175.362E-03     176.138E-03
            2455            2932     175.362E-03     176.138E-03
            2456            2933     149.630E-03     145.141E-03
            2473            2933     149.630E-03     145.141E-03
            2474            2933     149.630E-03     145.141E-03
            2455            2933     149.630E-03     145.141E-03
            2476            2934     199.504E-03     200.539E-03
            2458            2934     199.504E-03     200.539E-03
            2475            2934     199.504E-03     200.539E-03
            2457            2934     199.504E-03     200.539E-03
            2458            2935     194.602E-03     196.434E-03
            2476            2935     194.602E-03     196.434E-03
            2477            2935     194.602E-03     196.434E-03
            2459            2935     194.602E-03     196.434E-03
            2460            2936     188.680E-03     191.682E-03
            2459            2936     188.680E-03     191.682E-03
            2477            2936     188.680E-03     191.682E-03
            2478            2936     188.680E-03     191.682E-03
            2479            2937     184.537E-03     188.049E-03
            2460            2937     184.537E-03     188.049E-03
            2461            2937     184.537E-03     188.049E-03
            2478            2937     184.537E-03     188.049E-03
            2462            2938     181.022E-03     184.735E-03
            2480            2938     181.022E-03     184.735E-03
            2461            2938     181.022E-03     184.735E-03
            2479            2938     181.022E-03     184.735E-03
            2480            2939     178.327E-03     182.250E-03
            2463            2939     178.327E-03     182.250E-03
            2481            2939     178.327E-03     182.250E-03
            2462            2939     178.327E-03     182.250E-03
            2463            2940     176.147E-03     180.130E-03
            2482            2940     176.147E-03     180.130E-03
            2481            2940     176.147E-03     180.130E-03
            2464            2940     176.147E-03     180.130E-03
            2483            2941     174.530E-03     178.493E-03
            2465            2941     174.530E-03     178.493E-03
            2482            2941     174.530E-03     178.493E-03
            2464            2941     174.530E-03     178.493E-03
            2465            2942     173.370E-03     177.182E-03
            2466            2942     173.370E-03     177.182E-03
            2484            2942     173.370E-03     177.182E-03
            2483            2942     173.370E-03     177.182E-03
            2466            2943     172.700E-03     176.252E-03
            2467            2943     172.700E-03     176.252E-03
            2485            2943     172.700E-03     176.252E-03
            2484            2943     172.700E-03     176.252E-03
            2467            2944     172.482E-03     175.657E-03
            2486            2944     172.482E-03     175.657E-03
            2468            2944     172.482E-03     175.657E-03
            2485            2944     172.482E-03     175.657E-03
            2487            2945     172.818E-03     175.520E-03
            2486            2945     172.818E-03     175.520E-03
            2468            2945     172.818E-03     175.520E-03
            2469            2945     172.818E-03     175.520E-03
            2488            2946     173.425E-03     175.558E-03
            2470            2946     173.425E-03     175.558E-03
            2469            2946     173.425E-03     175.558E-03
            2487            2946     173.425E-03     175.558E-03
            2470            2947     174.680E-03     176.087E-03
            2489            2947     174.680E-03     176.087E-03
            2488            2947     174.680E-03     176.087E-03
            2471            2947     174.680E-03     176.087E-03
            2489            2948     174.130E-03     174.182E-03
            2490            2948     174.130E-03     174.182E-03
            2471            2948     174.130E-03     174.182E-03
            2472            2948     174.130E-03     174.182E-03
            2472            2949     173.445E-03     171.856E-03
            2491            2949     173.445E-03     171.856E-03
            2490            2949     173.445E-03     171.856E-03
            2473            2949     173.445E-03     171.856E-03
            2473            2950     165.015E-03     161.115E-03
            2474            2950     165.015E-03     161.115E-03
            2492            2950     165.015E-03     161.115E-03
            2491            2950     165.015E-03     161.115E-03
            2493            2951     1.79052E-03     1.82794E-03
            2512            2951     1.79052E-03     1.82794E-03
            2494            2951     1.79052E-03     1.82794E-03
            2511            2951     1.79052E-03     1.82794E-03
            2512            2952     1.92128E-03     1.48988E-03
            2494            2952     1.92128E-03     1.48988E-03
            2495            2952     1.92128E-03     1.48988E-03
            2513            2952     1.92128E-03     1.48988E-03
            2496            2953     2.76663E-03     2.32205E-03
            2513            2953     2.76663E-03     2.32205E-03
            2495            2953     2.76663E-03     2.32205E-03
            2514            2953     2.76663E-03     2.32205E-03
            2497            2954     3.16371E-03     2.76725E-03
            2496            2954     3.16371E-03     2.76725E-03
            2515            2954     3.16371E-03     2.76725E-03
            2514            2954     3.16371E-03     2.76725E-03
            2498            2955     3.33189E-03     2.96744E-03
            2515            2955     3.33189E-03     2.96744E-03
            2516            2955     3.33189E-03     2.96744E-03
            2497            2955     3.33189E-03     2.96744E-03
            2498            2956     3.37795E-03     3.03769E-03
            2499            2956     3.37795E-03     3.03769E-03
            2517            2956     3.37795E-03     3.03769E-03
            2516            2956     3.37795E-03     3.03769E-03
            2499            2957     3.35912E-03     3.04394E-03
            2518            2957     3.35912E-03     3.04394E-03
            2517            2957     3.35912E-03     3.04394E-03
            2500            2957     3.35912E-03     3.04394E-03
            2519            2958     3.31324E-03     3.01930E-03
            2518            2958     3.31324E-03     3.01930E-03
            2501            2958     3.31324E-03     3.01930E-03
            2500            2958     3.31324E-03     3.01930E-03
            2502            2959     3.25383E-03     2.98126E-03
            2520            2959     3.25383E-03     2.98126E-03
            2501            2959     3.25383E-03     2.98126E-03
            2519            2959     3.25383E-03     2.98126E-03
            2520            2960     3.19097E-03     2.93992E-03
            2503            2960     3.19097E-03     2.93992E-03
            2521            2960     3.19097E-03     2.93992E-03
            2502            2960     3.19097E-03     2.93992E-03
            2521            2961     3.12827E-03     2.89891E-03
            2522            2961     3.12827E-03     2.89891E-03
            2503            2961     3.12827E-03     2.89891E-03
            2504            2961     3.12827E-03     2.89891E-03
            2504            2962     3.06922E-03     2.86328E-03
            2523            2962     3.06922E-03     2.86328E-03
            2522            2962     3.06922E-03     2.86328E-03
            2505            2962     3.06922E-03     2.86328E-03
            2524            2963     3.01345E-03     2.83251E-03
            2506            2963     3.01345E-03     2.83251E-03
            2523            2963     3.01345E-03     2.83251E-03
            2505            2963     3.01345E-03     2.83251E-03
            2507            2964     2.96212E-03     2.81358E-03
            2506            2964     2.96212E-03     2.81358E-03
            2524            2964     2.96212E-03     2.81358E-03
            2525            2964     2.96212E-03     2.81358E-03
            2526            2965     2.90861E-03     2.80883E-03
            2508            2965     2.90861E-03     2.80883E-03
            2507            2965     2.90861E-03     2.80883E-03
            2525            2965     2.90861E-03     2.80883E-03
            2508            2966     2.83851E-03     2.85363E-03
            2527            2966     2.83851E-03     2.85363E-03
            2526            2966     2.83851E-03     2.85363E-03
            2509            2966     2.83851E-03     2.85363E-03
            2527            2967     2.77396E-03     2.95784E-03
            2528            2967     2.77396E-03     2.95784E-03
            2510            2967     2.77396E-03     2.95784E-03
            2509            2967     2.77396E-03     2.95784E-03
            2530            2968     1.95436E-03     1.82786E-03
            2511            2968     1.95436E-03     1.82786E-03
            2512            2968     1.95436E-03     1.82786E-03
            2529            2968     1.95436E-03     1.82786E-03
            2530            2969     2.20369E-03     2.11160E-03
            2512            2969     2.20369E-03     2.11160E-03
            2513            2969     2.20369E-03     2.11160E-03
            2531            2969     2.20369E-03     2.11160E-03
            2531            2970     3.09564E-03     2.91024E-03
            2513            2970     3.09564E-03     2.91024E-03
            2514            2970     3.09564E-03     2.91024E-03
            2532            2970     3.09564E-03     2.91024E-03
            2515            2971     3.39272E-03     3.19603E-03
            2533            2971     3.39272E-03     3.19603E-03
            2532            2971     3.39272E-03     3.19603E-03
            2514            2971     3.39272E-03     3.19603E-03
            2516            2972     3.46356E-03     3.26318E-03
            2534            2972     3.46356E-03     3.26318E-03
            2533            2972     3.46356E-03     3.26318E-03
            2515            2972     3.46356E-03     3.26318E-03
            2516            2973     3.40934E-03     3.22160E-03
            2535            2973     3.40934E-03     3.22160E-03
            2517            2973     3.40934E-03     3.22160E-03
            2534            2973     3.40934E-03     3.22160E-03
            2517            2974     3.33012E-03     3.15368E-03
            2518            2974     3.33012E-03     3.15368E-03
            2536            2974     3.33012E-03     3.15368E-03
            2535            2974     3.33012E-03     3.15368E-03
            2518            2975     3.24040E-03     3.07524E-03
            2519            2975     3.24040E-03     3.07524E-03
            2536            2975     3.24040E-03     3.07524E-03
            2537            2975     3.24040E-03     3.07524E-03
            2519            2976     3.15540E-03     3.00169E-03
            2520            2976     3.15540E-03     3.00169E-03
            2537            2976     3.15540E-03     3.00169E-03
            2538            2976     3.15540E-03     3.00169E-03
            2539            2977     3.07635E-03     2.93395E-03
            2520            2977     3.07635E-03     2.93395E-03
            2521            2977     3.07635E-03     2.93395E-03
            2538            2977     3.07635E-03     2.93395E-03
            2522            2978     3.00463E-03     2.87459E-03
            2539            2978     3.00463E-03     2.87459E-03
            2521            2978     3.00463E-03     2.87459E-03
            2540            2978     3.00463E-03     2.87459E-03
            2522            2979     2.93990E-03     2.82254E-03
            2540            2979     2.93990E-03     2.82254E-03
            2541            2979     2.93990E-03     2.82254E-03
            2523            2979     2.93990E-03     2.82254E-03
            2524            2980     2.88171E-03     2.78175E-03
            2523            2980     2.88171E-03     2.78175E-03
            2542            2980     2.88171E-03     2.78175E-03
            2541            2980     2.88171E-03     2.78175E-03
            2525            2981     2.83217E-03     2.74761E-03
            2524            2981     2.83217E-03     2.74761E-03
            2543            2981     2.83217E-03     2.74761E-03
            2542            2981     2.83217E-03     2.74761E-03
            2543            2982     2.77614E-03     2.73719E-03
            2544            2982     2.77614E-03     2.73719E-03
            2526            2982     2.77614E-03     2.73719E-03
            2525            2982     2.77614E-03     2.73719E-03
            2526            2983     2.73761E-03     2.74940E-03
            2545            2983     2.73761E-03     2.74940E-03
            2544            2983     2.73761E-03     2.74940E-03
            2527            2983     2.73761E-03     2.74940E-03
            2528            2984     2.77723E-03     2.69755E-03
            2546            2984     2.77723E-03     2.69755E-03
            2545            2984     2.77723E-03     2.69755E-03
            2527            2984     2.77723E-03     2.69755E-03
            2530            2985     2.73257E-03     2.72171E-03
            2548            2985     2.73257E-03     2.72171E-03
            2547            2985     2.73257E-03     2.72171E-03
            2529            2985     2.73257E-03     2.72171E-03
            2548            2986     2.65479E-03     2.78698E-03
            2549            2986     2.65479E-03     2.78698E-03
            2531            2986     2.65479E-03     2.78698E-03
            2530            2986     2.65479E-03     2.78698E-03
            2549            2987     3.26901E-03     3.32160E-03
            2531            2987     3.26901E-03     3.32160E-03
            2550            2987     3.26901E-03     3.32160E-03
            2532            2987     3.26901E-03     3.32160E-03
            2533            2988     3.52049E-03     3.49620E-03
            2551            2988     3.52049E-03     3.49620E-03
            2532            2988     3.52049E-03     3.49620E-03
            2550            2988     3.52049E-03     3.49620E-03
            2551            2989     3.48304E-03     3.45385E-03
            2534            2989     3.48304E-03     3.45385E-03
            2552            2989     3.48304E-03     3.45385E-03
            2533            2989     3.48304E-03     3.45385E-03
            2534            2990     3.38824E-03     3.35437E-03
            2535            2990     3.38824E-03     3.35437E-03
            2552            2990     3.38824E-03     3.35437E-03
            2553            2990     3.38824E-03     3.35437E-03
            2553            2991     3.26604E-03     3.23348E-03
            2554            2991     3.26604E-03     3.23348E-03
            2535            2991     3.26604E-03     3.23348E-03
            2536            2991     3.26604E-03     3.23348E-03
            2537            2992     3.15217E-03     3.12165E-03
            2555            2992     3.15217E-03     3.12165E-03
            2536            2992     3.15217E-03     3.12165E-03
            2554            2992     3.15217E-03     3.12165E-03
            2556            2993     3.04922E-03     3.02060E-03
            2538            2993     3.04922E-03     3.02060E-03
            2537            2993     3.04922E-03     3.02060E-03
            2555            2993     3.04922E-03     3.02060E-03
            2556            2994     2.95857E-03     2.93227E-03
            2539            2994     2.95857E-03     2.93227E-03
            2538            2994     2.95857E-03     2.93227E-03
            2557            2994     2.95857E-03     2.93227E-03
            2558            2995     2.87911E-03     2.85526E-03
            2557            2995     2.87911E-03     2.85526E-03
            2539            2995     2.87911E-03     2.85526E-03
            2540            2995     2.87911E-03     2.85526E-03
            2558            2996     2.80913E-03     2.78910E-03
            2559            2996     2.80913E-03     2.78910E-03
            2541            2996     2.80913E-03     2.78910E-03
            2540            2996     2.80913E-03     2.78910E-03
            2559            2997     2.74910E-03     2.73289E-03
            2542            2997     2.74910E-03     2.73289E-03
            2560            2997     2.74910E-03     2.73289E-03
            2541            2997     2.74910E-03     2.73289E-03
            2543            2998     2.69824E-03     2.68765E-03
            2560            2998     2.69824E-03     2.68765E-03
            2561            2998     2.69824E-03     2.68765E-03
            2542            2998     2.69824E-03     2.68765E-03
            2543            2999     2.67059E-03     2.64346E-03
            2544            2999     2.67059E-03     2.64346E-03
            2562            2999     2.67059E-03     2.64346E-03
            2561            2999     2.67059E-03     2.64346E-03
            2544            3000     2.67795E-03     2.56752E-03
            2563            3000     2.67795E-03     2.56752E-03
            2545            3000     2.67795E-03     2.56752E-03
            2562            3000     2.67795E-03     2.56752E-03
            2546            3001     2.69419E-03     2.47335E-03
            2564            3001     2.69419E-03     2.47335E-03
            2545            3001     2.69419E-03     2.47335E-03
            2563            3001     2.69419E-03     2.47335E-03
            2547            3002     3.83199E-03     3.94861E-03
            2566            3002     3.83199E-03     3.94861E-03
            2548            3002     3.83199E-03     3.94861E-03
            2565            3002     3.83199E-03     3.94861E-03
            2567            3003     3.41645E-03     3.55812E-03
            2566            3003     3.41645E-03     3.55812E-03
            2548            3003     3.41645E-03     3.55812E-03
            2549            3003     3.41645E-03     3.55812E-03
            2567            3004     3.46301E-03     3.63165E-03
            2550            3004     3.46301E-03     3.63165E-03
            2568            3004     3.46301E-03     3.63165E-03
            2549            3004     3.46301E-03     3.63165E-03
            2568            3005     3.46997E-03     3.61605E-03
            2551            3005     3.46997E-03     3.61605E-03
            2550            3005     3.46997E-03     3.61605E-03
            2569            3005     3.46997E-03     3.61605E-03
            2570            3006     3.39589E-03     3.52424E-03
            2552            3006     3.39589E-03     3.52424E-03
            2551            3006     3.39589E-03     3.52424E-03
            2569            3006     3.39589E-03     3.52424E-03
            2570            3007     3.27642E-03     3.39322E-03
            2552            3007     3.27642E-03     3.39322E-03
            2571            3007     3.27642E-03     3.39322E-03
            2553            3007     3.27642E-03     3.39322E-03
            2572            3008     3.14983E-03     3.26102E-03
            2554            3008     3.14983E-03     3.26102E-03
            2571            3008     3.14983E-03     3.26102E-03
            2553            3008     3.14983E-03     3.26102E-03
            2554            3009     3.03213E-03     3.13754E-03
            2572            3009     3.03213E-03     3.13754E-03
            2555            3009     3.03213E-03     3.13754E-03
            2573            3009     3.03213E-03     3.13754E-03
            2556            3010     2.92563E-03     3.02575E-03
            2574            3010     2.92563E-03     3.02575E-03
            2555            3010     2.92563E-03     3.02575E-03
            2573            3010     2.92563E-03     3.02575E-03
            2556            3011     2.83188E-03     2.92618E-03
            2557            3011     2.83188E-03     2.92618E-03
            2574            3011     2.83188E-03     2.92618E-03
            2575            3011     2.83188E-03     2.92618E-03
            2575            3012     2.74864E-03     2.83665E-03
            2557            3012     2.74864E-03     2.83665E-03
            2576            3012     2.74864E-03     2.83665E-03
            2558            3012     2.74864E-03     2.83665E-03
            2577            3013     2.67635E-03     2.75784E-03
            2558            3013     2.67635E-03     2.75784E-03
            2559            3013     2.67635E-03     2.75784E-03
            2576            3013     2.67635E-03     2.75784E-03
            2560            3014     2.61417E-03     2.68701E-03
            2578            3014     2.61417E-03     2.68701E-03
            2559            3014     2.61417E-03     2.68701E-03
            2577            3014     2.61417E-03     2.68701E-03
            2561            3015     2.56372E-03     2.62671E-03
            2560            3015     2.56372E-03     2.62671E-03
            2579            3015     2.56372E-03     2.62671E-03
            2578            3015     2.56372E-03     2.62671E-03
            2579            3016     2.54426E-03     2.55722E-03
            2580            3016     2.54426E-03     2.55722E-03
            2562            3016     2.54426E-03     2.55722E-03
            2561            3016     2.54426E-03     2.55722E-03
            2581            3017     2.56126E-03     2.45282E-03
            2580            3017     2.56126E-03     2.45282E-03
            2563            3017     2.56126E-03     2.45282E-03
            2562            3017     2.56126E-03     2.45282E-03
            2582            3018     2.57207E-03     2.35961E-03
            2563            3018     2.57207E-03     2.35961E-03
            2581            3018     2.57207E-03     2.35961E-03
            2564            3018     2.57207E-03     2.35961E-03
            2583            3019     5.11158E-03     5.12090E-03
            2565            3019     5.11158E-03     5.12090E-03
            2566            3019     5.11158E-03     5.12090E-03
            2584            3019     5.11158E-03     5.12090E-03
            2584            3020     4.04203E-03     4.24503E-03
            2567            3020     4.04203E-03     4.24503E-03
            2566            3020     4.04203E-03     4.24503E-03
            2585            3020     4.04203E-03     4.24503E-03
            2585            3021     3.49657E-03     3.79454E-03
            2586            3021     3.49657E-03     3.79454E-03
            2568            3021     3.49657E-03     3.79454E-03
            2567            3021     3.49657E-03     3.79454E-03
            2569            3022     3.30993E-03     3.61888E-03
            2568            3022     3.30993E-03     3.61888E-03
            2587            3022     3.30993E-03     3.61888E-03
            2586            3022     3.30993E-03     3.61888E-03
            2569            3023     3.20949E-03     3.49115E-03
            2570            3023     3.20949E-03     3.49115E-03
            2588            3023     3.20949E-03     3.49115E-03
            2587            3023     3.20949E-03     3.49115E-03
            2571            3024     3.09480E-03     3.36240E-03
            2588            3024     3.09480E-03     3.36240E-03
            2570            3024     3.09480E-03     3.36240E-03
            2589            3024     3.09480E-03     3.36240E-03
            2571            3025     2.98876E-03     3.24367E-03
            2590            3025     2.98876E-03     3.24367E-03
            2572            3025     2.98876E-03     3.24367E-03
            2589            3025     2.98876E-03     3.24367E-03
            2591            3026     2.88331E-03     3.12646E-03
            2572            3026     2.88331E-03     3.12646E-03
            2590            3026     2.88331E-03     3.12646E-03
            2573            3026     2.88331E-03     3.12646E-03
            2573            3027     2.78564E-03     3.01760E-03
            2592            3027     2.78564E-03     3.01760E-03
            2574            3027     2.78564E-03     3.01760E-03
            2591            3027     2.78564E-03     3.01760E-03
            2574            3028     2.69504E-03     2.91353E-03
            2593            3028     2.69504E-03     2.91353E-03
            2592            3028     2.69504E-03     2.91353E-03
            2575            3028     2.69504E-03     2.91353E-03
            2576            3029     2.61344E-03     2.81755E-03
            2575            3029     2.61344E-03     2.81755E-03
            2594            3029     2.61344E-03     2.81755E-03
            2593            3029     2.61344E-03     2.81755E-03
            2576            3030     2.54039E-03     2.72693E-03
            2594            3030     2.54039E-03     2.72693E-03
            2595            3030     2.54039E-03     2.72693E-03
            2577            3030     2.54039E-03     2.72693E-03
            2596            3031     2.47708E-03     2.64512E-03
            2577            3031     2.47708E-03     2.64512E-03
            2578            3031     2.47708E-03     2.64512E-03
            2595            3031     2.47708E-03     2.64512E-03
            2597            3032     2.42694E-03     2.56474E-03
            2596            3032     2.42694E-03     2.56474E-03
            2579            3032     2.42694E-03     2.56474E-03
            2578            3032     2.42694E-03     2.56474E-03
            2580            3033     2.38102E-03     2.49463E-03
            2579            3033     2.38102E-03     2.49463E-03
            2597            3033     2.38102E-03     2.49463E-03
            2598            3033     2.38102E-03     2.49463E-03
            2599            3034     2.36656E-03     2.42878E-03
            2598            3034     2.36656E-03     2.42878E-03
            2580            3034     2.36656E-03     2.42878E-03
            2581            3034     2.36656E-03     2.42878E-03
            2581            3035     2.41814E-03     2.30428E-03
            2599            3035     2.41814E-03     2.30428E-03
            2582            3035     2.41814E-03     2.30428E-03
            2600            3035     2.41814E-03     2.30428E-03
            2584            3036     5.90438E-03     6.37134E-03
            2601            3036     5.90438E-03     6.37134E-03
            2602            3036     5.90438E-03     6.37134E-03
            2583            3036     5.90438E-03     6.37134E-03
            2602            3037     4.06457E-03     4.59790E-03
            2603            3037     4.06457E-03     4.59790E-03
            2584            3037     4.06457E-03     4.59790E-03
            2585            3037     4.06457E-03     4.59790E-03
            2585            3038     3.35042E-03     3.86253E-03
            2603            3038     3.35042E-03     3.86253E-03
            2586            3038     3.35042E-03     3.86253E-03
            2604            3038     3.35042E-03     3.86253E-03
            2587            3039     3.11238E-03     3.58492E-03
            2604            3039     3.11238E-03     3.58492E-03
            2605            3039     3.11238E-03     3.58492E-03
            2586            3039     3.11238E-03     3.58492E-03
            2605            3040     2.97786E-03     3.42507E-03
            2587            3040     2.97786E-03     3.42507E-03
            2588            3040     2.97786E-03     3.42507E-03
            2606            3040     2.97786E-03     3.42507E-03
            2607            3041     2.89647E-03     3.31928E-03
            2606            3041     2.89647E-03     3.31928E-03
            2589            3041     2.89647E-03     3.31928E-03
            2588            3041     2.89647E-03     3.31928E-03
            2589            3042     2.80950E-03     3.21244E-03
            2590            3042     2.80950E-03     3.21244E-03
            2608            3042     2.80950E-03     3.21244E-03
            2607            3042     2.80950E-03     3.21244E-03
            2608            3043     2.72362E-03     3.10983E-03
            2609            3043     2.72362E-03     3.10983E-03
            2590            3043     2.72362E-03     3.10983E-03
            2591            3043     2.72362E-03     3.10983E-03
            2609            3044     2.63665E-03     3.00337E-03
            2591            3044     2.63665E-03     3.00337E-03
            2592            3044     2.63665E-03     3.00337E-03
            2610            3044     2.63665E-03     3.00337E-03
            2593            3045     2.55238E-03     2.89991E-03
            2610            3045     2.55238E-03     2.89991E-03
            2592            3045     2.55238E-03     2.89991E-03
            2611            3045     2.55238E-03     2.89991E-03
            2594            3046     2.47400E-03     2.79746E-03
            2611            3046     2.47400E-03     2.79746E-03
            2593            3046     2.47400E-03     2.79746E-03
            2612            3046     2.47400E-03     2.79746E-03
            2595            3047     2.40269E-03     2.69998E-03
            2613            3047     2.40269E-03     2.69998E-03
            2612            3047     2.40269E-03     2.69998E-03
            2594            3047     2.40269E-03     2.69998E-03
            2595            3048     2.33945E-03     2.60472E-03
            2613            3048     2.33945E-03     2.60472E-03
            2614            3048     2.33945E-03     2.60472E-03
            2596            3048     2.33945E-03     2.60472E-03
            2597            3049     2.28407E-03     2.51447E-03
            2596            3049     2.28407E-03     2.51447E-03
            2614            3049     2.28407E-03     2.51447E-03
            2615            3049     2.28407E-03     2.51447E-03
            2598            3050     2.22978E-03     2.43209E-03
            2597            3050     2.22978E-03     2.43209E-03
            2615            3050     2.22978E-03     2.43209E-03
            2616            3050     2.22978E-03     2.43209E-03
            2598            3051     2.16486E-03     2.37581E-03
            2617            3051     2.16486E-03     2.37581E-03
            2616            3051     2.16486E-03     2.37581E-03
            2599            3051     2.16486E-03     2.37581E-03
            2617            3052     2.11233E-03     2.33965E-03
            2618            3052     2.11233E-03     2.33965E-03
            2600            3052     2.11233E-03     2.33965E-03
            2599            3052     2.11233E-03     2.33965E-03
            2620            3053     6.16255E-03     6.27826E-03
            2619            3053     6.16255E-03     6.27826E-03
            2601            3053     6.16255E-03     6.27826E-03
            2602            3053     6.16255E-03     6.27826E-03
            2621            3054     5.83395E-03     5.74955E-03
            2603            3054     5.83395E-03     5.74955E-03
            2620            3054     5.83395E-03     5.74955E-03
            2602            3054     5.83395E-03     5.74955E-03
            2621            3055     5.82389E-03     5.74078E-03
            2603            3055     5.82389E-03     5.74078E-03
            2604            3055     5.82389E-03     5.74078E-03
            2622            3055     5.82389E-03     5.74078E-03
            2605            3056     5.82892E-03     5.77820E-03
            2604            3056     5.82892E-03     5.77820E-03
            2622            3056     5.82892E-03     5.77820E-03
            2623            3056     5.82892E-03     5.77820E-03
            2605            3057     5.79140E-03     5.76729E-03
            2606            3057     5.79140E-03     5.76729E-03
            2624            3057     5.79140E-03     5.76729E-03
            2623            3057     5.79140E-03     5.76729E-03
            2607            3058     5.71129E-03     5.70721E-03
            2624            3058     5.71129E-03     5.70721E-03
            2606            3058     5.71129E-03     5.70721E-03
            2625            3058     5.71129E-03     5.70721E-03
            2608            3059     5.57254E-03     5.58326E-03
            2625            3059     5.57254E-03     5.58326E-03
            2626            3059     5.57254E-03     5.58326E-03
            2607            3059     5.57254E-03     5.58326E-03
            2627            3060     5.39885E-03     5.42002E-03
            2609            3060     5.39885E-03     5.42002E-03
            2626            3060     5.39885E-03     5.42002E-03
            2608            3060     5.39885E-03     5.42002E-03
            2610            3061     5.19672E-03     5.22427E-03
            2627            3061     5.19672E-03     5.22427E-03
            2628            3061     5.19672E-03     5.22427E-03
            2609            3061     5.19672E-03     5.22427E-03
            2610            3062     4.98253E-03     5.01356E-03
            2628            3062     4.98253E-03     5.01356E-03
            2629            3062     4.98253E-03     5.01356E-03
            2611            3062     4.98253E-03     5.01356E-03
            2611            3063     4.76380E-03     4.79527E-03
            2629            3063     4.76380E-03     4.79527E-03
            2630            3063     4.76380E-03     4.79527E-03
            2612            3063     4.76380E-03     4.79527E-03
            2613            3064     4.55164E-03     4.58190E-03
            2630            3064     4.55164E-03     4.58190E-03
            2631            3064     4.55164E-03     4.58190E-03
            2612            3064     4.55164E-03     4.58190E-03
            2613            3065     4.35022E-03     4.37534E-03
            2614            3065     4.35022E-03     4.37534E-03
            2631            3065     4.35022E-03     4.37534E-03
            2632            3065     4.35022E-03     4.37534E-03
            2633            3066     4.16724E-03     4.19690E-03
            2614            3066     4.16724E-03     4.19690E-03
            2632            3066     4.16724E-03     4.19690E-03
            2615            3066     4.16724E-03     4.19690E-03
            2615            3067     3.99943E-03     4.03341E-03
            2633            3067     3.99943E-03     4.03341E-03
            2634            3067     3.99943E-03     4.03341E-03
            2616            3067     3.99943E-03     4.03341E-03
            2617            3068     3.83795E-03     3.95780E-03
            2634            3068     3.83795E-03     3.95780E-03
            2635            3068     3.83795E-03     3.95780E-03
            2616            3068     3.83795E-03     3.95780E-03
            2635            3069     3.54108E-03     4.03851E-03
            2636            3069     3.54108E-03     4.03851E-03
            2618            3069     3.54108E-03     4.03851E-03
            2617            3069     3.54108E-03     4.03851E-03
            2638            3070     6.84796E-03     6.40031E-03
            2637            3070     6.84796E-03     6.40031E-03
            2619            3070     6.84796E-03     6.40031E-03
            2620            3070     6.84796E-03     6.40031E-03
            2639            3071     8.00348E-03     7.43608E-03
            2620            3071     8.00348E-03     7.43608E-03
            2621            3071     8.00348E-03     7.43608E-03
            2638            3071     8.00348E-03     7.43608E-03
            2621            3072     8.73514E-03     8.16683E-03
            2640            3072     8.73514E-03     8.16683E-03
            2622            3072     8.73514E-03     8.16683E-03
            2639            3072     8.73514E-03     8.16683E-03
            2640            3073     8.98703E-03     8.46894E-03
            2641            3073     8.98703E-03     8.46894E-03
            2622            3073     8.98703E-03     8.46894E-03
            2623            3073     8.98703E-03     8.46894E-03
            2624            3074     9.00155E-03     8.52847E-03
            2641            3074     9.00155E-03     8.52847E-03
            2642            3074     9.00155E-03     8.52847E-03
            2623            3074     9.00155E-03     8.52847E-03
            2642            3075     8.84181E-03     8.41322E-03
            2625            3075     8.84181E-03     8.41322E-03
            2624            3075     8.84181E-03     8.41322E-03
            2643            3075     8.84181E-03     8.41322E-03
            2644            3076     8.57846E-03     8.18706E-03
            2626            3076     8.57846E-03     8.18706E-03
            2625            3076     8.57846E-03     8.18706E-03
            2643            3076     8.57846E-03     8.18706E-03
            2645            3077     8.24327E-03     7.88279E-03
            2626            3077     8.24327E-03     7.88279E-03
            2644            3077     8.24327E-03     7.88279E-03
            2627            3077     8.24327E-03     7.88279E-03
            2645            3078     7.86580E-03     7.53420E-03
            2628            3078     7.86580E-03     7.53420E-03
            2627            3078     7.86580E-03     7.53420E-03
            2646            3078     7.86580E-03     7.53420E-03
            2646            3079     7.46752E-03     7.16049E-03
            2647            3079     7.46752E-03     7.16049E-03
            2629            3079     7.46752E-03     7.16049E-03
            2628            3079     7.46752E-03     7.16049E-03
            2630            3080     7.06292E-03     6.78263E-03
            2648            3080     7.06292E-03     6.78263E-03
            2647            3080     7.06292E-03     6.78263E-03
            2629            3080     7.06292E-03     6.78263E-03
            2631            3081     6.66873E-03     6.41562E-03
            2630            3081     6.66873E-03     6.41562E-03
            2649            3081     6.66873E-03     6.41562E-03
            2648            3081     6.66873E-03     6.41562E-03
            2650            3082     6.29164E-03     6.07650E-03
            2649            3082     6.29164E-03     6.07650E-03
            2632            3082     6.29164E-03     6.07650E-03
            2631            3082     6.29164E-03     6.07650E-03
            2651            3083     5.94516E-03     5.78539E-03
            2650            3083     5.94516E-03     5.78539E-03
            2633            3083     5.94516E-03     5.78539E-03
            2632            3083     5.94516E-03     5.78539E-03
            2651            3084     5.62342E-03     5.56202E-03
            2652            3084     5.62342E-03     5.56202E-03
            2633            3084     5.62342E-03     5.56202E-03
            2634            3084     5.62342E-03     5.56202E-03
            2634            3085     5.30618E-03     5.49137E-03
            2653            3085     5.30618E-03     5.49137E-03
            2635            3085     5.30618E-03     5.49137E-03
            2652            3085     5.30618E-03     5.49137E-03
            2636            3086     5.05089E-03     5.60360E-03
            2635            3086     5.05089E-03     5.60360E-03
            2653            3086     5.05089E-03     5.60360E-03
            2654            3086     5.05089E-03     5.60360E-03
            2638            3087     8.17703E-03     8.17819E-03
            2656            3087     8.17703E-03     8.17819E-03
            2655            3087     8.17703E-03     8.17819E-03
            2637            3087     8.17703E-03     8.17819E-03
            2638            3088     8.66000E-03     8.62942E-03
            2656            3088     8.66000E-03     8.62942E-03
            2639            3088     8.66000E-03     8.62942E-03
            2657            3088     8.66000E-03     8.62942E-03
            2640            3089     9.37118E-03     9.20487E-03
            2658            3089     9.37118E-03     9.20487E-03
            2657            3089     9.37118E-03     9.20487E-03
            2639            3089     9.37118E-03     9.20487E-03
            2659            3090     9.59055E-03     9.35833E-03
            2640            3090     9.59055E-03     9.35833E-03
            2641            3090     9.59055E-03     9.35833E-03
            2658            3090     9.59055E-03     9.35833E-03
            2642            3091     9.51250E-03     9.25976E-03
            2641            3091     9.51250E-03     9.25976E-03
            2659            3091     9.51250E-03     9.25976E-03
            2660            3091     9.51250E-03     9.25976E-03
            2642            3092     9.24581E-03     8.98983E-03
            2661            3092     9.24581E-03     8.98983E-03
            2660            3092     9.24581E-03     8.98983E-03
            2643            3092     9.24581E-03     8.98983E-03
            2644            3093     8.86391E-03     8.61474E-03
            2662            3093     8.86391E-03     8.61474E-03
            2661            3093     8.86391E-03     8.61474E-03
            2643            3093     8.86391E-03     8.61474E-03
            2662            3094     8.41555E-03     8.17835E-03
            2663            3094     8.41555E-03     8.17835E-03
            2644            3094     8.41555E-03     8.17835E-03
            2645            3094     8.41555E-03     8.17835E-03
            2663            3095     7.93466E-03     7.71021E-03
            2664            3095     7.93466E-03     7.71021E-03
            2646            3095     7.93466E-03     7.71021E-03
            2645            3095     7.93466E-03     7.71021E-03
            2665            3096     7.44149E-03     7.23312E-03
            2646            3096     7.44149E-03     7.23312E-03
            2664            3096     7.44149E-03     7.23312E-03
            2647            3096     7.44149E-03     7.23312E-03
            2647            3097     6.95367E-03     6.76484E-03
            2666            3097     6.95367E-03     6.76484E-03
            2665            3097     6.95367E-03     6.76484E-03
            2648            3097     6.95367E-03     6.76484E-03
            2667            3098     6.48183E-03     6.32005E-03
            2666            3098     6.48183E-03     6.32005E-03
            2649            3098     6.48183E-03     6.32005E-03
            2648            3098     6.48183E-03     6.32005E-03
            2668            3099     6.03380E-03     5.91839E-03
            2649            3099     6.03380E-03     5.91839E-03
            2667            3099     6.03380E-03     5.91839E-03
            2650            3099     6.03380E-03     5.91839E-03
            2650            3100     5.61959E-03     5.57504E-03
            2668            3100     5.61959E-03     5.57504E-03
            2669            3100     5.61959E-03     5.57504E-03
            2651            3100     5.61959E-03     5.57504E-03
            2669            3101     5.23021E-03     5.32995E-03
            2670            3101     5.23021E-03     5.32995E-03
            2651            3101     5.23021E-03     5.32995E-03
            2652            3101     5.23021E-03     5.32995E-03
            2652            3102     4.91326E-03     5.20432E-03
            2670            3102     4.91326E-03     5.20432E-03
            2653            3102     4.91326E-03     5.20432E-03
            2671            3102     4.91326E-03     5.20432E-03
            2653            3103     4.83549E-03     5.03725E-03
            2654            3103     4.83549E-03     5.03725E-03
            2671            3103     4.83549E-03     5.03725E-03
            2672            3103     4.83549E-03     5.03725E-03
            2674            3104     9.75329E-03     9.79485E-03
            2655            3104     9.75329E-03     9.79485E-03
            2656            3104     9.75329E-03     9.79485E-03
            2673            3104     9.75329E-03     9.79485E-03
            2675            3105     9.64656E-03     9.81545E-03
            2657            3105     9.64656E-03     9.81545E-03
            2656            3105     9.64656E-03     9.81545E-03
            2674            3105     9.64656E-03     9.81545E-03
            2676            3106     9.96046E-03     10.0650E-03
            2657            3106     9.96046E-03     10.0650E-03
            2658            3106     9.96046E-03     10.0650E-03
            2675            3106     9.96046E-03     10.0650E-03
            2659            3107     10.0834E-03     10.0963E-03
            2677            3107     10.0834E-03     10.0963E-03
            2676            3107     10.0834E-03     10.0963E-03
            2658            3107     10.0834E-03     10.0963E-03
            2659            3108     9.91334E-03     9.86785E-03
            2678            3108     9.91334E-03     9.86785E-03
            2677            3108     9.91334E-03     9.86785E-03
            2660            3108     9.91334E-03     9.86785E-03
            2678            3109     9.55881E-03     9.47855E-03
            2679            3109     9.55881E-03     9.47855E-03
            2660            3109     9.55881E-03     9.47855E-03
            2661            3109     9.55881E-03     9.47855E-03
            2680            3110     9.08327E-03     8.98816E-03
            2662            3110     9.08327E-03     8.98816E-03
            2679            3110     9.08327E-03     8.98816E-03
            2661            3110     9.08327E-03     8.98816E-03
            2663            3111     8.54797E-03     8.44529E-03
            2662            3111     8.54797E-03     8.44529E-03
            2680            3111     8.54797E-03     8.44529E-03
            2681            3111     8.54797E-03     8.44529E-03
            2663            3112     7.98177E-03     7.88051E-03
            2664            3112     7.98177E-03     7.88051E-03
            2681            3112     7.98177E-03     7.88051E-03
            2682            3112     7.98177E-03     7.88051E-03
            2664            3113     7.41244E-03     7.31696E-03
            2665            3113     7.41244E-03     7.31696E-03
            2683            3113     7.41244E-03     7.31696E-03
            2682            3113     7.41244E-03     7.31696E-03
            2684            3114     6.85276E-03     6.76965E-03
            2683            3114     6.85276E-03     6.76965E-03
            2666            3114     6.85276E-03     6.76965E-03
            2665            3114     6.85276E-03     6.76965E-03
            2684            3115     6.31416E-03     6.25502E-03
            2667            3115     6.31416E-03     6.25502E-03
            2666            3115     6.31416E-03     6.25502E-03
            2685            3115     6.31416E-03     6.25502E-03
            2685            3116     5.80812E-03     5.78640E-03
            2667            3116     5.80812E-03     5.78640E-03
            2686            3116     5.80812E-03     5.78640E-03
            2668            3116     5.80812E-03     5.78640E-03
            2668            3117     5.33919E-03     5.38195E-03
            2669            3117     5.33919E-03     5.38195E-03
            2686            3117     5.33919E-03     5.38195E-03
            2687            3117     5.33919E-03     5.38195E-03
            2669            3118     4.93477E-03     5.06229E-03
            2670            3118     4.93477E-03     5.06229E-03
            2688            3118     4.93477E-03     5.06229E-03
            2687            3118     4.93477E-03     5.06229E-03
            2688            3119     4.67090E-03     4.76415E-03
            2670            3119     4.67090E-03     4.76415E-03
            2689            3119     4.67090E-03     4.76415E-03
            2671            3119     4.67090E-03     4.76415E-03
            2690            3120     4.52614E-03     4.46990E-03
            2672            3120     4.52614E-03     4.46990E-03
            2671            3120     4.52614E-03     4.46990E-03
            2689            3120     4.52614E-03     4.46990E-03
            2691            3121     11.1934E-03     11.3013E-03
            2674            3121     11.1934E-03     11.3013E-03
            2673            3121     11.1934E-03     11.3013E-03
            2692            3121     11.1934E-03     11.3013E-03
            2693            3122     10.7698E-03     10.9628E-03
            2674            3122     10.7698E-03     10.9628E-03
            2675            3122     10.7698E-03     10.9628E-03
            2692            3122     10.7698E-03     10.9628E-03
            2694            3123     10.6366E-03     10.8689E-03
            2676            3123     10.6366E-03     10.8689E-03
            2693            3123     10.6366E-03     10.8689E-03
            2675            3123     10.6366E-03     10.8689E-03
            2695            3124     10.5138E-03     10.6936E-03
            2694            3124     10.5138E-03     10.6936E-03
            2676            3124     10.5138E-03     10.6936E-03
            2677            3124     10.5138E-03     10.6936E-03
            2696            3125     10.2179E-03     10.3384E-03
            2678            3125     10.2179E-03     10.3384E-03
            2695            3125     10.2179E-03     10.3384E-03
            2677            3125     10.2179E-03     10.3384E-03
            2678            3126     9.75930E-03     9.84011E-03
            2697            3126     9.75930E-03     9.84011E-03
            2696            3126     9.75930E-03     9.84011E-03
            2679            3126     9.75930E-03     9.84011E-03
            2680            3127     9.20814E-03     9.25782E-03
            2698            3127     9.20814E-03     9.25782E-03
            2697            3127     9.20814E-03     9.25782E-03
            2679            3127     9.20814E-03     9.25782E-03
            2680            3128     8.59822E-03     8.63278E-03
            2699            3128     8.59822E-03     8.63278E-03
            2681            3128     8.59822E-03     8.63278E-03
            2698            3128     8.59822E-03     8.63278E-03
            2700            3129     7.97211E-03     7.99688E-03
            2681            3129     7.97211E-03     7.99688E-03
            2682            3129     7.97211E-03     7.99688E-03
            2699            3129     7.97211E-03     7.99688E-03
            2701            3130     7.34400E-03     7.36682E-03
            2683            3130     7.34400E-03     7.36682E-03
            2700            3130     7.34400E-03     7.36682E-03
            2682            3130     7.34400E-03     7.36682E-03
            2701            3131     6.73153E-03     6.75899E-03
            2702            3131     6.73153E-03     6.75899E-03
            2683            3131     6.73153E-03     6.75899E-03
            2684            3131     6.73153E-03     6.75899E-03
            2702            3132     6.14457E-03     6.18411E-03
            2685            3132     6.14457E-03     6.18411E-03
            2703            3132     6.14457E-03     6.18411E-03
            2684            3132     6.14457E-03     6.18411E-03
            2704            3133     5.59346E-03     5.65390E-03
            2703            3133     5.59346E-03     5.65390E-03
            2686            3133     5.59346E-03     5.65390E-03
            2685            3133     5.59346E-03     5.65390E-03
            2705            3134     5.09516E-03     5.18287E-03
            2687            3134     5.09516E-03     5.18287E-03
            2704            3134     5.09516E-03     5.18287E-03
            2686            3134     5.09516E-03     5.18287E-03
            2706            3135     4.68683E-03     4.75834E-03
            2688            3135     4.68683E-03     4.75834E-03
            2705            3135     4.68683E-03     4.75834E-03
            2687            3135     4.68683E-03     4.75834E-03
            2688            3136     4.38234E-03     4.38050E-03
            2707            3136     4.38234E-03     4.38050E-03
            2689            3136     4.38234E-03     4.38050E-03
            2706            3136     4.38234E-03     4.38050E-03
            2707            3137     4.19867E-03     4.11907E-03
            2689            3137     4.19867E-03     4.11907E-03
            2708            3137     4.19867E-03     4.11907E-03
            2690            3137     4.19867E-03     4.11907E-03
            2709            3138     12.5765E-03     12.7046E-03
            2691            3138     12.5765E-03     12.7046E-03
            2692            3138     12.5765E-03     12.7046E-03
            2710            3138     12.5765E-03     12.7046E-03
            2692            3139     11.8253E-03     12.0681E-03
            2711            3139     11.8253E-03     12.0681E-03
            2693            3139     11.8253E-03     12.0681E-03
            2710            3139     11.8253E-03     12.0681E-03
            2711            3140     11.3605E-03     11.6344E-03
            2694            3140     11.3605E-03     11.6344E-03
            2693            3140     11.3605E-03     11.6344E-03
            2712            3140     11.3605E-03     11.6344E-03
            2695            3141     10.9249E-03     11.2035E-03
            2712            3141     10.9249E-03     11.2035E-03
            2694            3141     10.9249E-03     11.2035E-03
            2713            3141     10.9249E-03     11.2035E-03
            2714            3142     10.4344E-03     10.6835E-03
            2695            3142     10.4344E-03     10.6835E-03
            2696            3142     10.4344E-03     10.6835E-03
            2713            3142     10.4344E-03     10.6835E-03
            2715            3143     9.86221E-03     10.0714E-03
            2697            3143     9.86221E-03     10.0714E-03
            2696            3143     9.86221E-03     10.0714E-03
            2714            3143     9.86221E-03     10.0714E-03
            2698            3144     9.22139E-03     9.40642E-03
            2716            3144     9.22139E-03     9.40642E-03
            2715            3144     9.22139E-03     9.40642E-03
            2697            3144     9.22139E-03     9.40642E-03
            2698            3145     8.55909E-03     8.72157E-03
            2717            3145     8.55909E-03     8.72157E-03
            2716            3145     8.55909E-03     8.72157E-03
            2699            3145     8.55909E-03     8.72157E-03
            2700            3146     7.88457E-03     8.03346E-03
            2699            3146     7.88457E-03     8.03346E-03
            2718            3146     7.88457E-03     8.03346E-03
            2717            3146     7.88457E-03     8.03346E-03
            2700            3147     7.21959E-03     7.35947E-03
            2718            3147     7.21959E-03     7.35947E-03
            2701            3147     7.21959E-03     7.35947E-03
            2719            3147     7.21959E-03     7.35947E-03
            2719            3148     6.57164E-03     6.70740E-03
            2701            3148     6.57164E-03     6.70740E-03
            2702            3148     6.57164E-03     6.70740E-03
            2720            3148     6.57164E-03     6.70740E-03
            2702            3149     5.95261E-03     6.08656E-03
            2703            3149     5.95261E-03     6.08656E-03
            2721            3149     5.95261E-03     6.08656E-03
            2720            3149     5.95261E-03     6.08656E-03
            2704            3150     5.37356E-03     5.50551E-03
            2721            3150     5.37356E-03     5.50551E-03
            2722            3150     5.37356E-03     5.50551E-03
            2703            3150     5.37356E-03     5.50551E-03
            2705            3151     4.85595E-03     4.96773E-03
            2722            3151     4.85595E-03     4.96773E-03
            2704            3151     4.85595E-03     4.96773E-03
            2723            3151     4.85595E-03     4.96773E-03
            2706            3152     4.41911E-03     4.47797E-03
            2705            3152     4.41911E-03     4.47797E-03
            2724            3152     4.41911E-03     4.47797E-03
            2723            3152     4.41911E-03     4.47797E-03
            2724            3153     4.08807E-03     4.06838E-03
            2706            3153     4.08807E-03     4.06838E-03
            2707            3153     4.08807E-03     4.06838E-03
            2725            3153     4.08807E-03     4.06838E-03
            2708            3154     3.88222E-03     3.74395E-03
            2707            3154     3.88222E-03     3.74395E-03
            2726            3154     3.88222E-03     3.74395E-03
            2725            3154     3.88222E-03     3.74395E-03
            2710            3155     13.8783E-03     14.0777E-03
            2727            3155     13.8783E-03     14.0777E-03
            2728            3155     13.8783E-03     14.0777E-03
            2709            3155     13.8783E-03     14.0777E-03
            2729            3156     12.8643E-03     13.1056E-03
            2711            3156     12.8643E-03     13.1056E-03
            2710            3156     12.8643E-03     13.1056E-03
            2728            3156     12.8643E-03     13.1056E-03
            2712            3157     12.0230E-03     12.3463E-03
            2730            3157     12.0230E-03     12.3463E-03
            2711            3157     12.0230E-03     12.3463E-03
            2729            3157     12.0230E-03     12.3463E-03
            2731            3158     11.2885E-03     11.6326E-03
            2713            3158     11.2885E-03     11.6326E-03
            2712            3158     11.2885E-03     11.6326E-03
            2730            3158     11.2885E-03     11.6326E-03
            2731            3159     10.5739E-03     10.9082E-03
            2732            3159     10.5739E-03     10.9082E-03
            2713            3159     10.5739E-03     10.9082E-03
            2714            3159     10.5739E-03     10.9082E-03
            2732            3160     9.85025E-03     10.1742E-03
            2733            3160     9.85025E-03     10.1742E-03
            2714            3160     9.85025E-03     10.1742E-03
            2715            3160     9.85025E-03     10.1742E-03
            2715            3161     9.13844E-03     9.43967E-03
            2734            3161     9.13844E-03     9.43967E-03
            2716            3161     9.13844E-03     9.43967E-03
            2733            3161     9.13844E-03     9.43967E-03
            2716            3162     8.42386E-03     8.70665E-03
            2735            3162     8.42386E-03     8.70665E-03
            2734            3162     8.42386E-03     8.70665E-03
            2717            3162     8.42386E-03     8.70665E-03
            2717            3163     7.72134E-03     7.98828E-03
            2718            3163     7.72134E-03     7.98828E-03
            2735            3163     7.72134E-03     7.98828E-03
            2736            3163     7.72134E-03     7.98828E-03
            2737            3164     7.03253E-03     7.28620E-03
            2736            3164     7.03253E-03     7.28620E-03
            2718            3164     7.03253E-03     7.28620E-03
            2719            3164     7.03253E-03     7.28620E-03
            2738            3165     6.36553E-03     6.60726E-03
            2737            3165     6.36553E-03     6.60726E-03
            2719            3165     6.36553E-03     6.60726E-03
            2720            3165     6.36553E-03     6.60726E-03
            2720            3166     5.72715E-03     5.95545E-03
            2721            3166     5.72715E-03     5.95545E-03
            2739            3166     5.72715E-03     5.95545E-03
            2738            3166     5.72715E-03     5.95545E-03
            2721            3167     5.13155E-03     5.33508E-03
            2740            3167     5.13155E-03     5.33508E-03
            2722            3167     5.13155E-03     5.33508E-03
            2739            3167     5.13155E-03     5.33508E-03
            2740            3168     4.59345E-03     4.74995E-03
            2723            3168     4.59345E-03     4.74995E-03
            2722            3168     4.59345E-03     4.74995E-03
            2741            3168     4.59345E-03     4.74995E-03
            2723            3169     4.13370E-03     4.21989E-03
            2741            3169     4.13370E-03     4.21989E-03
            2742            3169     4.13370E-03     4.21989E-03
            2724            3169     4.13370E-03     4.21989E-03
            2724            3170     3.77945E-03     3.75532E-03
            2742            3170     3.77945E-03     3.75532E-03
            2743            3170     3.77945E-03     3.75532E-03
            2725            3170     3.77945E-03     3.75532E-03
            2744            3171     3.53927E-03     3.40581E-03
            2726            3171     3.53927E-03     3.40581E-03
            2725            3171     3.53927E-03     3.40581E-03
            2743            3171     3.53927E-03     3.40581E-03
            2728            3172     15.2138E-03     15.3969E-03
            2745            3172     15.2138E-03     15.3969E-03
            2746            3172     15.2138E-03     15.3969E-03
            2727            3172     15.2138E-03     15.3969E-03
            2746            3173     13.8032E-03     14.1145E-03
            2747            3173     13.8032E-03     14.1145E-03
            2728            3173     13.8032E-03     14.1145E-03
            2729            3173     13.8032E-03     14.1145E-03
            2748            3174     12.6128E-03     12.9624E-03
            2747            3174     12.6128E-03     12.9624E-03
            2730            3174     12.6128E-03     12.9624E-03
            2729            3174     12.6128E-03     12.9624E-03
            2730            3175     11.5403E-03     11.9264E-03
            2748            3175     11.5403E-03     11.9264E-03
            2749            3175     11.5403E-03     11.9264E-03
            2731            3175     11.5403E-03     11.9264E-03
            2731            3176     10.5779E-03     10.9997E-03
            2750            3176     10.5779E-03     10.9997E-03
            2749            3176     10.5779E-03     10.9997E-03
            2732            3176     10.5779E-03     10.9997E-03
            2751            3177     9.74123E-03     10.1605E-03
            2750            3177     9.74123E-03     10.1605E-03
            2732            3177     9.74123E-03     10.1605E-03
            2733            3177     9.74123E-03     10.1605E-03
            2751            3178     8.95596E-03     9.36411E-03
            2733            3178     8.95596E-03     9.36411E-03
            2752            3178     8.95596E-03     9.36411E-03
            2734            3178     8.95596E-03     9.36411E-03
            2752            3179     8.20961E-03     8.60452E-03
            2753            3179     8.20961E-03     8.60452E-03
            2735            3179     8.20961E-03     8.60452E-03
            2734            3179     8.20961E-03     8.60452E-03
            2753            3180     7.48897E-03     7.86848E-03
            2754            3180     7.48897E-03     7.86848E-03
            2736            3180     7.48897E-03     7.86848E-03
            2735            3180     7.48897E-03     7.86848E-03
            2754            3181     6.78975E-03     7.15530E-03
            2736            3181     6.78975E-03     7.15530E-03
            2755            3181     6.78975E-03     7.15530E-03
            2737            3181     6.78975E-03     7.15530E-03
            2755            3182     6.11375E-03     6.46305E-03
            2738            3182     6.11375E-03     6.46305E-03
            2737            3182     6.11375E-03     6.46305E-03
            2756            3182     6.11375E-03     6.46305E-03
            2756            3183     5.46609E-03     5.79297E-03
            2757            3183     5.46609E-03     5.79297E-03
            2739            3183     5.46609E-03     5.79297E-03
            2738            3183     5.46609E-03     5.79297E-03
            2739            3184     4.85579E-03     5.14797E-03
            2758            3184     4.85579E-03     5.14797E-03
            2757            3184     4.85579E-03     5.14797E-03
            2740            3184     4.85579E-03     5.14797E-03
            2741            3185     4.30107E-03     4.53553E-03
            2758            3185     4.30107E-03     4.53553E-03
            2740            3185     4.30107E-03     4.53553E-03
            2759            3185     4.30107E-03     4.53553E-03
            2742            3186     3.82428E-03     3.96016E-03
            2759            3186     3.82428E-03     3.96016E-03
            2760            3186     3.82428E-03     3.96016E-03
            2741            3186     3.82428E-03     3.96016E-03
            2742            3187     3.43974E-03     3.46027E-03
            2760            3187     3.43974E-03     3.46027E-03
            2743            3187     3.43974E-03     3.46027E-03
            2761            3187     3.43974E-03     3.46027E-03
            2761            3188     3.18280E-03     3.06986E-03
            2744            3188     3.18280E-03     3.06986E-03
            2762            3188     3.18280E-03     3.06986E-03
            2743            3188     3.18280E-03     3.06986E-03
            2746            3189     16.4708E-03     16.8070E-03
            2745            3189     16.4708E-03     16.8070E-03
            2764            3189     16.4708E-03     16.8070E-03
            2763            3189     16.4708E-03     16.8070E-03
            2764            3190     14.7068E-03     14.9878E-03
            2747            3190     14.7068E-03     14.9878E-03
            2746            3190     14.7068E-03     14.9878E-03
            2765            3190     14.7068E-03     14.9878E-03
            2748            3191     12.9976E-03     13.3665E-03
            2747            3191     12.9976E-03     13.3665E-03
            2765            3191     12.9976E-03     13.3665E-03
            2766            3191     12.9976E-03     13.3665E-03
            2749            3192     11.5513E-03     12.0251E-03
            2748            3192     11.5513E-03     12.0251E-03
            2766            3192     11.5513E-03     12.0251E-03
            2767            3192     11.5513E-03     12.0251E-03
            2750            3193     10.4563E-03     10.9611E-03
            2767            3193     10.4563E-03     10.9611E-03
            2749            3193     10.4563E-03     10.9611E-03
            2768            3193     10.4563E-03     10.9611E-03
            2751            3194     9.52642E-03     10.0362E-03
            2750            3194     9.52642E-03     10.0362E-03
            2768            3194     9.52642E-03     10.0362E-03
            2769            3194     9.52642E-03     10.0362E-03
            2769            3195     8.69859E-03     9.20862E-03
            2770            3195     8.69859E-03     9.20862E-03
            2751            3195     8.69859E-03     9.20862E-03
            2752            3195     8.69859E-03     9.20862E-03
            2770            3196     7.93509E-03     8.43501E-03
            2753            3196     7.93509E-03     8.43501E-03
            2771            3196     7.93509E-03     8.43501E-03
            2752            3196     7.93509E-03     8.43501E-03
            2754            3197     7.20614E-03     7.69714E-03
            2771            3197     7.20614E-03     7.69714E-03
            2772            3197     7.20614E-03     7.69714E-03
            2753            3197     7.20614E-03     7.69714E-03
            2772            3198     6.50563E-03     6.98344E-03
            2755            3198     6.50563E-03     6.98344E-03
            2754            3198     6.50563E-03     6.98344E-03
            2773            3198     6.50563E-03     6.98344E-03
            2755            3199     5.82634E-03     6.28805E-03
            2773            3199     5.82634E-03     6.28805E-03
            2756            3199     5.82634E-03     6.28805E-03
            2774            3199     5.82634E-03     6.28805E-03
            2756            3200     5.17246E-03     5.61029E-03
            2774            3200     5.17246E-03     5.61029E-03
            2757            3200     5.17246E-03     5.61029E-03
            2775            3200     5.17246E-03     5.61029E-03
            2775            3201     4.55113E-03     4.95178E-03
            2776            3201     4.55113E-03     4.95178E-03
            2758            3201     4.55113E-03     4.95178E-03
            2757            3201     4.55113E-03     4.95178E-03
            2759            3202     3.97552E-03     4.31860E-03
            2777            3202     3.97552E-03     4.31860E-03
            2776            3202     3.97552E-03     4.31860E-03
            2758            3202     3.97552E-03     4.31860E-03
            2760            3203     3.47217E-03     3.72154E-03
            2777            3203     3.47217E-03     3.72154E-03
            2778            3203     3.47217E-03     3.72154E-03
            2759            3203     3.47217E-03     3.72154E-03
            2779            3204     3.07823E-03     3.16965E-03
            2760            3204     3.07823E-03     3.16965E-03
            2778            3204     3.07823E-03     3.16965E-03
            2761            3204     3.07823E-03     3.16965E-03
            2779            3205     2.79387E-03     2.72384E-03
            2762            3205     2.79387E-03     2.72384E-03
            2761            3205     2.79387E-03     2.72384E-03
            2780            3205     2.79387E-03     2.72384E-03
            2763            3206     17.8742E-03     17.9477E-03
            2764            3206     17.8742E-03     17.9477E-03
            2782            3206     17.8742E-03     17.9477E-03
            2781            3206     17.8742E-03     17.9477E-03
            2765            3207     15.2115E-03     15.5361E-03
            2764            3207     15.2115E-03     15.5361E-03
            2783            3207     15.2115E-03     15.5361E-03
            2782            3207     15.2115E-03     15.5361E-03
            2783            3208     12.9052E-03     13.4257E-03
            2784            3208     12.9052E-03     13.4257E-03
            2765            3208     12.9052E-03     13.4257E-03
            2766            3208     12.9052E-03     13.4257E-03
            2766            3209     11.3765E-03     11.9509E-03
            2785            3209     11.3765E-03     11.9509E-03
            2767            3209     11.3765E-03     11.9509E-03
            2784            3209     11.3765E-03     11.9509E-03
            2786            3210     10.2104E-03     10.7979E-03
            2785            3210     10.2104E-03     10.7979E-03
            2768            3210     10.2104E-03     10.7979E-03
            2767            3210     10.2104E-03     10.7979E-03
            2768            3211     9.23987E-03     9.84246E-03
            2786            3211     9.23987E-03     9.84246E-03
            2769            3211     9.23987E-03     9.84246E-03
            2787            3211     9.23987E-03     9.84246E-03
            2770            3212     8.40136E-03     9.00515E-03
            2769            3212     8.40136E-03     9.00515E-03
            2788            3212     8.40136E-03     9.00515E-03
            2787            3212     8.40136E-03     9.00515E-03
            2771            3213     7.62752E-03     8.23324E-03
            2789            3213     7.62752E-03     8.23324E-03
            2788            3213     7.62752E-03     8.23324E-03
            2770            3213     7.62752E-03     8.23324E-03
            2789            3214     6.90088E-03     7.50290E-03
            2771            3214     6.90088E-03     7.50290E-03
            2790            3214     6.90088E-03     7.50290E-03
            2772            3214     6.90088E-03     7.50290E-03
            2791            3215     6.19887E-03     6.79432E-03
            2773            3215     6.19887E-03     6.79432E-03
            2772            3215     6.19887E-03     6.79432E-03
            2790            3215     6.19887E-03     6.79432E-03
            2774            3216     5.51941E-03     6.10218E-03
            2773            3216     5.51941E-03     6.10218E-03
            2792            3216     5.51941E-03     6.10218E-03
            2791            3216     5.51941E-03     6.10218E-03
            2774            3217     4.85912E-03     5.42160E-03
            2792            3217     4.85912E-03     5.42160E-03
            2775            3217     4.85912E-03     5.42160E-03
            2793            3217     4.85912E-03     5.42160E-03
            2776            3218     4.22497E-03     4.75503E-03
            2793            3218     4.22497E-03     4.75503E-03
            2794            3218     4.22497E-03     4.75503E-03
            2775            3218     4.22497E-03     4.75503E-03
            2776            3219     3.62700E-03     4.10698E-03
            2777            3219     3.62700E-03     4.10698E-03
            2794            3219     3.62700E-03     4.10698E-03
            2795            3219     3.62700E-03     4.10698E-03
            2778            3220     3.08381E-03     3.49273E-03
            2795            3220     3.08381E-03     3.49273E-03
            2777            3220     3.08381E-03     3.49273E-03
            2796            3220     3.08381E-03     3.49273E-03
            2778            3221     2.64218E-03     2.92110E-03
            2796            3221     2.64218E-03     2.92110E-03
            2797            3221     2.64218E-03     2.92110E-03
            2779            3221     2.64218E-03     2.92110E-03
            2798            3222     2.36719E-03     2.40687E-03
            2779            3222     2.36719E-03     2.40687E-03
            2797            3222     2.36719E-03     2.40687E-03
            2780            3222     2.36719E-03     2.40687E-03
            2799            3223     18.4305E-03     19.0172E-03
            2781            3223     18.4305E-03     19.0172E-03
            2782            3223     18.4305E-03     19.0172E-03
            2800            3223     18.4305E-03     19.0172E-03
            2783            3224     14.7808E-03     15.4986E-03
            2782            3224     14.7808E-03     15.4986E-03
            2800            3224     14.7808E-03     15.4986E-03
            2801            3224     14.7808E-03     15.4986E-03
            2784            3225     12.5673E-03     13.2460E-03
            2802            3225     12.5673E-03     13.2460E-03
            2801            3225     12.5673E-03     13.2460E-03
            2783            3225     12.5673E-03     13.2460E-03
            2785            3226     11.0912E-03     11.7508E-03
            2802            3226     11.0912E-03     11.7508E-03
            2803            3226     11.0912E-03     11.7508E-03
            2784            3226     11.0912E-03     11.7508E-03
            2786            3227     9.90960E-03     10.5790E-03
            2804            3227     9.90960E-03     10.5790E-03
            2803            3227     9.90960E-03     10.5790E-03
            2785            3227     9.90960E-03     10.5790E-03
            2787            3228     8.95089E-03     9.63404E-03
            2786            3228     8.95089E-03     9.63404E-03
            2805            3228     8.95089E-03     9.63404E-03
            2804            3228     8.95089E-03     9.63404E-03
            2806            3229     8.10011E-03     8.79890E-03
            2788            3229     8.10011E-03     8.79890E-03
            2787            3229     8.10011E-03     8.79890E-03
            2805            3229     8.10011E-03     8.79890E-03
            2806            3230     7.32835E-03     8.04000E-03
            2788            3230     7.32835E-03     8.04000E-03
            2789            3230     7.32835E-03     8.04000E-03
            2807            3230     7.32835E-03     8.04000E-03
            2789            3231     6.59646E-03     7.31550E-03
            2807            3231     6.59646E-03     7.31550E-03
            2808            3231     6.59646E-03     7.31550E-03
            2790            3231     6.59646E-03     7.31550E-03
            2808            3232     5.89407E-03     6.61537E-03
            2791            3232     5.89407E-03     6.61537E-03
            2790            3232     5.89407E-03     6.61537E-03
            2809            3232     5.89407E-03     6.61537E-03
            2810            3233     5.20920E-03     5.92512E-03
            2792            3233     5.20920E-03     5.92512E-03
            2809            3233     5.20920E-03     5.92512E-03
            2791            3233     5.20920E-03     5.92512E-03
            2811            3234     4.54200E-03     5.24381E-03
            2793            3234     4.54200E-03     5.24381E-03
            2792            3234     4.54200E-03     5.24381E-03
            2810            3234     4.54200E-03     5.24381E-03
            2812            3235     3.89211E-03     4.56987E-03
            2811            3235     3.89211E-03     4.56987E-03
            2793            3235     3.89211E-03     4.56987E-03
            2794            3235     3.89211E-03     4.56987E-03
            2794            3236     3.26950E-03     3.90875E-03
            2812            3236     3.26950E-03     3.90875E-03
            2813            3236     3.26950E-03     3.90875E-03
            2795            3236     3.26950E-03     3.90875E-03
            2814            3237     2.68526E-03     3.27006E-03
            2813            3237     2.68526E-03     3.27006E-03
            2796            3237     2.68526E-03     3.27006E-03
            2795            3237     2.68526E-03     3.27006E-03
            2796            3238     2.16767E-03     2.68430E-03
            2814            3238     2.16767E-03     2.68430E-03
            2797            3238     2.16767E-03     2.68430E-03
            2815            3238     2.16767E-03     2.68430E-03
            2798            3239     1.79993E-03     2.16042E-03
            2797            3239     1.79993E-03     2.16042E-03
            2815            3239     1.79993E-03     2.16042E-03
            2816            3239     1.79993E-03     2.16042E-03
            2817            3240     18.1500E-03     18.3926E-03
            2818            3240     18.1500E-03     18.3926E-03
            2800            3240     18.1500E-03     18.3926E-03
            2799            3240     18.1500E-03     18.3926E-03
            2800            3241     16.7234E-03     16.6457E-03
            2818            3241     16.7234E-03     16.6457E-03
            2801            3241     16.7234E-03     16.6457E-03
            2819            3241     16.7234E-03     16.6457E-03
            2801            3242     15.7456E-03     15.6563E-03
            2820            3242     15.7456E-03     15.6563E-03
            2802            3242     15.7456E-03     15.6563E-03
            2819            3242     15.7456E-03     15.6563E-03
            2803            3243     14.8181E-03     14.7945E-03
            2802            3243     14.8181E-03     14.7945E-03
            2820            3243     14.8181E-03     14.7945E-03
            2821            3243     14.8181E-03     14.7945E-03
            2804            3244     13.9548E-03     13.9871E-03
            2822            3244     13.9548E-03     13.9871E-03
            2821            3244     13.9548E-03     13.9871E-03
            2803            3244     13.9548E-03     13.9871E-03
            2822            3245     13.0984E-03     13.1980E-03
            2804            3245     13.0984E-03     13.1980E-03
            2805            3245     13.0984E-03     13.1980E-03
            2823            3245     13.0984E-03     13.1980E-03
            2824            3246     12.2503E-03     12.3954E-03
            2823            3246     12.2503E-03     12.3954E-03
            2805            3246     12.2503E-03     12.3954E-03
            2806            3246     12.2503E-03     12.3954E-03
            2825            3247     11.3979E-03     11.5859E-03
            2806            3247     11.3979E-03     11.5859E-03
            2807            3247     11.3979E-03     11.5859E-03
            2824            3247     11.3979E-03     11.5859E-03
            2807            3248     10.5459E-03     10.7609E-03
            2826            3248     10.5459E-03     10.7609E-03
            2808            3248     10.5459E-03     10.7609E-03
            2825            3248     10.5459E-03     10.7609E-03
            2826            3249     9.69582E-03     9.93228E-03
            2808            3249     9.69582E-03     9.93228E-03
            2827            3249     9.69582E-03     9.93228E-03
            2809            3249     9.69582E-03     9.93228E-03
            2810            3250     8.85739E-03     9.10386E-03
            2809            3250     8.85739E-03     9.10386E-03
            2828            3250     8.85739E-03     9.10386E-03
            2827            3250     8.85739E-03     9.10386E-03
            2811            3251     8.03849E-03     8.28962E-03
            2828            3251     8.03849E-03     8.28962E-03
            2810            3251     8.03849E-03     8.28962E-03
            2829            3251     8.03849E-03     8.28962E-03
            2812            3252     7.25464E-03     7.49885E-03
            2811            3252     7.25464E-03     7.49885E-03
            2830            3252     7.25464E-03     7.49885E-03
            2829            3252     7.25464E-03     7.49885E-03
            2813            3253     6.51803E-03     6.75945E-03
            2830            3253     6.51803E-03     6.75945E-03
            2831            3253     6.51803E-03     6.75945E-03
            2812            3253     6.51803E-03     6.75945E-03
            2813            3254     5.84753E-03     6.07961E-03
            2814            3254     5.84753E-03     6.07961E-03
            2831            3254     5.84753E-03     6.07961E-03
            2832            3254     5.84753E-03     6.07961E-03
            2815            3255     5.25563E-03     5.55765E-03
            2833            3255     5.25563E-03     5.55765E-03
            2832            3255     5.25563E-03     5.55765E-03
            2814            3255     5.25563E-03     5.55765E-03
            2834            3256     4.60376E-03     5.32711E-03
            2816            3256     4.60376E-03     5.32711E-03
            2833            3256     4.60376E-03     5.32711E-03
            2815            3256     4.60376E-03     5.32711E-03
            2817            3257     19.0246E-03     18.4264E-03
            2818            3257     19.0246E-03     18.4264E-03
            2836            3257     19.0246E-03     18.4264E-03
            2835            3257     19.0246E-03     18.4264E-03
            2837            3258     19.6691E-03     19.0816E-03
            2818            3258     19.6691E-03     19.0816E-03
            2819            3258     19.6691E-03     19.0816E-03
            2836            3258     19.6691E-03     19.0816E-03
            2838            3259     19.6896E-03     19.1006E-03
            2819            3259     19.6896E-03     19.1006E-03
            2820            3259     19.6896E-03     19.1006E-03
            2837            3259     19.6896E-03     19.1006E-03
            2820            3260     19.2658E-03     18.7355E-03
            2838            3260     19.2658E-03     18.7355E-03
            2839            3260     19.2658E-03     18.7355E-03
            2821            3260     19.2658E-03     18.7355E-03
            2839            3261     18.5953E-03     18.1265E-03
            2840            3261     18.5953E-03     18.1265E-03
            2821            3261     18.5953E-03     18.1265E-03
            2822            3261     18.5953E-03     18.1265E-03
            2822            3262     17.7527E-03     17.3447E-03
            2841            3262     17.7527E-03     17.3447E-03
            2823            3262     17.7527E-03     17.3447E-03
            2840            3262     17.7527E-03     17.3447E-03
            2823            3263     16.8013E-03     16.4454E-03
            2842            3263     16.8013E-03     16.4454E-03
            2841            3263     16.8013E-03     16.4454E-03
            2824            3263     16.8013E-03     16.4454E-03
            2843            3264     15.7793E-03     15.4636E-03
            2824            3264     15.7793E-03     15.4636E-03
            2842            3264     15.7793E-03     15.4636E-03
            2825            3264     15.7793E-03     15.4636E-03
            2843            3265     14.7162E-03     14.4353E-03
            2844            3265     14.7162E-03     14.4353E-03
            2826            3265     14.7162E-03     14.4353E-03
            2825            3265     14.7162E-03     14.4353E-03
            2827            3266     13.6408E-03     13.3834E-03
            2844            3266     13.6408E-03     13.3834E-03
            2845            3266     13.6408E-03     13.3834E-03
            2826            3266     13.6408E-03     13.3834E-03
            2827            3267     12.5707E-03     12.3354E-03
            2846            3267     12.5707E-03     12.3354E-03
            2845            3267     12.5707E-03     12.3354E-03
            2828            3267     12.5707E-03     12.3354E-03
            2846            3268     11.5334E-03     11.3145E-03
            2828            3268     11.5334E-03     11.3145E-03
            2847            3268     11.5334E-03     11.3145E-03
            2829            3268     11.5334E-03     11.3145E-03
            2847            3269     10.5435E-03     10.3502E-03
            2829            3269     10.5435E-03     10.3502E-03
            2848            3269     10.5435E-03     10.3502E-03
            2830            3269     10.5435E-03     10.3502E-03
            2849            3270     9.63180E-03     9.48342E-03
            2831            3270     9.63180E-03     9.48342E-03
            2848            3270     9.63180E-03     9.48342E-03
            2830            3270     9.63180E-03     9.48342E-03
            2849            3271     8.80288E-03     8.76276E-03
            2831            3271     8.80288E-03     8.76276E-03
            2832            3271     8.80288E-03     8.76276E-03
            2850            3271     8.80288E-03     8.76276E-03
            2850            3272     8.04574E-03     8.34269E-03
            2832            3272     8.04574E-03     8.34269E-03
            2851            3272     8.04574E-03     8.34269E-03
            2833            3272     8.04574E-03     8.34269E-03
            2852            3273     7.45617E-03     8.32403E-03
            2833            3273     7.45617E-03     8.32403E-03
            2851            3273     7.45617E-03     8.32403E-03
            2834            3273     7.45617E-03     8.32403E-03
            2836            3274     20.9011E-03     21.0002E-03
            2854            3274     20.9011E-03     21.0002E-03
            2835            3274     20.9011E-03     21.0002E-03
            2853            3274     20.9011E-03     21.0002E-03
            2837            3275     20.9021E-03     21.0008E-03
            2855            3275     20.9021E-03     21.0008E-03
            2854            3275     20.9021E-03     21.0008E-03
            2836            3275     20.9021E-03     21.0008E-03
            2856            3276     20.8110E-03     20.7873E-03
            2838            3276     20.8110E-03     20.7873E-03
            2855            3276     20.8110E-03     20.7873E-03
            2837            3276     20.8110E-03     20.7873E-03
            2856            3277     20.2736E-03     20.1623E-03
            2839            3277     20.2736E-03     20.1623E-03
            2857            3277     20.2736E-03     20.1623E-03
            2838            3277     20.2736E-03     20.1623E-03
            2840            3278     19.4424E-03     19.2962E-03
            2839            3278     19.4424E-03     19.2962E-03
            2858            3278     19.4424E-03     19.2962E-03
            2857            3278     19.4424E-03     19.2962E-03
            2859            3279     18.4254E-03     18.2692E-03
            2840            3279     18.4254E-03     18.2692E-03
            2841            3279     18.4254E-03     18.2692E-03
            2858            3279     18.4254E-03     18.2692E-03
            2860            3280     17.2940E-03     17.1392E-03
            2842            3280     17.2940E-03     17.1392E-03
            2841            3280     17.2940E-03     17.1392E-03
            2859            3280     17.2940E-03     17.1392E-03
            2861            3281     16.0961E-03     15.9518E-03
            2843            3281     16.0961E-03     15.9518E-03
            2860            3281     16.0961E-03     15.9518E-03
            2842            3281     16.0961E-03     15.9518E-03
            2861            3282     14.8705E-03     14.7349E-03
            2843            3282     14.8705E-03     14.7349E-03
            2862            3282     14.8705E-03     14.7349E-03
            2844            3282     14.8705E-03     14.7349E-03
            2863            3283     13.6382E-03     13.5153E-03
            2845            3283     13.6382E-03     13.5153E-03
            2862            3283     13.6382E-03     13.5153E-03
            2844            3283     13.6382E-03     13.5153E-03
            2845            3284     12.4233E-03     12.3140E-03
            2864            3284     12.4233E-03     12.3140E-03
            2846            3284     12.4233E-03     12.3140E-03
            2863            3284     12.4233E-03     12.3140E-03
            2847            3285     11.2410E-03     11.1535E-03
            2865            3285     11.2410E-03     11.1535E-03
            2864            3285     11.2410E-03     11.1535E-03
            2846            3285     11.2410E-03     11.1535E-03
            2866            3286     10.1085E-03     10.0660E-03
            2865            3286     10.1085E-03     10.0660E-03
            2847            3286     10.1085E-03     10.0660E-03
            2848            3286     10.1085E-03     10.0660E-03
            2849            3287     9.04837E-03     9.08848E-03
            2848            3287     9.04837E-03     9.08848E-03
            2867            3287     9.04837E-03     9.08848E-03
            2866            3287     9.04837E-03     9.08848E-03
            2850            3288     8.06518E-03     8.29989E-03
            2849            3288     8.06518E-03     8.29989E-03
            2868            3288     8.06518E-03     8.29989E-03
            2867            3288     8.06518E-03     8.29989E-03
            2869            3289     7.24630E-03     7.78187E-03
            2850            3289     7.24630E-03     7.78187E-03
            2851            3289     7.24630E-03     7.78187E-03
            2868            3289     7.24630E-03     7.78187E-03
            2870            3290     6.89203E-03     7.31805E-03
            2852            3290     6.89203E-03     7.31805E-03
            2851            3290     6.89203E-03     7.31805E-03
            2869            3290     6.89203E-03     7.31805E-03
            2871            3291     22.8618E-03     23.1096E-03
            2853            3291     22.8618E-03     23.1096E-03
            2854            3291     22.8618E-03     23.1096E-03
            2872            3291     22.8618E-03     23.1096E-03
            2873            3292     22.2789E-03     22.6626E-03
            2854            3292     22.2789E-03     22.6626E-03
            2872            3292     22.2789E-03     22.6626E-03
            2855            3292     22.2789E-03     22.6626E-03
            2873            3293     21.8282E-03     22.1467E-03
            2856            3293     21.8282E-03     22.1467E-03
            2855            3293     21.8282E-03     22.1467E-03
            2874            3293     21.8282E-03     22.1467E-03
            2856            3294     21.1153E-03     21.3409E-03
            2857            3294     21.1153E-03     21.3409E-03
            2874            3294     21.1153E-03     21.3409E-03
            2875            3294     21.1153E-03     21.3409E-03
            2875            3295     20.1337E-03     20.2762E-03
            2876            3295     20.1337E-03     20.2762E-03
            2858            3295     20.1337E-03     20.2762E-03
            2857            3295     20.1337E-03     20.2762E-03
            2859            3296     18.9671E-03     19.0569E-03
            2876            3296     18.9671E-03     19.0569E-03
            2858            3296     18.9671E-03     19.0569E-03
            2877            3296     18.9671E-03     19.0569E-03
            2878            3297     17.6872E-03     17.7475E-03
            2860            3297     17.6872E-03     17.7475E-03
            2859            3297     17.6872E-03     17.7475E-03
            2877            3297     17.6872E-03     17.7475E-03
            2861            3298     16.3521E-03     16.3924E-03
            2860            3298     16.3521E-03     16.3924E-03
            2879            3298     16.3521E-03     16.3924E-03
            2878            3298     16.3521E-03     16.3924E-03
            2879            3299     14.9912E-03     15.0248E-03
            2862            3299     14.9912E-03     15.0248E-03
            2880            3299     14.9912E-03     15.0248E-03
            2861            3299     14.9912E-03     15.0248E-03
            2880            3300     13.6345E-03     13.6666E-03
            2862            3300     13.6345E-03     13.6666E-03
            2881            3300     13.6345E-03     13.6666E-03
            2863            3300     13.6345E-03     13.6666E-03
            2863            3301     12.2959E-03     12.3367E-03
            2864            3301     12.2959E-03     12.3367E-03
            2881            3301     12.2959E-03     12.3367E-03
            2882            3301     12.2959E-03     12.3367E-03
            2882            3302     10.9912E-03     11.0557E-03
            2865            3302     10.9912E-03     11.0557E-03
            2864            3302     10.9912E-03     11.0557E-03
            2883            3302     10.9912E-03     11.0557E-03
            2883            3303     9.73814E-03     9.84974E-03
            2865            3303     9.73814E-03     9.84974E-03
            2866            3303     9.73814E-03     9.84974E-03
            2884            3303     9.73814E-03     9.84974E-03
            2866            3304     8.55356E-03     8.75416E-03
            2884            3304     8.55356E-03     8.75416E-03
            2867            3304     8.55356E-03     8.75416E-03
            2885            3304     8.55356E-03     8.75416E-03
            2867            3305     7.48835E-03     7.82924E-03
            2885            3305     7.48835E-03     7.82924E-03
            2868            3305     7.48835E-03     7.82924E-03
            2886            3305     7.48835E-03     7.82924E-03
            2886            3306     6.69600E-03     7.01576E-03
            2887            3306     6.69600E-03     7.01576E-03
            2869            3306     6.69600E-03     7.01576E-03
            2868            3306     6.69600E-03     7.01576E-03
            2870            3307     6.21787E-03     6.29319E-03
            2887            3307     6.21787E-03     6.29319E-03
            2888            3307     6.21787E-03     6.29319E-03
            2869            3307     6.21787E-03     6.29319E-03
            2872            3308     24.6260E-03     24.9087E-03
            2889            3308     24.6260E-03     24.9087E-03
            2890            3308     24.6260E-03     24.9087E-03
            2871            3308     24.6260E-03     24.9087E-03
            2890            3309     23.6808E-03     24.1201E-03
            2873            3309     23.6808E-03     24.1201E-03
            2872            3309     23.6808E-03     24.1201E-03
            2891            3309     23.6808E-03     24.1201E-03
            2892            3310     22.7951E-03     23.2895E-03
            2891            3310     22.7951E-03     23.2895E-03
            2874            3310     22.7951E-03     23.2895E-03
            2873            3310     22.7951E-03     23.2895E-03
            2875            3311     21.8220E-03     22.2567E-03
            2874            3311     21.8220E-03     22.2567E-03
            2893            3311     21.8220E-03     22.2567E-03
            2892            3311     21.8220E-03     22.2567E-03
            2876            3312     20.6523E-03     21.0187E-03
            2894            3312     20.6523E-03     21.0187E-03
            2893            3312     20.6523E-03     21.0187E-03
            2875            3312     20.6523E-03     21.0187E-03
            2877            3313     19.3347E-03     19.6405E-03
            2876            3313     19.3347E-03     19.6405E-03
            2895            3313     19.3347E-03     19.6405E-03
            2894            3313     19.3347E-03     19.6405E-03
            2878            3314     17.9327E-03     18.1887E-03
            2896            3314     17.9327E-03     18.1887E-03
            2877            3314     17.9327E-03     18.1887E-03
            2895            3314     17.9327E-03     18.1887E-03
            2879            3315     16.4828E-03     16.7087E-03
            2897            3315     16.4828E-03     16.7087E-03
            2878            3315     16.4828E-03     16.7087E-03
            2896            3315     16.4828E-03     16.7087E-03
            2879            3316     15.0255E-03     15.2293E-03
            2897            3316     15.0255E-03     15.2293E-03
            2898            3316     15.0255E-03     15.2293E-03
            2880            3316     15.0255E-03     15.2293E-03
            2898            3317     13.5729E-03     13.7678E-03
            2881            3317     13.5729E-03     13.7678E-03
            2880            3317     13.5729E-03     13.7678E-03
            2899            3317     13.5729E-03     13.7678E-03
            2900            3318     12.1433E-03     12.3400E-03
            2881            3318     12.1433E-03     12.3400E-03
            2899            3318     12.1433E-03     12.3400E-03
            2882            3318     12.1433E-03     12.3400E-03
            2901            3319     10.7470E-03     10.9616E-03
            2882            3319     10.7470E-03     10.9616E-03
            2883            3319     10.7470E-03     10.9616E-03
            2900            3319     10.7470E-03     10.9616E-03
            2883            3320     9.40040E-03     9.64945E-03
            2901            3320     9.40040E-03     9.64945E-03
            2902            3320     9.40040E-03     9.64945E-03
            2884            3320     9.40040E-03     9.64945E-03
            2884            3321     8.12987E-03     8.43722E-03
            2885            3321     8.12987E-03     8.43722E-03
            2902            3321     8.12987E-03     8.43722E-03
            2903            3321     8.12987E-03     8.43722E-03
            2903            3322     7.01167E-03     7.32607E-03
            2886            3322     7.01167E-03     7.32607E-03
            2885            3322     7.01167E-03     7.32607E-03
            2904            3322     7.01167E-03     7.32607E-03
            2905            3323     6.11665E-03     6.32935E-03
            2887            3323     6.11665E-03     6.32935E-03
            2886            3323     6.11665E-03     6.32935E-03
            2904            3323     6.11665E-03     6.32935E-03
            2887            3324     5.54096E-03     5.60401E-03
            2888            3324     5.54096E-03     5.60401E-03
            2906            3324     5.54096E-03     5.60401E-03
            2905            3324     5.54096E-03     5.60401E-03
            2908            3325     26.2659E-03     26.5831E-03
            2889            3325     26.2659E-03     26.5831E-03
            2907            3325     26.2659E-03     26.5831E-03
            2890            3325     26.2659E-03     26.5831E-03
            2909            3326     24.9478E-03     25.4367E-03
            2908            3326     24.9478E-03     25.4367E-03
            2891            3326     24.9478E-03     25.4367E-03
            2890            3326     24.9478E-03     25.4367E-03
            2910            3327     23.7128E-03     24.2625E-03
            2891            3327     23.7128E-03     24.2625E-03
            2892            3327     23.7128E-03     24.2625E-03
            2909            3327     23.7128E-03     24.2625E-03
            2910            3328     22.3972E-03     22.9613E-03
            2892            3328     22.3972E-03     22.9613E-03
            2911            3328     22.3972E-03     22.9613E-03
            2893            3328     22.3972E-03     22.9613E-03
            2894            3329     20.9985E-03     21.5248E-03
            2912            3329     20.9985E-03     21.5248E-03
            2911            3329     20.9985E-03     21.5248E-03
            2893            3329     20.9985E-03     21.5248E-03
            2913            3330     19.5242E-03     19.9963E-03
            2895            3330     19.5242E-03     19.9963E-03
            2912            3330     19.5242E-03     19.9963E-03
            2894            3330     19.5242E-03     19.9963E-03
            2913            3331     17.9996E-03     18.4308E-03
            2896            3331     17.9996E-03     18.4308E-03
            2895            3331     17.9996E-03     18.4308E-03
            2914            3331     17.9996E-03     18.4308E-03
            2896            3332     16.4702E-03     16.8629E-03
            2914            3332     16.4702E-03     16.8629E-03
            2897            3332     16.4702E-03     16.8629E-03
            2915            3332     16.4702E-03     16.8629E-03
            2916            3333     14.9397E-03     15.3071E-03
            2898            3333     14.9397E-03     15.3071E-03
            2915            3333     14.9397E-03     15.3071E-03
            2897            3333     14.9397E-03     15.3071E-03
            2917            3334     13.4270E-03     13.7783E-03
            2898            3334     13.4270E-03     13.7783E-03
            2899            3334     13.4270E-03     13.7783E-03
            2916            3334     13.4270E-03     13.7783E-03
            2918            3335     11.9363E-03     12.2831E-03
            2899            3335     11.9363E-03     12.2831E-03
            2900            3335     11.9363E-03     12.2831E-03
            2917            3335     11.9363E-03     12.2831E-03
            2901            3336     10.4792E-03     10.8311E-03
            2900            3336     10.4792E-03     10.8311E-03
            2919            3336     10.4792E-03     10.8311E-03
            2918            3336     10.4792E-03     10.8311E-03
            2902            3337     9.06816E-03     9.43659E-03
            2920            3337     9.06816E-03     9.43659E-03
            2919            3337     9.06816E-03     9.43659E-03
            2901            3337     9.06816E-03     9.43659E-03
            2921            3338     7.73909E-03     8.10906E-03
            2903            3338     7.73909E-03     8.10906E-03
            2902            3338     7.73909E-03     8.10906E-03
            2920            3338     7.73909E-03     8.10906E-03
            2921            3339     6.53806E-03     6.86302E-03
            2904            3339     6.53806E-03     6.86302E-03
            2903            3339     6.53806E-03     6.86302E-03
            2922            3339     6.53806E-03     6.86302E-03
            2922            3340     5.55100E-03     5.77306E-03
            2904            3340     5.55100E-03     5.77306E-03
            2923            3340     5.55100E-03     5.77306E-03
            2905            3340     5.55100E-03     5.77306E-03
            2905            3341     4.89878E-03     4.89358E-03
            2924            3341     4.89878E-03     4.89358E-03
            2923            3341     4.89878E-03     4.89358E-03
            2906            3341     4.89878E-03     4.89358E-03
            2925            3342     27.7870E-03     28.1850E-03
            2907            3342     27.7870E-03     28.1850E-03
            2926            3342     27.7870E-03     28.1850E-03
            2908            3342     27.7870E-03     28.1850E-03
            2908            3343     26.1457E-03     26.6320E-03
            2927            3343     26.1457E-03     26.6320E-03
            2909            3343     26.1457E-03     26.6320E-03
            2926            3343     26.1457E-03     26.6320E-03
            2928            3344     24.4786E-03     25.0864E-03
            2909            3344     24.4786E-03     25.0864E-03
            2910            3344     24.4786E-03     25.0864E-03
            2927            3344     24.4786E-03     25.0864E-03
            2910            3345     22.8229E-03     23.4645E-03
            2929            3345     22.8229E-03     23.4645E-03
            2911            3345     22.8229E-03     23.4645E-03
            2928            3345     22.8229E-03     23.4645E-03
            2911            3346     21.1641E-03     21.7921E-03
            2930            3346     21.1641E-03     21.7921E-03
            2929            3346     21.1641E-03     21.7921E-03
            2912            3346     21.1641E-03     21.7921E-03
            2931            3347     19.5097E-03     20.1203E-03
            2930            3347     19.5097E-03     20.1203E-03
            2912            3347     19.5097E-03     20.1203E-03
            2913            3347     19.5097E-03     20.1203E-03
            2932            3348     17.8977E-03     18.4712E-03
            2913            3348     17.8977E-03     18.4712E-03
            2914            3348     17.8977E-03     18.4712E-03
            2931            3348     17.8977E-03     18.4712E-03
            2914            3349     16.3020E-03     16.8439E-03
            2933            3349     16.3020E-03     16.8439E-03
            2932            3349     16.3020E-03     16.8439E-03
            2915            3349     16.3020E-03     16.8439E-03
            2915            3350     14.7331E-03     15.2492E-03
            2934            3350     14.7331E-03     15.2492E-03
            2933            3350     14.7331E-03     15.2492E-03
            2916            3350     14.7331E-03     15.2492E-03
            2934            3351     13.1855E-03     13.6829E-03
            2917            3351     13.1855E-03     13.6829E-03
            2935            3351     13.1855E-03     13.6829E-03
            2916            3351     13.1855E-03     13.6829E-03
            2935            3352     11.6634E-03     12.1497E-03
            2917            3352     11.6634E-03     12.1497E-03
            2918            3352     11.6634E-03     12.1497E-03
            2936            3352     11.6634E-03     12.1497E-03
            2936            3353     10.1707E-03     10.6514E-03
            2918            3353     10.1707E-03     10.6514E-03
            2937            3353     10.1707E-03     10.6514E-03
            2919            3353     10.1707E-03     10.6514E-03
            2920            3354     8.72212E-03     9.19382E-03
            2937            3354     8.72212E-03     9.19382E-03
            2938            3354     8.72212E-03     9.19382E-03
            2919            3354     8.72212E-03     9.19382E-03
            2939            3355     7.33915E-03     7.78334E-03
            2920            3355     7.33915E-03     7.78334E-03
            2921            3355     7.33915E-03     7.78334E-03
            2938            3355     7.33915E-03     7.78334E-03
            2940            3356     6.06792E-03     6.45092E-03
            2922            3356     6.06792E-03     6.45092E-03
            2939            3356     6.06792E-03     6.45092E-03
            2921            3356     6.06792E-03     6.45092E-03
            2923            3357     4.99157E-03     5.23023E-03
            2940            3357     4.99157E-03     5.23023E-03
            2922            3357     4.99157E-03     5.23023E-03
            2941            3357     4.99157E-03     5.23023E-03
            2924            3358     4.22915E-03     4.25958E-03
            2941            3358     4.22915E-03     4.25958E-03
            2942            3358     4.22915E-03     4.25958E-03
            2923            3358     4.22915E-03     4.25958E-03
            2926            3359     29.3251E-03     29.6866E-03
            2944            3359     29.3251E-03     29.6866E-03
            2943            3359     29.3251E-03     29.6866E-03
            2925            3359     29.3251E-03     29.6866E-03
            2944            3360     27.1769E-03     27.7516E-03
            2926            3360     27.1769E-03     27.7516E-03
            2945            3360     27.1769E-03     27.7516E-03
            2927            3360     27.1769E-03     27.7516E-03
            2927            3361     25.0826E-03     25.7154E-03
            2945            3361     25.0826E-03     25.7154E-03
            2928            3361     25.0826E-03     25.7154E-03
            2946            3361     25.0826E-03     25.7154E-03
            2947            3362     23.0251E-03     23.7033E-03
            2946            3362     23.0251E-03     23.7033E-03
            2928            3362     23.0251E-03     23.7033E-03
            2929            3362     23.0251E-03     23.7033E-03
            2948            3363     21.0799E-03     21.8051E-03
            2947            3363     21.0799E-03     21.8051E-03
            2929            3363     21.0799E-03     21.8051E-03
            2930            3363     21.0799E-03     21.8051E-03
            2931            3364     19.3119E-03     20.0260E-03
            2949            3364     19.3119E-03     20.0260E-03
            2948            3364     19.3119E-03     20.0260E-03
            2930            3364     19.3119E-03     20.0260E-03
            2950            3365     17.6232E-03     18.3171E-03
            2932            3365     17.6232E-03     18.3171E-03
            2949            3365     17.6232E-03     18.3171E-03
            2931            3365     17.6232E-03     18.3171E-03
            2950            3366     15.9988E-03     16.6711E-03
            2951            3366     15.9988E-03     16.6711E-03
            2933            3366     15.9988E-03     16.6711E-03
            2932            3366     15.9988E-03     16.6711E-03
            2933            3367     14.4140E-03     15.0639E-03
            2934            3367     14.4140E-03     15.0639E-03
            2952            3367     14.4140E-03     15.0639E-03
            2951            3367     14.4140E-03     15.0639E-03
            2934            3368     12.8574E-03     13.4914E-03
            2952            3368     12.8574E-03     13.4914E-03
            2935            3368     12.8574E-03     13.4914E-03
            2953            3368     12.8574E-03     13.4914E-03
            2936            3369     11.3259E-03     11.9451E-03
            2953            3369     11.3259E-03     11.9451E-03
            2935            3369     11.3259E-03     11.9451E-03
            2954            3369     11.3259E-03     11.9451E-03
            2936            3370     9.81995E-03     10.4249E-03
            2937            3370     9.81995E-03     10.4249E-03
            2954            3370     9.81995E-03     10.4249E-03
            2955            3370     9.81995E-03     10.4249E-03
            2938            3371     8.34803E-03     8.92906E-03
            2937            3371     8.34803E-03     8.92906E-03
            2956            3371     8.34803E-03     8.92906E-03
            2955            3371     8.34803E-03     8.92906E-03
            2938            3372     6.92755E-03     7.46893E-03
            2957            3372     6.92755E-03     7.46893E-03
            2939            3372     6.92755E-03     7.46893E-03
            2956            3372     6.92755E-03     7.46893E-03
            2958            3373     5.59506E-03     6.05578E-03
            2940            3373     5.59506E-03     6.05578E-03
            2957            3373     5.59506E-03     6.05578E-03
            2939            3373     5.59506E-03     6.05578E-03
            2940            3374     4.42036E-03     4.74328E-03
            2958            3374     4.42036E-03     4.74328E-03
            2959            3374     4.42036E-03     4.74328E-03
            2941            3374     4.42036E-03     4.74328E-03
            2960            3375     3.56234E-03     3.63456E-03
            2941            3375     3.56234E-03     3.63456E-03
            2942            3375     3.56234E-03     3.63456E-03
            2959            3375     3.56234E-03     3.63456E-03
            2943            3376     30.7169E-03     31.2941E-03
            2944            3376     30.7169E-03     31.2941E-03
            2961            3376     30.7169E-03     31.2941E-03
            2962            3376     30.7169E-03     31.2941E-03
            2962            3377     28.1150E-03     28.6263E-03
            2944            3377     28.1150E-03     28.6263E-03
            2963            3377     28.1150E-03     28.6263E-03
            2945            3377     28.1150E-03     28.6263E-03
            2963            3378     25.3518E-03     25.9780E-03
            2945            3378     25.3518E-03     25.9780E-03
            2964            3378     25.3518E-03     25.9780E-03
            2946            3378     25.3518E-03     25.9780E-03
            2964            3379     22.8384E-03     23.6047E-03
            2965            3379     22.8384E-03     23.6047E-03
            2946            3379     22.8384E-03     23.6047E-03
            2947            3379     22.8384E-03     23.6047E-03
            2965            3380     20.7769E-03     21.5735E-03
            2947            3380     20.7769E-03     21.5735E-03
            2948            3380     20.7769E-03     21.5735E-03
            2966            3380     20.7769E-03     21.5735E-03
            2948            3381     18.9249E-03     19.7245E-03
            2966            3381     18.9249E-03     19.7245E-03
            2949            3381     18.9249E-03     19.7245E-03
            2967            3381     18.9249E-03     19.7245E-03
            2950            3382     17.2133E-03     18.0109E-03
            2967            3382     17.2133E-03     18.0109E-03
            2968            3382     17.2133E-03     18.0109E-03
            2949            3382     17.2133E-03     18.0109E-03
            2968            3383     15.5881E-03     16.3723E-03
            2951            3383     15.5881E-03     16.3723E-03
            2969            3383     15.5881E-03     16.3723E-03
            2950            3383     15.5881E-03     16.3723E-03
            2951            3384     14.0089E-03     14.7851E-03
            2969            3384     14.0089E-03     14.7851E-03
            2952            3384     14.0089E-03     14.7851E-03
            2970            3384     14.0089E-03     14.7851E-03
            2970            3385     12.4638E-03     13.2281E-03
            2971            3385     12.4638E-03     13.2281E-03
            2952            3385     12.4638E-03     13.2281E-03
            2953            3385     12.4638E-03     13.2281E-03
            2972            3386     10.9388E-03     11.6921E-03
            2971            3386     10.9388E-03     11.6921E-03
            2953            3386     10.9388E-03     11.6921E-03
            2954            3386     10.9388E-03     11.6921E-03
            2955            3387     9.43491E-03     10.1701E-03
            2972            3387     9.43491E-03     10.1701E-03
            2973            3387     9.43491E-03     10.1701E-03
            2954            3387     9.43491E-03     10.1701E-03
            2974            3388     7.95356E-03     8.66232E-03
            2955            3388     7.95356E-03     8.66232E-03
            2973            3388     7.95356E-03     8.66232E-03
            2956            3388     7.95356E-03     8.66232E-03
            2975            3389     6.50889E-03     7.16729E-03
            2974            3389     6.50889E-03     7.16729E-03
            2957            3389     6.50889E-03     7.16729E-03
            2956            3389     6.50889E-03     7.16729E-03
            2976            3390     5.12301E-03     5.70223E-03
            2958            3390     5.12301E-03     5.70223E-03
            2975            3390     5.12301E-03     5.70223E-03
            2957            3390     5.12301E-03     5.70223E-03
            2959            3391     3.85709E-03     4.29975E-03
            2976            3391     3.85709E-03     4.29975E-03
            2958            3391     3.85709E-03     4.29975E-03
            2977            3391     3.85709E-03     4.29975E-03
            2978            3392     2.86406E-03     3.05231E-03
            2959            3392     2.86406E-03     3.05231E-03
            2960            3392     2.86406E-03     3.05231E-03
            2977            3392     2.86406E-03     3.05231E-03
            2961            3393     32.2708E-03     32.4174E-03
            2962            3393     32.2708E-03     32.4174E-03
            2979            3393     32.2708E-03     32.4174E-03
            2980            3393     32.2708E-03     32.4174E-03
            2962            3394     28.4632E-03     28.9665E-03
            2980            3394     28.4632E-03     28.9665E-03
            2981            3394     28.4632E-03     28.9665E-03
            2963            3394     28.4632E-03     28.9665E-03
            2981            3395     24.9188E-03     25.6882E-03
            2982            3395     24.9188E-03     25.6882E-03
            2964            3395     24.9188E-03     25.6882E-03
            2963            3395     24.9188E-03     25.6882E-03
            2964            3396     22.3666E-03     23.1990E-03
            2982            3396     22.3666E-03     23.1990E-03
            2983            3396     22.3666E-03     23.1990E-03
            2965            3396     22.3666E-03     23.1990E-03
            2983            3397     20.2647E-03     21.1135E-03
            2984            3397     20.2647E-03     21.1135E-03
            2966            3397     20.2647E-03     21.1135E-03
            2965            3397     20.2647E-03     21.1135E-03
            2966            3398     18.4093E-03     19.2822E-03
            2984            3398     18.4093E-03     19.2822E-03
            2985            3398     18.4093E-03     19.2822E-03
            2967            3398     18.4093E-03     19.2822E-03
            2967            3399     16.7203E-03     17.6005E-03
            2985            3399     16.7203E-03     17.6005E-03
            2986            3399     16.7203E-03     17.6005E-03
            2968            3399     16.7203E-03     17.6005E-03
            2986            3400     15.1108E-03     16.0031E-03
            2987            3400     15.1108E-03     16.0031E-03
            2969            3400     15.1108E-03     16.0031E-03
            2968            3400     15.1108E-03     16.0031E-03
            2969            3401     13.5593E-03     14.4558E-03
            2970            3401     13.5593E-03     14.4558E-03
            2988            3401     13.5593E-03     14.4558E-03
            2987            3401     13.5593E-03     14.4558E-03
            2970            3402     12.0335E-03     12.9328E-03
            2988            3402     12.0335E-03     12.9328E-03
            2971            3402     12.0335E-03     12.9328E-03
            2989            3402     12.0335E-03     12.9328E-03
            2971            3403     10.5290E-03     11.4233E-03
            2990            3403     10.5290E-03     11.4233E-03
            2989            3403     10.5290E-03     11.4233E-03
            2972            3403     10.5290E-03     11.4233E-03
            2973            3404     9.03613E-03     9.91833E-03
            2972            3404     9.03613E-03     9.91833E-03
            2990            3404     9.03613E-03     9.91833E-03
            2991            3404     9.03613E-03     9.91833E-03
            2992            3405     7.55908E-03     8.41399E-03
            2974            3405     7.55908E-03     8.41399E-03
            2973            3405     7.55908E-03     8.41399E-03
            2991            3405     7.55908E-03     8.41399E-03
            2974            3406     6.09981E-03     6.91115E-03
            2992            3406     6.09981E-03     6.91115E-03
            2975            3406     6.09981E-03     6.91115E-03
            2993            3406     6.09981E-03     6.91115E-03
            2975            3407     4.67760E-03     5.40966E-03
            2994            3407     4.67760E-03     5.40966E-03
            2993            3407     4.67760E-03     5.40966E-03
            2976            3407     4.67760E-03     5.40966E-03
            2976            3408     3.32546E-03     3.92903E-03
            2995            3408     3.32546E-03     3.92903E-03
            2994            3408     3.32546E-03     3.92903E-03
            2977            3408     3.32546E-03     3.92903E-03
            2996            3409     2.16872E-03     2.54416E-03
            2978            3409     2.16872E-03     2.54416E-03
            2995            3409     2.16872E-03     2.54416E-03
            2977            3409     2.16872E-03     2.54416E-03
            2979            3410     32.6166E-03     33.2952E-03
            2998            3410     32.6166E-03     33.2952E-03
            2997            3410     32.6166E-03     33.2952E-03
            2980            3410     32.6166E-03     33.2952E-03
            2999            3411     27.4882E-03     28.3796E-03
            2998            3411     27.4882E-03     28.3796E-03
            2981            3411     27.4882E-03     28.3796E-03
            2980            3411     27.4882E-03     28.3796E-03
            2981            3412     24.1335E-03     24.9824E-03
            3000            3412     24.1335E-03     24.9824E-03
            2999            3412     24.1335E-03     24.9824E-03
            2982            3412     24.1335E-03     24.9824E-03
            2982            3413     21.7183E-03     22.5610E-03
            2983            3413     21.7183E-03     22.5610E-03
            3000            3413     21.7183E-03     22.5610E-03
            3001            3413     21.7183E-03     22.5610E-03
            2983            3414     19.6537E-03     20.5321E-03
            3001            3414     19.6537E-03     20.5321E-03
            3002            3414     19.6537E-03     20.5321E-03
            2984            3414     19.6537E-03     20.5321E-03
            3003            3415     17.8635E-03     18.7824E-03
            2984            3415     17.8635E-03     18.7824E-03
            3002            3415     17.8635E-03     18.7824E-03
            2985            3415     17.8635E-03     18.7824E-03
            2986            3416     16.1986E-03     17.1602E-03
            3003            3416     16.1986E-03     17.1602E-03
            3004            3416     16.1986E-03     17.1602E-03
            2985            3416     16.1986E-03     17.1602E-03
            2986            3417     14.6284E-03     15.6263E-03
            3005            3417     14.6284E-03     15.6263E-03
            2987            3417     14.6284E-03     15.6263E-03
            3004            3417     14.6284E-03     15.6263E-03
            2987            3418     13.1018E-03     14.1277E-03
            3005            3418     13.1018E-03     14.1277E-03
            3006            3418     13.1018E-03     14.1277E-03
            2988            3418     13.1018E-03     14.1277E-03
            3006            3419     11.6071E-03     12.6514E-03
            2989            3419     11.6071E-03     12.6514E-03
            3007            3419     11.6071E-03     12.6514E-03
            2988            3419     11.6071E-03     12.6514E-03
            2990            3420     10.1259E-03     11.1781E-03
            2989            3420     10.1259E-03     11.1781E-03
            3008            3420     10.1259E-03     11.1781E-03
            3007            3420     10.1259E-03     11.1781E-03
            3008            3421     8.65654E-03     9.70361E-03
            2991            3421     8.65654E-03     9.70361E-03
            3009            3421     8.65654E-03     9.70361E-03
            2990            3421     8.65654E-03     9.70361E-03
            3010            3422     7.19308E-03     8.22097E-03
            2991            3422     7.19308E-03     8.22097E-03
            2992            3422     7.19308E-03     8.22097E-03
            3009            3422     7.19308E-03     8.22097E-03
            2993            3423     5.74087E-03     6.72889E-03
            3010            3423     5.74087E-03     6.72889E-03
            3011            3423     5.74087E-03     6.72889E-03
            2992            3423     5.74087E-03     6.72889E-03
            3011            3424     4.29978E-03     5.22455E-03
            3012            3424     4.29978E-03     5.22455E-03
            2993            3424     4.29978E-03     5.22455E-03
            2994            3424     4.29978E-03     5.22455E-03
            2995            3425     2.89417E-03     3.70495E-03
            3013            3425     2.89417E-03     3.70495E-03
            2994            3425     2.89417E-03     3.70495E-03
            3012            3425     2.89417E-03     3.70495E-03
            3014            3426     1.57562E-03     2.18546E-03
            2996            3426     1.57562E-03     2.18546E-03
            3013            3426     1.57562E-03     2.18546E-03
            2995            3426     1.57562E-03     2.18546E-03
            3015            3427     31.9517E-03     32.4079E-03
            3016            3427     31.9517E-03     32.4079E-03
            2997            3427     31.9517E-03     32.4079E-03
            2998            3427     31.9517E-03     32.4079E-03
            2998            3428     29.3825E-03     29.2970E-03
            3017            3428     29.3825E-03     29.2970E-03
            3016            3428     29.3825E-03     29.2970E-03
            2999            3428     29.3825E-03     29.2970E-03
            3000            3429     27.5422E-03     27.4404E-03
            3017            3429     27.5422E-03     27.4404E-03
            3018            3429     27.5422E-03     27.4404E-03
            2999            3429     27.5422E-03     27.4404E-03
            3000            3430     25.7879E-03     25.7949E-03
            3019            3430     25.7879E-03     25.7949E-03
            3001            3430     25.7879E-03     25.7949E-03
            3018            3430     25.7879E-03     25.7949E-03
            3001            3431     24.1476E-03     24.2473E-03
            3002            3431     24.1476E-03     24.2473E-03
            3019            3431     24.1476E-03     24.2473E-03
            3020            3431     24.1476E-03     24.2473E-03
            3002            3432     22.5161E-03     22.7312E-03
            3003            3432     22.5161E-03     22.7312E-03
            3020            3432     22.5161E-03     22.7312E-03
            3021            3432     22.5161E-03     22.7312E-03
            3003            3433     20.9078E-03     21.1999E-03
            3022            3433     20.9078E-03     21.1999E-03
            3004            3433     20.9078E-03     21.1999E-03
            3021            3433     20.9078E-03     21.1999E-03
            3004            3434     19.2921E-03     19.6588E-03
            3023            3434     19.2921E-03     19.6588E-03
            3022            3434     19.2921E-03     19.6588E-03
            3005            3434     19.2921E-03     19.6588E-03
            3005            3435     17.6830E-03     18.0955E-03
            3024            3435     17.6830E-03     18.0955E-03
            3006            3435     17.6830E-03     18.0955E-03
            3023            3435     17.6830E-03     18.0955E-03
            3007            3436     16.0744E-03     16.5237E-03
            3024            3436     16.0744E-03     16.5237E-03
            3006            3436     16.0744E-03     16.5237E-03
            3025            3436     16.0744E-03     16.5237E-03
            3007            3437     14.4837E-03     14.9491E-03
            3008            3437     14.4837E-03     14.9491E-03
            3026            3437     14.4837E-03     14.9491E-03
            3025            3437     14.4837E-03     14.9491E-03
            3008            3438     12.9170E-03     13.3870E-03
            3026            3438     12.9170E-03     13.3870E-03
            3009            3438     12.9170E-03     13.3870E-03
            3027            3438     12.9170E-03     13.3870E-03
            3010            3439     11.3983E-03     11.8532E-03
            3028            3439     11.3983E-03     11.8532E-03
            3009            3439     11.3983E-03     11.8532E-03
            3027            3439     11.3983E-03     11.8532E-03
            3029            3440     9.94277E-03     10.3785E-03
            3010            3440     9.94277E-03     10.3785E-03
            3011            3440     9.94277E-03     10.3785E-03
            3028            3440     9.94277E-03     10.3785E-03
            3012            3441     8.57690E-03     8.98193E-03
            3029            3441     8.57690E-03     8.98193E-03
            3030            3441     8.57690E-03     8.98193E-03
            3011            3441     8.57690E-03     8.98193E-03
            3013            3442     7.31114E-03     7.77867E-03
            3012            3442     7.31114E-03     7.77867E-03
            3030            3442     7.31114E-03     7.77867E-03
            3031            3442     7.31114E-03     7.77867E-03
            3013            3443     5.96177E-03     6.92788E-03
            3031            3443     5.96177E-03     6.92788E-03
            3032            3443     5.96177E-03     6.92788E-03
            3014            3443     5.96177E-03     6.92788E-03
            3033            3444     33.2283E-03     32.5553E-03
            3034            3444     33.2283E-03     32.5553E-03
            3016            3444     33.2283E-03     32.5553E-03
            3015            3444     33.2283E-03     32.5553E-03
            3035            3445     33.0177E-03     32.4240E-03
            3016            3445     33.0177E-03     32.4240E-03
            3034            3445     33.0177E-03     32.4240E-03
            3017            3445     33.0177E-03     32.4240E-03
            3017            3446     32.2243E-03     31.6224E-03
            3036            3446     32.2243E-03     31.6224E-03
            3018            3446     32.2243E-03     31.6224E-03
            3035            3446     32.2243E-03     31.6224E-03
            3018            3447     31.0381E-03     30.5095E-03
            3036            3447     31.0381E-03     30.5095E-03
            3019            3447     31.0381E-03     30.5095E-03
            3037            3447     31.0381E-03     30.5095E-03
            3038            3448     29.5962E-03     29.1532E-03
            3037            3448     29.5962E-03     29.1532E-03
            3019            3448     29.5962E-03     29.1532E-03
            3020            3448     29.5962E-03     29.1532E-03
            3038            3449     27.9853E-03     27.6270E-03
            3020            3449     27.9853E-03     27.6270E-03
            3021            3449     27.9853E-03     27.6270E-03
            3039            3449     27.9853E-03     27.6270E-03
            3039            3450     26.2576E-03     25.9734E-03
            3040            3450     26.2576E-03     25.9734E-03
            3021            3450     26.2576E-03     25.9734E-03
            3022            3450     26.2576E-03     25.9734E-03
            3041            3451     24.4586E-03     24.2299E-03
            3023            3451     24.4586E-03     24.2299E-03
            3022            3451     24.4586E-03     24.2299E-03
            3040            3451     24.4586E-03     24.2299E-03
            3042            3452     22.6165E-03     22.4338E-03
            3023            3452     22.6165E-03     22.4338E-03
            3041            3452     22.6165E-03     22.4338E-03
            3024            3452     22.6165E-03     22.4338E-03
            3025            3453     20.7675E-03     20.6117E-03
            3024            3453     20.7675E-03     20.6117E-03
            3042            3453     20.7675E-03     20.6117E-03
            3043            3453     20.7675E-03     20.6117E-03
            3025            3454     18.9319E-03     18.7968E-03
            3043            3454     18.9319E-03     18.7968E-03
            3044            3454     18.9319E-03     18.7968E-03
            3026            3454     18.9319E-03     18.7968E-03
            3027            3455     17.1478E-03     17.0199E-03
            3045            3455     17.1478E-03     17.0199E-03
            3044            3455     17.1478E-03     17.0199E-03
            3026            3455     17.1478E-03     17.0199E-03
            3045            3456     15.4380E-03     15.3221E-03
            3027            3456     15.4380E-03     15.3221E-03
            3046            3456     15.4380E-03     15.3221E-03
            3028            3456     15.4380E-03     15.3221E-03
            3029            3457     13.8524E-03     13.7659E-03
            3028            3457     13.8524E-03     13.7659E-03
            3046            3457     13.8524E-03     13.7659E-03
            3047            3457     13.8524E-03     13.7659E-03
            3030            3458     12.4097E-03     12.4325E-03
            3047            3458     12.4097E-03     12.4325E-03
            3029            3458     12.4097E-03     12.4325E-03
            3048            3458     12.4097E-03     12.4325E-03
            3048            3459     11.1159E-03     11.5603E-03
            3049            3459     11.1159E-03     11.5603E-03
            3031            3459     11.1159E-03     11.5603E-03
            3030            3459     11.1159E-03     11.5603E-03
            3050            3460     10.1199E-03     11.3474E-03
            3031            3460     10.1199E-03     11.3474E-03
            3032            3460     10.1199E-03     11.3474E-03
            3049            3460     10.1199E-03     11.3474E-03
            3034            3461     35.6773E-03     35.8561E-03
            3033            3461     35.6773E-03     35.8561E-03
            3051            3461     35.6773E-03     35.8561E-03
            3052            3461     35.6773E-03     35.8561E-03
            3052            3462     34.9144E-03     35.1598E-03
            3035            3462     34.9144E-03     35.1598E-03
            3034            3462     34.9144E-03     35.1598E-03
            3053            3462     34.9144E-03     35.1598E-03
            3053            3463     33.9092E-03     34.0524E-03
            3054            3463     33.9092E-03     34.0524E-03
            3036            3463     33.9092E-03     34.0524E-03
            3035            3463     33.9092E-03     34.0524E-03
            3036            3464     32.5221E-03     32.5586E-03
            3054            3464     32.5221E-03     32.5586E-03
            3055            3464     32.5221E-03     32.5586E-03
            3037            3464     32.5221E-03     32.5586E-03
            3055            3465     30.8451E-03     30.8348E-03
            3056            3465     30.8451E-03     30.8348E-03
            3038            3465     30.8451E-03     30.8348E-03
            3037            3465     30.8451E-03     30.8348E-03
            3038            3466     28.9819E-03     28.9589E-03
            3056            3466     28.9819E-03     28.9589E-03
            3039            3466     28.9819E-03     28.9589E-03
            3057            3466     28.9819E-03     28.9589E-03
            3058            3467     27.0049E-03     26.9811E-03
            3039            3467     27.0049E-03     26.9811E-03
            3057            3467     27.0049E-03     26.9811E-03
            3040            3467     27.0049E-03     26.9811E-03
            3059            3468     24.9592E-03     24.9479E-03
            3041            3468     24.9592E-03     24.9479E-03
            3058            3468     24.9592E-03     24.9479E-03
            3040            3468     24.9592E-03     24.9479E-03
            3042            3469     22.8893E-03     22.8859E-03
            3059            3469     22.8893E-03     22.8859E-03
            3041            3469     22.8893E-03     22.8859E-03
            3060            3469     22.8893E-03     22.8859E-03
            3043            3470     20.8160E-03     20.8251E-03
            3042            3470     20.8160E-03     20.8251E-03
            3060            3470     20.8160E-03     20.8251E-03
            3061            3470     20.8160E-03     20.8251E-03
            3044            3471     18.7692E-03     18.7888E-03
            3062            3471     18.7692E-03     18.7888E-03
            3061            3471     18.7692E-03     18.7888E-03
            3043            3471     18.7692E-03     18.7888E-03
            3063            3472     16.7679E-03     16.8058E-03
            3062            3472     16.7679E-03     16.8058E-03
            3044            3472     16.7679E-03     16.8058E-03
            3045            3472     16.7679E-03     16.8058E-03
            3064            3473     14.8374E-03     14.9195E-03
            3045            3473     14.8374E-03     14.9195E-03
            3046            3473     14.8374E-03     14.9195E-03
            3063            3473     14.8374E-03     14.9195E-03
            3046            3474     13.0121E-03     13.1869E-03
            3064            3474     13.0121E-03     13.1869E-03
            3047            3474     13.0121E-03     13.1869E-03
            3065            3474     13.0121E-03     13.1869E-03
            3065            3475     11.3121E-03     11.7289E-03
            3047            3475     11.3121E-03     11.7289E-03
            3048            3475     11.3121E-03     11.7289E-03
            3066            3475     11.3121E-03     11.7289E-03
            3066            3476     9.87221E-03     10.7033E-03
            3067            3476     9.87221E-03     10.7033E-03
            3048            3476     9.87221E-03     10.7033E-03
            3049            3476     9.87221E-03     10.7033E-03
            3050            3477     9.16011E-03     9.85238E-03
            3067            3477     9.16011E-03     9.85238E-03
            3068            3477     9.16011E-03     9.85238E-03
            3049            3477     9.16011E-03     9.85238E-03
            3070            3478     37.9862E-03     38.4612E-03
            3052            3478     37.9862E-03     38.4612E-03
            3069            3478     37.9862E-03     38.4612E-03
            3051            3478     37.9862E-03     38.4612E-03
            3053            3479     36.7153E-03     37.3426E-03
            3070            3479     36.7153E-03     37.3426E-03
            3052            3479     36.7153E-03     37.3426E-03
            3071            3479     36.7153E-03     37.3426E-03
            3053            3480     35.4015E-03     35.9668E-03
            3054            3480     35.4015E-03     35.9668E-03
            3071            3480     35.4015E-03     35.9668E-03
            3072            3480     35.4015E-03     35.9668E-03
            3073            3481     33.7630E-03     34.2369E-03
            3055            3481     33.7630E-03     34.2369E-03
            3054            3481     33.7630E-03     34.2369E-03
            3072            3481     33.7630E-03     34.2369E-03
            3055            3482     31.8773E-03     32.2441E-03
            3074            3482     31.8773E-03     32.2441E-03
            3073            3482     31.8773E-03     32.2441E-03
            3056            3482     31.8773E-03     32.2441E-03
            3056            3483     29.8007E-03     30.0969E-03
            3074            3483     29.8007E-03     30.0969E-03
            3075            3483     29.8007E-03     30.0969E-03
            3057            3483     29.8007E-03     30.0969E-03
            3058            3484     27.6146E-03     27.8680E-03
            3076            3484     27.6146E-03     27.8680E-03
            3075            3484     27.6146E-03     27.8680E-03
            3057            3484     27.6146E-03     27.8680E-03
            3076            3485     25.3770E-03     25.5985E-03
            3058            3485     25.3770E-03     25.5985E-03
            3077            3485     25.3770E-03     25.5985E-03
            3059            3485     25.3770E-03     25.5985E-03
            3060            3486     23.1165E-03     23.3250E-03
            3078            3486     23.1165E-03     23.3250E-03
            3059            3486     23.1165E-03     23.3250E-03
            3077            3486     23.1165E-03     23.3250E-03
            3079            3487     20.8666E-03     21.0679E-03
            3061            3487     20.8666E-03     21.0679E-03
            3060            3487     20.8666E-03     21.0679E-03
            3078            3487     20.8666E-03     21.0679E-03
            3079            3488     18.6409E-03     18.8491E-03
            3080            3488     18.6409E-03     18.8491E-03
            3062            3488     18.6409E-03     18.8491E-03
            3061            3488     18.6409E-03     18.8491E-03
            3063            3489     16.4585E-03     16.6921E-03
            3080            3489     16.4585E-03     16.6921E-03
            3062            3489     16.4585E-03     16.6921E-03
            3081            3489     16.4585E-03     16.6921E-03
            3064            3490     14.3410E-03     14.6329E-03
            3063            3490     14.3410E-03     14.6329E-03
            3082            3490     14.3410E-03     14.6329E-03
            3081            3490     14.3410E-03     14.6329E-03
            3083            3491     12.3147E-03     12.7210E-03
            3064            3491     12.3147E-03     12.7210E-03
            3065            3491     12.3147E-03     12.7210E-03
            3082            3491     12.3147E-03     12.7210E-03
            3083            3492     10.4514E-03     11.0574E-03
            3066            3492     10.4514E-03     11.0574E-03
            3065            3492     10.4514E-03     11.0574E-03
            3084            3492     10.4514E-03     11.0574E-03
            3066            3493     8.99293E-03     9.59404E-03
            3085            3493     8.99293E-03     9.59404E-03
            3084            3493     8.99293E-03     9.59404E-03
            3067            3493     8.99293E-03     9.59404E-03
            3086            3494     8.07750E-03     8.32278E-03
            3067            3494     8.07750E-03     8.32278E-03
            3068            3494     8.07750E-03     8.32278E-03
            3085            3494     8.07750E-03     8.32278E-03
            3088            3495     40.0635E-03     40.5349E-03
            3070            3495     40.0635E-03     40.5349E-03
            3087            3495     40.0635E-03     40.5349E-03
            3069            3495     40.0635E-03     40.5349E-03
            3071            3496     38.4080E-03     39.1274E-03
            3089            3496     38.4080E-03     39.1274E-03
            3088            3496     38.4080E-03     39.1274E-03
            3070            3496     38.4080E-03     39.1274E-03
            3071            3497     36.6738E-03     37.4718E-03
            3072            3497     36.6738E-03     37.4718E-03
            3089            3497     36.6738E-03     37.4718E-03
            3090            3497     36.6738E-03     37.4718E-03
            3072            3498     34.7736E-03     35.5038E-03
            3091            3498     34.7736E-03     35.5038E-03
            3090            3498     34.7736E-03     35.5038E-03
            3073            3498     34.7736E-03     35.5038E-03
            3091            3499     32.6416E-03     33.2940E-03
            3073            3499     32.6416E-03     33.2940E-03
            3074            3499     32.6416E-03     33.2940E-03
            3092            3499     32.6416E-03     33.2940E-03
            3093            3500     30.3691E-03     30.9382E-03
            3074            3500     30.3691E-03     30.9382E-03
            3092            3500     30.3691E-03     30.9382E-03
            3075            3500     30.3691E-03     30.9382E-03
            3076            3501     28.0140E-03     28.5131E-03
            3075            3501     28.0140E-03     28.5131E-03
            3094            3501     28.0140E-03     28.5131E-03
            3093            3501     28.0140E-03     28.5131E-03
            3076            3502     25.6183E-03     26.0718E-03
            3077            3502     25.6183E-03     26.0718E-03
            3094            3502     25.6183E-03     26.0718E-03
            3095            3502     25.6183E-03     26.0718E-03
            3077            3503     23.2230E-03     23.6417E-03
            3096            3503     23.2230E-03     23.6417E-03
            3078            3503     23.2230E-03     23.6417E-03
            3095            3503     23.2230E-03     23.6417E-03
            3078            3504     20.8380E-03     21.2411E-03
            3096            3504     20.8380E-03     21.2411E-03
            3097            3504     20.8380E-03     21.2411E-03
            3079            3504     20.8380E-03     21.2411E-03
            3079            3505     18.4818E-03     18.8851E-03
            3098            3505     18.4818E-03     18.8851E-03
            3080            3505     18.4818E-03     18.8851E-03
            3097            3505     18.4818E-03     18.8851E-03
            3080            3506     16.1640E-03     16.5923E-03
            3081            3506     16.1640E-03     16.5923E-03
            3098            3506     16.1640E-03     16.5923E-03
            3099            3506     16.1640E-03     16.5923E-03
            3081            3507     13.9037E-03     14.3821E-03
            3099            3507     13.9037E-03     14.3821E-03
            3082            3507     13.9037E-03     14.3821E-03
            3100            3507     13.9037E-03     14.3821E-03
            3083            3508     11.7315E-03     12.3033E-03
            3100            3508     11.7315E-03     12.3033E-03
            3101            3508     11.7315E-03     12.3033E-03
            3082            3508     11.7315E-03     12.3033E-03
            3084            3509     9.75748E-03     10.3670E-03
            3101            3509     9.75748E-03     10.3670E-03
            3102            3509     9.75748E-03     10.3670E-03
            3083            3509     9.75748E-03     10.3670E-03
            3102            3510     8.11313E-03     8.59928E-03
            3084            3510     8.11313E-03     8.59928E-03
            3103            3510     8.11313E-03     8.59928E-03
            3085            3510     8.11313E-03     8.59928E-03
            3086            3511     7.01381E-03     7.26767E-03
            3104            3511     7.01381E-03     7.26767E-03
            3085            3511     7.01381E-03     7.26767E-03
            3103            3511     7.01381E-03     7.26767E-03
            3106            3512     41.9431E-03     42.4686E-03
            3088            3512     41.9431E-03     42.4686E-03
            3087            3512     41.9431E-03     42.4686E-03
            3105            3512     41.9431E-03     42.4686E-03
            3089            3513     39.8934E-03     40.6603E-03
            3106            3513     39.8934E-03     40.6603E-03
            3088            3513     39.8934E-03     40.6603E-03
            3107            3513     39.8934E-03     40.6603E-03
            3108            3514     37.7910E-03     38.6589E-03
            3090            3514     37.7910E-03     38.6589E-03
            3089            3514     37.7910E-03     38.6589E-03
            3107            3514     37.7910E-03     38.6589E-03
            3091            3515     35.5196E-03     36.4135E-03
            3108            3515     35.5196E-03     36.4135E-03
            3090            3515     35.5196E-03     36.4135E-03
            3109            3515     35.5196E-03     36.4135E-03
            3092            3516     33.1316E-03     33.9763E-03
            3109            3516     33.1316E-03     33.9763E-03
            3110            3516     33.1316E-03     33.9763E-03
            3091            3516     33.1316E-03     33.9763E-03
            3092            3517     30.6623E-03     31.4352E-03
            3093            3517     30.6623E-03     31.4352E-03
            3111            3517     30.6623E-03     31.4352E-03
            3110            3517     30.6623E-03     31.4352E-03
            3112            3518     28.1534E-03     28.8655E-03
            3093            3518     28.1534E-03     28.8655E-03
            3111            3518     28.1534E-03     28.8655E-03
            3094            3518     28.1534E-03     28.8655E-03
            3112            3519     25.6519E-03     26.3073E-03
            3094            3519     25.6519E-03     26.3073E-03
            3095            3519     25.6519E-03     26.3073E-03
            3113            3519     25.6519E-03     26.3073E-03
            3095            3520     23.1587E-03     23.7755E-03
            3114            3520     23.1587E-03     23.7755E-03
            3113            3520     23.1587E-03     23.7755E-03
            3096            3520     23.1587E-03     23.7755E-03
            3096            3521     20.6907E-03     21.2835E-03
            3097            3521     20.6907E-03     21.2835E-03
            3114            3521     20.6907E-03     21.2835E-03
            3115            3521     20.6907E-03     21.2835E-03
            3115            3522     18.2490E-03     18.8370E-03
            3097            3522     18.2490E-03     18.8370E-03
            3098            3522     18.2490E-03     18.8370E-03
            3116            3522     18.2490E-03     18.8370E-03
            3117            3523     15.8435E-03     16.4446E-03
            3099            3523     15.8435E-03     16.4446E-03
            3098            3523     15.8435E-03     16.4446E-03
            3116            3523     15.8435E-03     16.4446E-03
            3118            3524     13.4852E-03     14.1235E-03
            3117            3524     13.4852E-03     14.1235E-03
            3100            3524     13.4852E-03     14.1235E-03
            3099            3524     13.4852E-03     14.1235E-03
            3119            3525     11.2171E-03     11.8842E-03
            3101            3525     11.2171E-03     11.8842E-03
            3100            3525     11.2171E-03     11.8842E-03
            3118            3525     11.2171E-03     11.8842E-03
            3101            3526     9.10139E-03     9.74425E-03
            3120            3526     9.10139E-03     9.74425E-03
            3102            3526     9.10139E-03     9.74425E-03
            3119            3526     9.10139E-03     9.74425E-03
            3121            3527     7.28069E-03     7.81283E-03
            3103            3527     7.28069E-03     7.81283E-03
            3102            3527     7.28069E-03     7.81283E-03
            3120            3527     7.28069E-03     7.81283E-03
            3121            3528     6.01816E-03     6.20425E-03
            3122            3528     6.01816E-03     6.20425E-03
            3103            3528     6.01816E-03     6.20425E-03
            3104            3528     6.01816E-03     6.20425E-03
            3124            3529     43.6676E-03     44.2841E-03
            3105            3529     43.6676E-03     44.2841E-03
            3106            3529     43.6676E-03     44.2841E-03
            3123            3529     43.6676E-03     44.2841E-03
            3124            3530     41.2480E-03     42.0118E-03
            3106            3530     41.2480E-03     42.0118E-03
            3125            3530     41.2480E-03     42.0118E-03
            3107            3530     41.2480E-03     42.0118E-03
            3107            3531     38.6582E-03     39.5921E-03
            3108            3531     38.6582E-03     39.5921E-03
            3125            3531     38.6582E-03     39.5921E-03
            3126            3531     38.6582E-03     39.5921E-03
            3109            3532     36.0035E-03     36.9860E-03
            3108            3532     36.0035E-03     36.9860E-03
            3126            3532     36.0035E-03     36.9860E-03
            3127            3532     36.0035E-03     36.9860E-03
            3127            3533     33.3209E-03     34.2820E-03
            3109            3533     33.3209E-03     34.2820E-03
            3110            3533     33.3209E-03     34.2820E-03
            3128            3533     33.3209E-03     34.2820E-03
            3111            3534     30.6459E-03     31.5778E-03
            3110            3534     30.6459E-03     31.5778E-03
            3129            3534     30.6459E-03     31.5778E-03
            3128            3534     30.6459E-03     31.5778E-03
            3112            3535     28.0359E-03     28.9123E-03
            3129            3535     28.0359E-03     28.9123E-03
            3111            3535     28.0359E-03     28.9123E-03
            3130            3535     28.0359E-03     28.9123E-03
            3131            3536     25.4571E-03     26.2851E-03
            3112            3536     25.4571E-03     26.2851E-03
            3130            3536     25.4571E-03     26.2851E-03
            3113            3536     25.4571E-03     26.2851E-03
            3131            3537     22.9176E-03     23.7076E-03
            3113            3537     22.9176E-03     23.7076E-03
            3114            3537     22.9176E-03     23.7076E-03
            3132            3537     22.9176E-03     23.7076E-03
            3115            3538     20.4070E-03     21.1709E-03
            3132            3538     20.4070E-03     21.1709E-03
            3133            3538     20.4070E-03     21.1709E-03
            3114            3538     20.4070E-03     21.1709E-03
            3134            3539     17.9253E-03     18.6781E-03
            3116            3539     17.9253E-03     18.6781E-03
            3115            3539     17.9253E-03     18.6781E-03
            3133            3539     17.9253E-03     18.6781E-03
            3116            3540     15.4733E-03     16.2282E-03
            3134            3540     15.4733E-03     16.2282E-03
            3135            3540     15.4733E-03     16.2282E-03
            3117            3540     15.4733E-03     16.2282E-03
            3135            3541     13.0625E-03     13.8270E-03
            3118            3541     13.0625E-03     13.8270E-03
            3136            3541     13.0625E-03     13.8270E-03
            3117            3541     13.0625E-03     13.8270E-03
            3136            3542     10.7145E-03     11.4781E-03
            3118            3542     10.7145E-03     11.4781E-03
            3119            3542     10.7145E-03     11.4781E-03
            3137            3542     10.7145E-03     11.4781E-03
            3120            3543     8.48487E-03     9.21322E-03
            3137            3543     8.48487E-03     9.21322E-03
            3138            3543     8.48487E-03     9.21322E-03
            3119            3543     8.48487E-03     9.21322E-03
            3138            3544     6.49400E-03     7.07519E-03
            3139            3544     6.49400E-03     7.07519E-03
            3121            3544     6.49400E-03     7.07519E-03
            3120            3544     6.49400E-03     7.07519E-03
            3122            3545     5.00474E-03     5.28173E-03
            3121            3545     5.00474E-03     5.28173E-03
            3140            3545     5.00474E-03     5.28173E-03
            3139            3545     5.00474E-03     5.28173E-03
            3141            3546     45.3914E-03     45.9493E-03
            3142            3546     45.3914E-03     45.9493E-03
            3123            3546     45.3914E-03     45.9493E-03
            3124            3546     45.3914E-03     45.9493E-03
            3125            3547     42.3617E-03     43.2337E-03
            3142            3547     42.3617E-03     43.2337E-03
            3124            3547     42.3617E-03     43.2337E-03
            3143            3547     42.3617E-03     43.2337E-03
            3143            3548     39.2649E-03     40.2210E-03
            3144            3548     39.2649E-03     40.2210E-03
            3125            3548     39.2649E-03     40.2210E-03
            3126            3548     39.2649E-03     40.2210E-03
            3126            3549     36.1417E-03     37.1500E-03
            3127            3549     36.1417E-03     37.1500E-03
            3145            3549     36.1417E-03     37.1500E-03
            3144            3549     36.1417E-03     37.1500E-03
            3128            3550     33.1304E-03     34.1933E-03
            3146            3550     33.1304E-03     34.1933E-03
            3127            3550     33.1304E-03     34.1933E-03
            3145            3550     33.1304E-03     34.1933E-03
            3129            3551     30.3429E-03     31.3811E-03
            3128            3551     30.3429E-03     31.3811E-03
            3146            3551     30.3429E-03     31.3811E-03
            3147            3551     30.3429E-03     31.3811E-03
            3129            3552     27.6571E-03     28.6609E-03
            3130            3552     27.6571E-03     28.6609E-03
            3147            3552     27.6571E-03     28.6609E-03
            3148            3552     27.6571E-03     28.6609E-03
            3131            3553     25.0570E-03     26.0272E-03
            3130            3553     25.0570E-03     26.0272E-03
            3148            3553     25.0570E-03     26.0272E-03
            3149            3553     25.0570E-03     26.0272E-03
            3149            3554     22.5094E-03     23.4470E-03
            3131            3554     22.5094E-03     23.4470E-03
            3150            3554     22.5094E-03     23.4470E-03
            3132            3554     22.5094E-03     23.4470E-03
            3150            3555     19.9969E-03     20.9141E-03
            3151            3555     19.9969E-03     20.9141E-03
            3133            3555     19.9969E-03     20.9141E-03
            3132            3555     19.9969E-03     20.9141E-03
            3134            3556     17.5125E-03     18.4143E-03
            3152            3556     17.5125E-03     18.4143E-03
            3151            3556     17.5125E-03     18.4143E-03
            3133            3556     17.5125E-03     18.4143E-03
            3152            3557     15.0516E-03     15.9461E-03
            3153            3557     15.0516E-03     15.9461E-03
            3135            3557     15.0516E-03     15.9461E-03
            3134            3557     15.0516E-03     15.9461E-03
            3153            3558     12.6196E-03     13.5023E-03
            3135            3558     12.6196E-03     13.5023E-03
            3136            3558     12.6196E-03     13.5023E-03
            3154            3558     12.6196E-03     13.5023E-03
            3155            3559     10.2259E-03     11.0963E-03
            3137            3559     10.2259E-03     11.0963E-03
            3136            3559     10.2259E-03     11.0963E-03
            3154            3559     10.2259E-03     11.0963E-03
            3155            3560     7.90565E-03     8.73504E-03
            3137            3560     7.90565E-03     8.73504E-03
            3156            3560     7.90565E-03     8.73504E-03
            3138            3560     7.90565E-03     8.73504E-03
            3156            3561     5.74922E-03     6.45847E-03
            3157            3561     5.74922E-03     6.45847E-03
            3138            3561     5.74922E-03     6.45847E-03
            3139            3561     5.74922E-03     6.45847E-03
            3157            3562     4.03374E-03     4.41074E-03
            3140            3562     4.03374E-03     4.41074E-03
            3158            3562     4.03374E-03     4.41074E-03
            3139            3562     4.03374E-03     4.41074E-03
            3142            3563     46.8932E-03     47.7366E-03
            3159            3563     46.8932E-03     47.7366E-03
            3141            3563     46.8932E-03     47.7366E-03
            3160            3563     46.8932E-03     47.7366E-03
            3142            3564     43.3172E-03     44.0888E-03
            3160            3564     43.3172E-03     44.0888E-03
            3143            3564     43.3172E-03     44.0888E-03
            3161            3564     43.3172E-03     44.0888E-03
            3162            3565     39.3963E-03     40.3110E-03
            3143            3565     39.3963E-03     40.3110E-03
            3161            3565     39.3963E-03     40.3110E-03
            3144            3565     39.3963E-03     40.3110E-03
            3144            3566     35.7239E-03     36.8133E-03
            3162            3566     35.7239E-03     36.8133E-03
            3163            3566     35.7239E-03     36.8133E-03
            3145            3566     35.7239E-03     36.8133E-03
            3146            3567     32.6115E-03     33.7262E-03
            3163            3567     32.6115E-03     33.7262E-03
            3164            3567     32.6115E-03     33.7262E-03
            3145            3567     32.6115E-03     33.7262E-03
            3147            3568     29.7513E-03     30.8619E-03
            3165            3568     29.7513E-03     30.8619E-03
            3146            3568     29.7513E-03     30.8619E-03
            3164            3568     29.7513E-03     30.8619E-03
            3166            3569     27.0666E-03     28.1691E-03
            3147            3569     27.0666E-03     28.1691E-03
            3165            3569     27.0666E-03     28.1691E-03
            3148            3569     27.0666E-03     28.1691E-03
            3148            3570     24.4893E-03     25.5714E-03
            3167            3570     24.4893E-03     25.5714E-03
            3166            3570     24.4893E-03     25.5714E-03
            3149            3570     24.4893E-03     25.5714E-03
            3167            3571     21.9688E-03     23.0403E-03
            3168            3571     21.9688E-03     23.0403E-03
            3149            3571     21.9688E-03     23.0403E-03
            3150            3571     21.9688E-03     23.0403E-03
            3168            3572     19.4896E-03     20.5470E-03
            3169            3572     19.4896E-03     20.5470E-03
            3150            3572     19.4896E-03     20.5470E-03
            3151            3572     19.4896E-03     20.5470E-03
            3151            3573     17.0313E-03     18.0791E-03
            3170            3573     17.0313E-03     18.0791E-03
            3169            3573     17.0313E-03     18.0791E-03
            3152            3573     17.0313E-03     18.0791E-03
            3153            3574     14.5926E-03     15.6247E-03
            3171            3574     14.5926E-03     15.6247E-03
            3170            3574     14.5926E-03     15.6247E-03
            3152            3574     14.5926E-03     15.6247E-03
            3153            3575     12.1685E-03     13.1834E-03
            3171            3575     12.1685E-03     13.1834E-03
            3172            3575     12.1685E-03     13.1834E-03
            3154            3575     12.1685E-03     13.1834E-03
            3154            3576     9.76892E-03     10.7462E-03
            3172            3576     9.76892E-03     10.7462E-03
            3173            3576     9.76892E-03     10.7462E-03
            3155            3576     9.76892E-03     10.7462E-03
            3173            3577     7.39493E-03     8.33568E-03
            3155            3577     7.39493E-03     8.33568E-03
            3156            3577     7.39493E-03     8.33568E-03
            3174            3577     7.39493E-03     8.33568E-03
            3174            3578     5.09068E-03     5.98158E-03
            3156            3578     5.09068E-03     5.98158E-03
            3175            3578     5.09068E-03     5.98158E-03
            3157            3578     5.09068E-03     5.98158E-03
            3157            3579     3.09047E-03     3.70630E-03
            3158            3579     3.09047E-03     3.70630E-03
            3175            3579     3.09047E-03     3.70630E-03
            3176            3579     3.09047E-03     3.70630E-03
            3178            3580     48.5742E-03     48.7988E-03
            3177            3580     48.5742E-03     48.7988E-03
            3159            3580     48.5742E-03     48.7988E-03
            3160            3580     48.5742E-03     48.7988E-03
            3160            3581     43.4724E-03     44.1734E-03
            3178            3581     43.4724E-03     44.1734E-03
            3161            3581     43.4724E-03     44.1734E-03
            3179            3581     43.4724E-03     44.1734E-03
            3161            3582     38.5703E-03     39.6111E-03
            3162            3582     38.5703E-03     39.6111E-03
            3180            3582     38.5703E-03     39.6111E-03
            3179            3582     38.5703E-03     39.6111E-03
            3162            3583     34.9027E-03     36.0123E-03
            3180            3583     34.9027E-03     36.0123E-03
            3181            3583     34.9027E-03     36.0123E-03
            3163            3583     34.9027E-03     36.0123E-03
            3164            3584     31.7812E-03     32.9068E-03
            3181            3584     31.7812E-03     32.9068E-03
            3182            3584     31.7812E-03     32.9068E-03
            3163            3584     31.7812E-03     32.9068E-03
            3182            3585     28.9585E-03     30.1147E-03
            3183            3585     28.9585E-03     30.1147E-03
            3164            3585     28.9585E-03     30.1147E-03
            3165            3585     28.9585E-03     30.1147E-03
            3165            3586     26.3376E-03     27.5045E-03
            3166            3586     26.3376E-03     27.5045E-03
            3184            3586     26.3376E-03     27.5045E-03
            3183            3586     26.3376E-03     27.5045E-03
            3167            3587     23.8110E-03     24.9973E-03
            3166            3587     23.8110E-03     24.9973E-03
            3184            3587     23.8110E-03     24.9973E-03
            3185            3587     23.8110E-03     24.9973E-03
            3168            3588     21.3542E-03     22.5491E-03
            3167            3588     21.3542E-03     22.5491E-03
            3185            3588     21.3542E-03     22.5491E-03
            3186            3588     21.3542E-03     22.5491E-03
            3187            3589     18.9262E-03     20.1289E-03
            3169            3589     18.9262E-03     20.1289E-03
            3186            3589     18.9262E-03     20.1289E-03
            3168            3589     18.9262E-03     20.1289E-03
            3188            3590     16.5219E-03     17.7216E-03
            3187            3590     16.5219E-03     17.7216E-03
            3169            3590     16.5219E-03     17.7216E-03
            3170            3590     16.5219E-03     17.7216E-03
            3188            3591     14.1271E-03     15.3160E-03
            3170            3591     14.1271E-03     15.3160E-03
            3189            3591     14.1271E-03     15.3160E-03
            3171            3591     14.1271E-03     15.3160E-03
            3189            3592     11.7446E-03     12.9046E-03
            3190            3592     11.7446E-03     12.9046E-03
            3172            3592     11.7446E-03     12.9046E-03
            3171            3592     11.7446E-03     12.9046E-03
            3190            3593     9.36971E-03     10.4876E-03
            3191            3593     9.36971E-03     10.4876E-03
            3172            3593     9.36971E-03     10.4876E-03
            3173            3593     9.36971E-03     10.4876E-03
            3174            3594     7.01348E-03     8.05713E-03
            3173            3594     7.01348E-03     8.05713E-03
            3191            3594     7.01348E-03     8.05713E-03
            3192            3594     7.01348E-03     8.05713E-03
            3174            3595     4.65594E-03     5.65567E-03
            3175            3595     4.65594E-03     5.65567E-03
            3193            3595     4.65594E-03     5.65567E-03
            3192            3595     4.65594E-03     5.65567E-03
            3194            3596     2.33438E-03     3.37112E-03
            3175            3596     2.33438E-03     3.37112E-03
            3176            3596     2.33438E-03     3.37112E-03
            3193            3596     2.33438E-03     3.37112E-03
            3178            3597     48.6467E-03     49.4196E-03
            3195            3597     48.6467E-03     49.4196E-03
            3177            3597     48.6467E-03     49.4196E-03
            3196            3597     48.6467E-03     49.4196E-03
            3179            3598     41.8715E-03     42.9469E-03
            3197            3598     41.8715E-03     42.9469E-03
            3178            3598     41.8715E-03     42.9469E-03
            3196            3598     41.8715E-03     42.9469E-03
            3198            3599     37.2637E-03     38.2887E-03
            3180            3599     37.2637E-03     38.2887E-03
            3179            3599     37.2637E-03     38.2887E-03
            3197            3599     37.2637E-03     38.2887E-03
            3181            3600     33.8218E-03     34.8525E-03
            3198            3600     33.8218E-03     34.8525E-03
            3199            3600     33.8218E-03     34.8525E-03
            3180            3600     33.8218E-03     34.8525E-03
            3199            3601     30.7947E-03     31.8873E-03
            3182            3601     30.7947E-03     31.8873E-03
            3200            3601     30.7947E-03     31.8873E-03
            3181            3601     30.7947E-03     31.8873E-03
            3201            3602     28.0995E-03     29.2597E-03
            3200            3602     28.0995E-03     29.2597E-03
            3183            3602     28.0995E-03     29.2597E-03
            3182            3602     28.0995E-03     29.2597E-03
            3202            3603     25.5490E-03     26.7786E-03
            3184            3603     25.5490E-03     26.7786E-03
            3183            3603     25.5490E-03     26.7786E-03
            3201            3603     25.5490E-03     26.7786E-03
            3202            3604     23.1108E-03     24.3981E-03
            3203            3604     23.1108E-03     24.3981E-03
            3185            3604     23.1108E-03     24.3981E-03
            3184            3604     23.1108E-03     24.3981E-03
            3185            3605     20.7212E-03     22.0540E-03
            3204            3605     20.7212E-03     22.0540E-03
            3203            3605     20.7212E-03     22.0540E-03
            3186            3605     20.7212E-03     22.0540E-03
            3186            3606     18.3689E-03     19.7311E-03
            3187            3606     18.3689E-03     19.7311E-03
            3205            3606     18.3689E-03     19.7311E-03
            3204            3606     18.3689E-03     19.7311E-03
            3188            3607     16.0310E-03     17.4067E-03
            3187            3607     16.0310E-03     17.4067E-03
            3206            3607     16.0310E-03     17.4067E-03
            3205            3607     16.0310E-03     17.4067E-03
            3189            3608     13.7078E-03     15.0761E-03
            3206            3608     13.7078E-03     15.0761E-03
            3188            3608     13.7078E-03     15.0761E-03
            3207            3608     13.7078E-03     15.0761E-03
            3208            3609     11.3921E-03     12.7309E-03
            3189            3609     11.3921E-03     12.7309E-03
            3190            3609     11.3921E-03     12.7309E-03
            3207            3609     11.3921E-03     12.7309E-03
            3209            3610     9.09391E-03     10.3705E-03
            3208            3610     9.09391E-03     10.3705E-03
            3191            3610     9.09391E-03     10.3705E-03
            3190            3610     9.09391E-03     10.3705E-03
            3191            3611     6.81369E-03     7.99177E-03
            3192            3611     6.81369E-03     7.99177E-03
            3209            3611     6.81369E-03     7.99177E-03
            3210            3611     6.81369E-03     7.99177E-03
            3210            3612     4.58804E-03     5.60353E-03
            3193            3612     4.58804E-03     5.60353E-03
            3211            3612     4.58804E-03     5.60353E-03
            3192            3612     4.58804E-03     5.60353E-03
            3193            3613     2.36465E-03     3.38287E-03
            3212            3613     2.36465E-03     3.38287E-03
            3211            3613     2.36465E-03     3.38287E-03
            3194            3613     2.36465E-03     3.38287E-03
            3196            3614     47.5343E-03     48.2564E-03
            3195            3614     47.5343E-03     48.2564E-03
            3214            3614     47.5343E-03     48.2564E-03
            3213            3614     47.5343E-03     48.2564E-03
            3197            3615     43.6880E-03     43.6045E-03
            3215            3615     43.6880E-03     43.6045E-03
            3214            3615     43.6880E-03     43.6045E-03
            3196            3615     43.6880E-03     43.6045E-03
            3197            3616     40.8977E-03     40.7881E-03
            3216            3616     40.8977E-03     40.7881E-03
            3215            3616     40.8977E-03     40.7881E-03
            3198            3616     40.8977E-03     40.7881E-03
            3198            3617     38.2123E-03     38.2661E-03
            3199            3617     38.2123E-03     38.2661E-03
            3217            3617     38.2123E-03     38.2661E-03
            3216            3617     38.2123E-03     38.2661E-03
            3200            3618     35.7060E-03     35.8899E-03
            3217            3618     35.7060E-03     35.8899E-03
            3199            3618     35.7060E-03     35.8899E-03
            3218            3618     35.7060E-03     35.8899E-03
            3218            3619     33.1937E-03     33.5427E-03
            3219            3619     33.1937E-03     33.5427E-03
            3200            3619     33.1937E-03     33.5427E-03
            3201            3619     33.1937E-03     33.5427E-03
            3202            3620     30.7286E-03     31.1838E-03
            3220            3620     30.7286E-03     31.1838E-03
            3219            3620     30.7286E-03     31.1838E-03
            3201            3620     30.7286E-03     31.1838E-03
            3221            3621     28.2454E-03     28.8015E-03
            3202            3621     28.2454E-03     28.8015E-03
            3220            3621     28.2454E-03     28.8015E-03
            3203            3621     28.2454E-03     28.8015E-03
            3204            3622     25.7775E-03     26.3936E-03
            3203            3622     25.7775E-03     26.3936E-03
            3222            3622     25.7775E-03     26.3936E-03
            3221            3622     25.7775E-03     26.3936E-03
            3222            3623     23.3086E-03     23.9711E-03
            3204            3623     23.3086E-03     23.9711E-03
            3205            3623     23.3086E-03     23.9711E-03
            3223            3623     23.3086E-03     23.9711E-03
            3224            3624     20.8628E-03     21.5427E-03
            3223            3624     20.8628E-03     21.5427E-03
            3205            3624     20.8628E-03     21.5427E-03
            3206            3624     20.8628E-03     21.5427E-03
            3224            3625     18.4514E-03     19.1308E-03
            3207            3625     18.4514E-03     19.1308E-03
            3225            3625     18.4514E-03     19.1308E-03
            3206            3625     18.4514E-03     19.1308E-03
            3225            3626     16.1029E-03     16.7510E-03
            3226            3626     16.1029E-03     16.7510E-03
            3208            3626     16.1029E-03     16.7510E-03
            3207            3626     16.1029E-03     16.7510E-03
            3208            3627     13.8521E-03     14.4518E-03
            3226            3627     13.8521E-03     14.4518E-03
            3227            3627     13.8521E-03     14.4518E-03
            3209            3627     13.8521E-03     14.4518E-03
            3227            3628     11.7402E-03     12.2586E-03
            3210            3628     11.7402E-03     12.2586E-03
            3209            3628     11.7402E-03     12.2586E-03
            3228            3628     11.7402E-03     12.2586E-03
            3210            3629     9.82304E-03     10.3479E-03
            3228            3629     9.82304E-03     10.3479E-03
            3229            3629     9.82304E-03     10.3479E-03
            3211            3629     9.82304E-03     10.3479E-03
            3212            3630     7.91162E-03     9.01952E-03
            3211            3630     7.91162E-03     9.01952E-03
            3230            3630     7.91162E-03     9.01952E-03
            3229            3630     7.91162E-03     9.01952E-03
            3214            3631     49.2892E-03     48.5666E-03
            3213            3631     49.2892E-03     48.5666E-03
            3232            3631     49.2892E-03     48.5666E-03
            3231            3631     49.2892E-03     48.5666E-03
            3214            3632     48.0767E-03     47.5015E-03
            3233            3632     48.0767E-03     47.5015E-03
            3232            3632     48.0767E-03     47.5015E-03
            3215            3632     48.0767E-03     47.5015E-03
            3215            3633     46.3494E-03     45.7785E-03
            3216            3633     46.3494E-03     45.7785E-03
            3233            3633     46.3494E-03     45.7785E-03
            3234            3633     46.3494E-03     45.7785E-03
            3235            3634     44.2854E-03     43.7895E-03
            3217            3634     44.2854E-03     43.7895E-03
            3234            3634     44.2854E-03     43.7895E-03
            3216            3634     44.2854E-03     43.7895E-03
            3217            3635     41.9241E-03     41.5513E-03
            3235            3635     41.9241E-03     41.5513E-03
            3236            3635     41.9241E-03     41.5513E-03
            3218            3635     41.9241E-03     41.5513E-03
            3218            3636     39.4072E-03     39.1373E-03
            3236            3636     39.4072E-03     39.1373E-03
            3219            3636     39.4072E-03     39.1373E-03
            3237            3636     39.4072E-03     39.1373E-03
            3238            3637     36.7561E-03     36.5761E-03
            3219            3637     36.7561E-03     36.5761E-03
            3237            3637     36.7561E-03     36.5761E-03
            3220            3637     36.7561E-03     36.5761E-03
            3220            3638     34.0361E-03     33.9256E-03
            3238            3638     34.0361E-03     33.9256E-03
            3221            3638     34.0361E-03     33.9256E-03
            3239            3638     34.0361E-03     33.9256E-03
            3240            3639     31.2752E-03     31.2105E-03
            3222            3639     31.2752E-03     31.2105E-03
            3239            3639     31.2752E-03     31.2105E-03
            3221            3639     31.2752E-03     31.2105E-03
            3223            3640     28.5089E-03     28.4755E-03
            3241            3640     28.5089E-03     28.4755E-03
            3222            3640     28.5089E-03     28.4755E-03
            3240            3640     28.5089E-03     28.4755E-03
            3241            3641     25.7676E-03     25.7474E-03
            3242            3641     25.7676E-03     25.7474E-03
            3224            3641     25.7676E-03     25.7474E-03
            3223            3641     25.7676E-03     25.7474E-03
            3242            3642     23.0887E-03     23.0694E-03
            3243            3642     23.0887E-03     23.0694E-03
            3224            3642     23.0887E-03     23.0694E-03
            3225            3642     23.0887E-03     23.0694E-03
            3244            3643     20.5102E-03     20.4877E-03
            3225            3643     20.5102E-03     20.4877E-03
            3243            3643     20.5102E-03     20.4877E-03
            3226            3643     20.5102E-03     20.4877E-03
            3226            3644     18.0950E-03     18.0835E-03
            3244            3644     18.0950E-03     18.0835E-03
            3227            3644     18.0950E-03     18.0835E-03
            3245            3644     18.0950E-03     18.0835E-03
            3245            3645     15.8866E-03     15.9748E-03
            3228            3645     15.8866E-03     15.9748E-03
            3227            3645     15.8866E-03     15.9748E-03
            3246            3645     15.8866E-03     15.9748E-03
            3247            3646     13.9234E-03     14.4809E-03
            3228            3646     13.9234E-03     14.4809E-03
            3229            3646     13.9234E-03     14.4809E-03
            3246            3646     13.9234E-03     14.4809E-03
            3247            3647     12.4154E-03     13.9435E-03
            3230            3647     12.4154E-03     13.9435E-03
            3229            3647     12.4154E-03     13.9435E-03
            3248            3647     12.4154E-03     13.9435E-03
            3232            3648     52.3681E-03     52.6496E-03
            3249            3648     52.3681E-03     52.6496E-03
            3250            3648     52.3681E-03     52.6496E-03
            3231            3648     52.3681E-03     52.6496E-03
            3251            3649     50.6791E-03     51.1403E-03
            3250            3649     50.6791E-03     51.1403E-03
            3232            3649     50.6791E-03     51.1403E-03
            3233            3649     50.6791E-03     51.1403E-03
            3251            3650     48.6099E-03     48.9663E-03
            3233            3650     48.6099E-03     48.9663E-03
            3234            3650     48.6099E-03     48.9663E-03
            3252            3650     48.6099E-03     48.9663E-03
            3252            3651     46.1893E-03     46.4398E-03
            3235            3651     46.1893E-03     46.4398E-03
            3253            3651     46.1893E-03     46.4398E-03
            3234            3651     46.1893E-03     46.4398E-03
            3253            3652     43.5026E-03     43.6796E-03
            3236            3652     43.5026E-03     43.6796E-03
            3235            3652     43.5026E-03     43.6796E-03
            3254            3652     43.5026E-03     43.6796E-03
            3236            3653     40.6212E-03     40.7814E-03
            3254            3653     40.6212E-03     40.7814E-03
            3255            3653     40.6212E-03     40.7814E-03
            3237            3653     40.6212E-03     40.7814E-03
            3237            3654     37.6391E-03     37.7966E-03
            3238            3654     37.6391E-03     37.7966E-03
            3255            3654     37.6391E-03     37.7966E-03
            3256            3654     37.6391E-03     37.7966E-03
            3256            3655     34.6026E-03     34.7646E-03
            3238            3655     34.6026E-03     34.7646E-03
            3257            3655     34.6026E-03     34.7646E-03
            3239            3655     34.6026E-03     34.7646E-03
            3240            3656     31.5482E-03     31.7197E-03
            3257            3656     31.5482E-03     31.7197E-03
            3258            3656     31.5482E-03     31.7197E-03
            3239            3656     31.5482E-03     31.7197E-03
            3258            3657     28.5081E-03     28.6831E-03
            3240            3657     28.5081E-03     28.6831E-03
            3241            3657     28.5081E-03     28.6831E-03
            3259            3657     28.5081E-03     28.6831E-03
            3241            3658     25.4997E-03     25.6823E-03
            3242            3658     25.4997E-03     25.6823E-03
            3259            3658     25.4997E-03     25.6823E-03
            3260            3658     25.4997E-03     25.6823E-03
            3243            3659     22.5533E-03     22.7436E-03
            3261            3659     22.5533E-03     22.7436E-03
            3242            3659     22.5533E-03     22.7436E-03
            3260            3659     22.5533E-03     22.7436E-03
            3243            3660     19.6892E-03     19.9183E-03
            3244            3660     19.6892E-03     19.9183E-03
            3262            3660     19.6892E-03     19.9183E-03
            3261            3660     19.6892E-03     19.9183E-03
            3263            3661     16.9590E-03     17.2774E-03
            3245            3661     16.9590E-03     17.2774E-03
            3262            3661     16.9590E-03     17.2774E-03
            3244            3661     16.9590E-03     17.2774E-03
            3245            3662     14.3925E-03     14.9768E-03
            3263            3662     14.3925E-03     14.9768E-03
            3246            3662     14.3925E-03     14.9768E-03
            3264            3662     14.3925E-03     14.9768E-03
            3246            3663     12.1742E-03     13.2718E-03
            3264            3663     12.1742E-03     13.2718E-03
            3265            3663     12.1742E-03     13.2718E-03
            3247            3663     12.1742E-03     13.2718E-03
            3265            3664     10.9659E-03     11.8992E-03
            3247            3664     10.9659E-03     11.8992E-03
            3248            3664     10.9659E-03     11.8992E-03
            3266            3664     10.9659E-03     11.8992E-03
            3249            3665     55.0170E-03     55.8128E-03
            3268            3665     55.0170E-03     55.8128E-03
            3267            3665     55.0170E-03     55.8128E-03
            3250            3665     55.0170E-03     55.8128E-03
            3250            3666     52.9076E-03     53.8341E-03
            3268            3666     52.9076E-03     53.8341E-03
            3251            3666     52.9076E-03     53.8341E-03
            3269            3666     52.9076E-03     53.8341E-03
            3269            3667     50.5031E-03     51.4172E-03
            3270            3667     50.5031E-03     51.4172E-03
            3252            3667     50.5031E-03     51.4172E-03
            3251            3667     50.5031E-03     51.4172E-03
            3270            3668     47.7477E-03     48.5394E-03
            3271            3668     47.7477E-03     48.5394E-03
            3253            3668     47.7477E-03     48.5394E-03
            3252            3668     47.7477E-03     48.5394E-03
            3271            3669     44.7457E-03     45.4083E-03
            3254            3669     44.7457E-03     45.4083E-03
            3272            3669     44.7457E-03     45.4083E-03
            3253            3669     44.7457E-03     45.4083E-03
            3255            3670     41.5713E-03     42.1426E-03
            3254            3670     41.5713E-03     42.1426E-03
            3272            3670     41.5713E-03     42.1426E-03
            3273            3670     41.5713E-03     42.1426E-03
            3256            3671     38.3224E-03     38.8242E-03
            3255            3671     38.3224E-03     38.8242E-03
            3273            3671     38.3224E-03     38.8242E-03
            3274            3671     38.3224E-03     38.8242E-03
            3274            3672     35.0345E-03     35.4978E-03
            3275            3672     35.0345E-03     35.4978E-03
            3257            3672     35.0345E-03     35.4978E-03
            3256            3672     35.0345E-03     35.4978E-03
            3258            3673     31.7575E-03     32.1911E-03
            3276            3673     31.7575E-03     32.1911E-03
            3275            3673     31.7575E-03     32.1911E-03
            3257            3673     31.7575E-03     32.1911E-03
            3258            3674     28.4969E-03     28.9185E-03
            3276            3674     28.4969E-03     28.9185E-03
            3277            3674     28.4969E-03     28.9185E-03
            3259            3674     28.4969E-03     28.9185E-03
            3278            3675     25.2786E-03     25.6974E-03
            3277            3675     25.2786E-03     25.6974E-03
            3260            3675     25.2786E-03     25.6974E-03
            3259            3675     25.2786E-03     25.6974E-03
            3261            3676     22.1067E-03     22.5483E-03
            3278            3676     22.1067E-03     22.5483E-03
            3279            3676     22.1067E-03     22.5483E-03
            3260            3676     22.1067E-03     22.5483E-03
            3280            3677     19.0104E-03     19.5088E-03
            3279            3677     19.0104E-03     19.5088E-03
            3261            3677     19.0104E-03     19.5088E-03
            3262            3677     19.0104E-03     19.5088E-03
            3262            3678     16.0109E-03     16.6376E-03
            3263            3678     16.0109E-03     16.6376E-03
            3280            3678     16.0109E-03     16.6376E-03
            3281            3678     16.0109E-03     16.6376E-03
            3264            3679     13.1983E-03     14.0695E-03
            3282            3679     13.1983E-03     14.0695E-03
            3263            3679     13.1983E-03     14.0695E-03
            3281            3679     13.1983E-03     14.0695E-03
            3282            3680     10.8898E-03     11.7781E-03
            3283            3680     10.8898E-03     11.7781E-03
            3265            3680     10.8898E-03     11.7781E-03
            3264            3680     10.8898E-03     11.7781E-03
            3283            3681     9.36992E-03     9.79876E-03
            3265            3681     9.36992E-03     9.79876E-03
            3266            3681     9.36992E-03     9.79876E-03
            3284            3681     9.36992E-03     9.79876E-03
            3285            3682     57.4315E-03     58.1259E-03
            3286            3682     57.4315E-03     58.1259E-03
            3267            3682     57.4315E-03     58.1259E-03
            3268            3682     57.4315E-03     58.1259E-03
            3269            3683     54.7763E-03     55.9253E-03
            3286            3683     54.7763E-03     55.9253E-03
            3287            3683     54.7763E-03     55.9253E-03
            3268            3683     54.7763E-03     55.9253E-03
            3270            3684     51.9942E-03     53.1759E-03
            3269            3684     51.9942E-03     53.1759E-03
            3287            3684     51.9942E-03     53.1759E-03
            3288            3684     51.9942E-03     53.1759E-03
            3271            3685     48.8899E-03     50.0171E-03
            3270            3685     48.8899E-03     50.0171E-03
            3289            3685     48.8899E-03     50.0171E-03
            3288            3685     48.8899E-03     50.0171E-03
            3289            3686     45.5642E-03     46.5928E-03
            3272            3686     45.5642E-03     46.5928E-03
            3290            3686     45.5642E-03     46.5928E-03
            3271            3686     45.5642E-03     46.5928E-03
            3291            3687     42.1525E-03     43.0535E-03
            3272            3687     42.1525E-03     43.0535E-03
            3290            3687     42.1525E-03     43.0535E-03
            3273            3687     42.1525E-03     43.0535E-03
            3291            3688     38.6792E-03     39.4994E-03
            3292            3688     38.6792E-03     39.4994E-03
            3273            3688     38.6792E-03     39.4994E-03
            3274            3688     38.6792E-03     39.4994E-03
            3274            3689     35.2293E-03     35.9745E-03
            3275            3689     35.2293E-03     35.9745E-03
            3292            3689     35.2293E-03     35.9745E-03
            3293            3689     35.2293E-03     35.9745E-03
            3293            3690     31.7882E-03     32.4888E-03
            3276            3690     31.7882E-03     32.4888E-03
            3275            3690     31.7882E-03     32.4888E-03
            3294            3690     31.7882E-03     32.4888E-03
            3276            3691     28.3857E-03     29.0574E-03
            3294            3691     28.3857E-03     29.0574E-03
            3277            3691     28.3857E-03     29.0574E-03
            3295            3691     28.3857E-03     29.0574E-03
            3277            3692     25.0143E-03     25.6809E-03
            3278            3692     25.0143E-03     25.6809E-03
            3296            3692     25.0143E-03     25.6809E-03
            3295            3692     25.0143E-03     25.6809E-03
            3278            3693     21.6881E-03     22.3775E-03
            3279            3693     21.6881E-03     22.3775E-03
            3296            3693     21.6881E-03     22.3775E-03
            3297            3693     21.6881E-03     22.3775E-03
            3280            3694     18.4151E-03     19.1634E-03
            3297            3694     18.4151E-03     19.1634E-03
            3279            3694     18.4151E-03     19.1634E-03
            3298            3694     18.4151E-03     19.1634E-03
            3280            3695     15.2269E-03     16.0885E-03
            3298            3695     15.2269E-03     16.0885E-03
            3281            3695     15.2269E-03     16.0885E-03
            3299            3695     15.2269E-03     16.0885E-03
            3299            3696     12.2386E-03     13.1779E-03
            3300            3696     12.2386E-03     13.1779E-03
            3281            3696     12.2386E-03     13.1779E-03
            3282            3696     12.2386E-03     13.1779E-03
            3283            3697     9.64617E-03     10.4546E-03
            3300            3697     9.64617E-03     10.4546E-03
            3282            3697     9.64617E-03     10.4546E-03
            3301            3697     9.64617E-03     10.4546E-03
            3301            3698     7.82458E-03     8.28855E-03
            3302            3698     7.82458E-03     8.28855E-03
            3284            3698     7.82458E-03     8.28855E-03
            3283            3698     7.82458E-03     8.28855E-03
            3286            3699     59.4214E-03     60.3268E-03
            3285            3699     59.4214E-03     60.3268E-03
            3304            3699     59.4214E-03     60.3268E-03
            3303            3699     59.4214E-03     60.3268E-03
            3305            3700     56.4457E-03     57.5395E-03
            3304            3700     56.4457E-03     57.5395E-03
            3286            3700     56.4457E-03     57.5395E-03
            3287            3700     56.4457E-03     57.5395E-03
            3287            3701     53.0866E-03     54.4184E-03
            3306            3701     53.0866E-03     54.4184E-03
            3288            3701     53.0866E-03     54.4184E-03
            3305            3701     53.0866E-03     54.4184E-03
            3306            3702     49.5621E-03     50.8922E-03
            3288            3702     49.5621E-03     50.8922E-03
            3307            3702     49.5621E-03     50.8922E-03
            3289            3702     49.5621E-03     50.8922E-03
            3307            3703     45.9379E-03     47.1770E-03
            3308            3703     45.9379E-03     47.1770E-03
            3289            3703     45.9379E-03     47.1770E-03
            3290            3703     45.9379E-03     47.1770E-03
            3291            3704     42.2720E-03     43.4422E-03
            3308            3704     42.2720E-03     43.4422E-03
            3309            3704     42.2720E-03     43.4422E-03
            3290            3704     42.2720E-03     43.4422E-03
            3309            3705     38.6843E-03     39.7525E-03
            3292            3705     38.6843E-03     39.7525E-03
            3310            3705     38.6843E-03     39.7525E-03
            3291            3705     38.6843E-03     39.7525E-03
            3293            3706     35.1164E-03     36.1154E-03
            3310            3706     35.1164E-03     36.1154E-03
            3311            3706     35.1164E-03     36.1154E-03
            3292            3706     35.1164E-03     36.1154E-03
            3312            3707     31.6012E-03     32.5444E-03
            3293            3707     31.6012E-03     32.5444E-03
            3294            3707     31.6012E-03     32.5444E-03
            3311            3707     31.6012E-03     32.5444E-03
            3294            3708     28.1149E-03     29.0257E-03
            3295            3708     28.1149E-03     29.0257E-03
            3313            3708     28.1149E-03     29.0257E-03
            3312            3708     28.1149E-03     29.0257E-03
            3313            3709     24.6645E-03     25.5662E-03
            3296            3709     24.6645E-03     25.5662E-03
            3314            3709     24.6645E-03     25.5662E-03
            3295            3709     24.6645E-03     25.5662E-03
            3315            3710     21.2467E-03     22.1612E-03
            3296            3710     21.2467E-03     22.1612E-03
            3297            3710     21.2467E-03     22.1612E-03
            3314            3710     21.2467E-03     22.1612E-03
            3298            3711     17.8657E-03     18.8278E-03
            3316            3711     17.8657E-03     18.8278E-03
            3315            3711     17.8657E-03     18.8278E-03
            3297            3711     17.8657E-03     18.8278E-03
            3317            3712     14.5567E-03     15.5790E-03
            3316            3712     14.5567E-03     15.5790E-03
            3298            3712     14.5567E-03     15.5790E-03
            3299            3712     14.5567E-03     15.5790E-03
            3317            3713     11.3881E-03     12.4047E-03
            3299            3713     11.3881E-03     12.4047E-03
            3318            3713     11.3881E-03     12.4047E-03
            3300            3713     11.3881E-03     12.4047E-03
            3301            3714     8.50675E-03     9.44432E-03
            3319            3714     8.50675E-03     9.44432E-03
            3300            3714     8.50675E-03     9.44432E-03
            3318            3714     8.50675E-03     9.44432E-03
            3302            3715     6.35928E-03     6.84901E-03
            3301            3715     6.35928E-03     6.84901E-03
            3319            3715     6.35928E-03     6.84901E-03
            3320            3715     6.35928E-03     6.84901E-03
            3303            3716     61.4567E-03     62.2185E-03
            3304            3716     61.4567E-03     62.2185E-03
            3322            3716     61.4567E-03     62.2185E-03
            3321            3716     61.4567E-03     62.2185E-03
            3323            3717     57.7010E-03     58.9603E-03
            3304            3717     57.7010E-03     58.9603E-03
            3305            3717     57.7010E-03     58.9603E-03
            3322            3717     57.7010E-03     58.9603E-03
            3323            3718     53.7917E-03     55.1360E-03
            3306            3718     53.7917E-03     55.1360E-03
            3305            3718     53.7917E-03     55.1360E-03
            3324            3718     53.7917E-03     55.1360E-03
            3324            3719     49.7300E-03     51.1179E-03
            3306            3719     49.7300E-03     51.1179E-03
            3325            3719     49.7300E-03     51.1179E-03
            3307            3719     49.7300E-03     51.1179E-03
            3326            3720     45.7376E-03     47.1471E-03
            3307            3720     45.7376E-03     47.1471E-03
            3308            3720     45.7376E-03     47.1471E-03
            3325            3720     45.7376E-03     47.1471E-03
            3309            3721     41.9765E-03     43.3094E-03
            3326            3721     41.9765E-03     43.3094E-03
            3327            3721     41.9765E-03     43.3094E-03
            3308            3721     41.9765E-03     43.3094E-03
            3327            3722     38.2988E-03     39.5661E-03
            3310            3722     38.2988E-03     39.5661E-03
            3309            3722     38.2988E-03     39.5661E-03
            3328            3722     38.2988E-03     39.5661E-03
            3310            3723     34.7158E-03     35.9200E-03
            3329            3723     34.7158E-03     35.9200E-03
            3311            3723     34.7158E-03     35.9200E-03
            3328            3723     34.7158E-03     35.9200E-03
            3311            3724     31.1788E-03     32.3368E-03
            3330            3724     31.1788E-03     32.3368E-03
            3312            3724     31.1788E-03     32.3368E-03
            3329            3724     31.1788E-03     32.3368E-03
            3312            3725     27.6815E-03     28.8114E-03
            3330            3725     27.6815E-03     28.8114E-03
            3331            3725     27.6815E-03     28.8114E-03
            3313            3725     27.6815E-03     28.8114E-03
            3331            3726     24.2111E-03     25.3271E-03
            3332            3726     24.2111E-03     25.3271E-03
            3313            3726     24.2111E-03     25.3271E-03
            3314            3726     24.2111E-03     25.3271E-03
            3332            3727     20.7626E-03     21.8846E-03
            3314            3727     20.7626E-03     21.8846E-03
            3315            3727     20.7626E-03     21.8846E-03
            3333            3727     20.7626E-03     21.8846E-03
            3333            3728     17.3430E-03     18.4807E-03
            3316            3728     17.3430E-03     18.4807E-03
            3334            3728     17.3430E-03     18.4807E-03
            3315            3728     17.3430E-03     18.4807E-03
            3317            3729     13.9583E-03     15.1138E-03
            3334            3729     13.9583E-03     15.1138E-03
            3316            3729     13.9583E-03     15.1138E-03
            3335            3729     13.9583E-03     15.1138E-03
            3317            3730     10.6422E-03     11.8264E-03
            3336            3730     10.6422E-03     11.8264E-03
            3318            3730     10.6422E-03     11.8264E-03
            3335            3730     10.6422E-03     11.8264E-03
            3336            3731     7.53211E-03     8.58865E-03
            3337            3731     7.53211E-03     8.58865E-03
            3319            3731     7.53211E-03     8.58865E-03
            3318            3731     7.53211E-03     8.58865E-03
            3320            3732     4.95476E-03     5.65024E-03
            3338            3732     4.95476E-03     5.65024E-03
            3319            3732     4.95476E-03     5.65024E-03
            3337            3732     4.95476E-03     5.65024E-03
            3339            3733     63.0918E-03     64.2336E-03
            3340            3733     63.0918E-03     64.2336E-03
            3322            3733     63.0918E-03     64.2336E-03
            3321            3733     63.0918E-03     64.2336E-03
            3322            3734     58.7448E-03     59.8269E-03
            3341            3734     58.7448E-03     59.8269E-03
            3340            3734     58.7448E-03     59.8269E-03
            3323            3734     58.7448E-03     59.8269E-03
            3323            3735     53.8292E-03     55.1142E-03
            3341            3735     53.8292E-03     55.1142E-03
            3342            3735     53.8292E-03     55.1142E-03
            3324            3735     53.8292E-03     55.1142E-03
            3343            3736     49.1427E-03     50.6137E-03
            3324            3736     49.1427E-03     50.6137E-03
            3325            3736     49.1427E-03     50.6137E-03
            3342            3736     49.1427E-03     50.6137E-03
            3325            3737     45.0672E-03     46.5406E-03
            3344            3737     45.0672E-03     46.5406E-03
            3326            3737     45.0672E-03     46.5406E-03
            3343            3737     45.0672E-03     46.5406E-03
            3345            3738     41.2442E-03     42.6844E-03
            3344            3738     41.2442E-03     42.6844E-03
            3327            3738     41.2442E-03     42.6844E-03
            3326            3738     41.2442E-03     42.6844E-03
            3328            3739     37.5994E-03     39.0057E-03
            3345            3739     37.5994E-03     39.0057E-03
            3346            3739     37.5994E-03     39.0057E-03
            3327            3739     37.5994E-03     39.0057E-03
            3328            3740     34.0533E-03     35.4237E-03
            3329            3740     34.0533E-03     35.4237E-03
            3347            3740     34.0533E-03     35.4237E-03
            3346            3740     34.0533E-03     35.4237E-03
            3348            3741     30.5621E-03     31.9108E-03
            3330            3741     30.5621E-03     31.9108E-03
            3329            3741     30.5621E-03     31.9108E-03
            3347            3741     30.5621E-03     31.9108E-03
            3349            3742     27.1063E-03     28.4379E-03
            3330            3742     27.1063E-03     28.4379E-03
            3348            3742     27.1063E-03     28.4379E-03
            3331            3742     27.1063E-03     28.4379E-03
            3349            3743     23.6691E-03     24.9921E-03
            3331            3743     23.6691E-03     24.9921E-03
            3332            3743     23.6691E-03     24.9921E-03
            3350            3743     23.6691E-03     24.9921E-03
            3351            3744     20.2479E-03     21.5647E-03
            3350            3744     20.2479E-03     21.5647E-03
            3333            3744     20.2479E-03     21.5647E-03
            3332            3744     20.2479E-03     21.5647E-03
            3334            3745     16.8385E-03     18.1478E-03
            3351            3745     16.8385E-03     18.1478E-03
            3352            3745     16.8385E-03     18.1478E-03
            3333            3745     16.8385E-03     18.1478E-03
            3334            3746     13.4462E-03     14.7458E-03
            3352            3746     13.4462E-03     14.7458E-03
            3335            3746     13.4462E-03     14.7458E-03
            3353            3746     13.4462E-03     14.7458E-03
            3336            3747     10.0726E-03     11.3648E-03
            3354            3747     10.0726E-03     11.3648E-03
            3353            3747     10.0726E-03     11.3648E-03
            3335            3747     10.0726E-03     11.3648E-03
            3337            3748     6.73287E-03     8.06429E-03
            3336            3748     6.73287E-03     8.06429E-03
            3354            3748     6.73287E-03     8.06429E-03
            3355            3748     6.73287E-03     8.06429E-03
            3356            3749     3.74848E-03     4.77525E-03
            3355            3749     3.74848E-03     4.77525E-03
            3337            3749     3.74848E-03     4.77525E-03
            3338            3749     3.74848E-03     4.77525E-03
            3357            3750     64.9288E-03     65.2447E-03
            3358            3750     64.9288E-03     65.2447E-03
            3340            3750     64.9288E-03     65.2447E-03
            3339            3750     64.9288E-03     65.2447E-03
            3341            3751     58.7283E-03     59.6819E-03
            3340            3751     58.7283E-03     59.6819E-03
            3358            3751     58.7283E-03     59.6819E-03
            3359            3751     58.7283E-03     59.6819E-03
            3360            3752     52.6512E-03     54.0229E-03
            3359            3752     52.6512E-03     54.0229E-03
            3342            3752     52.6512E-03     54.0229E-03
            3341            3752     52.6512E-03     54.0229E-03
            3361            3753     47.9975E-03     49.4548E-03
            3342            3753     47.9975E-03     49.4548E-03
            3360            3753     47.9975E-03     49.4548E-03
            3343            3753     47.9975E-03     49.4548E-03
            3343            3754     43.9489E-03     45.4109E-03
            3361            3754     43.9489E-03     45.4109E-03
            3362            3754     43.9489E-03     45.4109E-03
            3344            3754     43.9489E-03     45.4109E-03
            3345            3755     40.2054E-03     41.6980E-03
            3362            3755     40.2054E-03     41.6980E-03
            3363            3755     40.2054E-03     41.6980E-03
            3344            3755     40.2054E-03     41.6980E-03
            3364            3756     36.6659E-03     38.1646E-03
            3363            3756     36.6659E-03     38.1646E-03
            3346            3756     36.6659E-03     38.1646E-03
            3345            3756     36.6659E-03     38.1646E-03
            3346            3757     33.2098E-03     34.7267E-03
            3365            3757     33.2098E-03     34.7267E-03
            3347            3757     33.2098E-03     34.7267E-03
            3364            3757     33.2098E-03     34.7267E-03
            3365            3758     29.8150E-03     31.3415E-03
            3366            3758     29.8150E-03     31.3415E-03
            3348            3758     29.8150E-03     31.3415E-03
            3347            3758     29.8150E-03     31.3415E-03
            3366            3759     26.4408E-03     27.9758E-03
            3349            3759     26.4408E-03     27.9758E-03
            3367            3759     26.4408E-03     27.9758E-03
            3348            3759     26.4408E-03     27.9758E-03
            3367            3760     23.0838E-03     24.6195E-03
            3350            3760     23.0838E-03     24.6195E-03
            3368            3760     23.0838E-03     24.6195E-03
            3349            3760     23.0838E-03     24.6195E-03
            3350            3761     19.7333E-03     21.2574E-03
            3351            3761     19.7333E-03     21.2574E-03
            3368            3761     19.7333E-03     21.2574E-03
            3369            3761     19.7333E-03     21.2574E-03
            3352            3762     16.3899E-03     17.8907E-03
            3351            3762     16.3899E-03     17.8907E-03
            3369            3762     16.3899E-03     17.8907E-03
            3370            3762     16.3899E-03     17.8907E-03
            3352            3763     13.0568E-03     14.5111E-03
            3371            3763     13.0568E-03     14.5111E-03
            3353            3763     13.0568E-03     14.5111E-03
            3370            3763     13.0568E-03     14.5111E-03
            3353            3764     9.73297E-03     11.1226E-03
            3354            3764     9.73297E-03     11.1226E-03
            3372            3764     9.73297E-03     11.1226E-03
            3371            3764     9.73297E-03     11.1226E-03
            3373            3765     6.38839E-03     7.80014E-03
            3354            3765     6.38839E-03     7.80014E-03
            3355            3765     6.38839E-03     7.80014E-03
            3372            3765     6.38839E-03     7.80014E-03
            3373            3766     3.08179E-03     4.65082E-03
            3355            3766     3.08179E-03     4.65082E-03
            3356            3766     3.08179E-03     4.65082E-03
            3374            3766     3.08179E-03     4.65082E-03
            3376            3767     64.7606E-03     65.6270E-03
            3357            3767     64.7606E-03     65.6270E-03
            3375            3767     64.7606E-03     65.6270E-03
            3358            3767     64.7606E-03     65.6270E-03
            3358            3768     56.5344E-03     57.8133E-03
            3377            3768     56.5344E-03     57.8133E-03
            3359            3768     56.5344E-03     57.8133E-03
            3376            3768     56.5344E-03     57.8133E-03
            3378            3769     50.8347E-03     52.0877E-03
            3360            3769     50.8347E-03     52.0877E-03
            3377            3769     50.8347E-03     52.0877E-03
            3359            3769     50.8347E-03     52.0877E-03
            3379            3770     46.4903E-03     47.7760E-03
            3360            3770     46.4903E-03     47.7760E-03
            3361            3770     46.4903E-03     47.7760E-03
            3378            3770     46.4903E-03     47.7760E-03
            3361            3771     42.5793E-03     43.9726E-03
            3362            3771     42.5793E-03     43.9726E-03
            3379            3771     42.5793E-03     43.9726E-03
            3380            3771     42.5793E-03     43.9726E-03
            3362            3772     39.0294E-03     40.5205E-03
            3381            3772     39.0294E-03     40.5205E-03
            3380            3772     39.0294E-03     40.5205E-03
            3363            3772     39.0294E-03     40.5205E-03
            3382            3773     35.6095E-03     37.1970E-03
            3381            3773     35.6095E-03     37.1970E-03
            3363            3773     35.6095E-03     37.1970E-03
            3364            3773     35.6095E-03     37.1970E-03
            3364            3774     32.2966E-03     33.9596E-03
            3382            3774     32.2966E-03     33.9596E-03
            3383            3774     32.2966E-03     33.9596E-03
            3365            3774     32.2966E-03     33.9596E-03
            3365            3775     29.0170E-03     30.7366E-03
            3383            3775     29.0170E-03     30.7366E-03
            3384            3775     29.0170E-03     30.7366E-03
            3366            3775     29.0170E-03     30.7366E-03
            3367            3776     25.7651E-03     27.5223E-03
            3385            3776     25.7651E-03     27.5223E-03
            3366            3776     25.7651E-03     27.5223E-03
            3384            3776     25.7651E-03     27.5223E-03
            3386            3777     22.5190E-03     24.2911E-03
            3385            3777     22.5190E-03     24.2911E-03
            3367            3777     22.5190E-03     24.2911E-03
            3368            3777     22.5190E-03     24.2911E-03
            3368            3778     19.2826E-03     21.0474E-03
            3369            3778     19.2826E-03     21.0474E-03
            3386            3778     19.2826E-03     21.0474E-03
            3387            3778     19.2826E-03     21.0474E-03
            3370            3779     16.0578E-03     17.7798E-03
            3388            3779     16.0578E-03     17.7798E-03
            3369            3779     16.0578E-03     17.7798E-03
            3387            3779     16.0578E-03     17.7798E-03
            3389            3780     12.8557E-03     14.4956E-03
            3371            3780     12.8557E-03     14.4956E-03
            3370            3780     12.8557E-03     14.4956E-03
            3388            3780     12.8557E-03     14.4956E-03
            3390            3781     9.69765E-03     11.2001E-03
            3371            3781     9.69765E-03     11.2001E-03
            3389            3781     9.69765E-03     11.2001E-03
            3372            3781     9.69765E-03     11.2001E-03
            3372            3782     6.63730E-03     7.92780E-03
            3373            3782     6.63730E-03     7.92780E-03
            3391            3782     6.63730E-03     7.92780E-03
            3390            3782     6.63730E-03     7.92780E-03
            3374            3783     3.67144E-03     5.07362E-03
            3373            3783     3.67144E-03     5.07362E-03
            3391            3783     3.67144E-03     5.07362E-03
            3392            3783     3.67144E-03     5.07362E-03
            4348            4562     59.2883E-03     61.2969E-03
            4366            4562     59.2883E-03     61.2969E-03
            4365            4562     59.2883E-03     61.2969E-03
            4347            4562     59.2883E-03     61.2969E-03
            4366            4563     53.2340E-03     54.4254E-03
            4367            4563     53.2340E-03     54.4254E-03
            4349            4563     53.2340E-03     54.4254E-03
            4348            4563     53.2340E-03     54.4254E-03
            4349            4564     48.9869E-03     50.0243E-03
            4350            4564     48.9869E-03     50.0243E-03
            4368            4564     48.9869E-03     50.0243E-03
            4367            4564     48.9869E-03     50.0243E-03
            4369            4565     45.1136E-03     46.1887E-03
            4368            4565     45.1136E-03     46.1887E-03
            4351            4565     45.1136E-03     46.1887E-03
            4350            4565     45.1136E-03     46.1887E-03
            4352            4566     41.5834E-03     42.6926E-03
            4351            4566     41.5834E-03     42.6926E-03
            4370            4566     41.5834E-03     42.6926E-03
            4369            4566     41.5834E-03     42.6926E-03
            4352            4567     38.1759E-03     39.3697E-03
            4370            4567     38.1759E-03     39.3697E-03
            4371            4567     38.1759E-03     39.3697E-03
            4353            4567     38.1759E-03     39.3697E-03
            4353            4568     34.8857E-03     36.1310E-03
            4371            4568     34.8857E-03     36.1310E-03
            4354            4568     34.8857E-03     36.1310E-03
            4372            4568     34.8857E-03     36.1310E-03
            4355            4569     31.6373E-03     32.9424E-03
            4373            4569     31.6373E-03     32.9424E-03
            4372            4569     31.6373E-03     32.9424E-03
            4354            4569     31.6373E-03     32.9424E-03
            4355            4570     28.4301E-03     29.7692E-03
            4374            4570     28.4301E-03     29.7692E-03
            4373            4570     28.4301E-03     29.7692E-03
            4356            4570     28.4301E-03     29.7692E-03
            4356            4571     25.2348E-03     26.6032E-03
            4375            4571     25.2348E-03     26.6032E-03
            4374            4571     25.2348E-03     26.6032E-03
            4357            4571     25.2348E-03     26.6032E-03
            4357            4572     22.0539E-03     23.4324E-03
            4376            4572     22.0539E-03     23.4324E-03
            4358            4572     22.0539E-03     23.4324E-03
            4375            4572     22.0539E-03     23.4324E-03
            4358            4573     18.8773E-03     20.2539E-03
            4377            4573     18.8773E-03     20.2539E-03
            4376            4573     18.8773E-03     20.2539E-03
            4359            4573     18.8773E-03     20.2539E-03
            4378            4574     15.7113E-03     17.0660E-03
            4377            4574     15.7113E-03     17.0660E-03
            4359            4574     15.7113E-03     17.0660E-03
            4360            4574     15.7113E-03     17.0660E-03
            4379            4575     12.5565E-03     13.8652E-03
            4378            4575     12.5565E-03     13.8652E-03
            4360            4575     12.5565E-03     13.8652E-03
            4361            4575     12.5565E-03     13.8652E-03
            4362            4576     9.42887E-03     10.6574E-03
            4380            4576     9.42887E-03     10.6574E-03
            4361            4576     9.42887E-03     10.6574E-03
            4379            4576     9.42887E-03     10.6574E-03
            4380            4577     6.35549E-03     7.44940E-03
            4363            4577     6.35549E-03     7.44940E-03
            4381            4577     6.35549E-03     7.44940E-03
            4362            4577     6.35549E-03     7.44940E-03
            4364            4578     3.40968E-03     4.33556E-03
            4382            4578     3.40968E-03     4.33556E-03
            4381            4578     3.40968E-03     4.33556E-03
            4363            4578     3.40968E-03     4.33556E-03
            4383            4579     61.2036E-03     62.1847E-03
            4365            4579     61.2036E-03     62.1847E-03
            4384            4579     61.2036E-03     62.1847E-03
            4366            4579     61.2036E-03     62.1847E-03
            4385            4580     52.6998E-03     54.0595E-03
            4367            4580     52.6998E-03     54.0595E-03
            4384            4580     52.6998E-03     54.0595E-03
            4366            4580     52.6998E-03     54.0595E-03
            4386            4581     46.9564E-03     48.2449E-03
            4385            4581     46.9564E-03     48.2449E-03
            4368            4581     46.9564E-03     48.2449E-03
            4367            4581     46.9564E-03     48.2449E-03
            4386            4582     42.6631E-03     43.9613E-03
            4369            4582     42.6631E-03     43.9613E-03
            4368            4582     42.6631E-03     43.9613E-03
            4387            4582     42.6631E-03     43.9613E-03
            4387            4583     38.8784E-03     40.2578E-03
            4369            4583     38.8784E-03     40.2578E-03
            4370            4583     38.8784E-03     40.2578E-03
            4388            4583     38.8784E-03     40.2578E-03
            4370            4584     35.5028E-03     36.9689E-03
            4371            4584     35.5028E-03     36.9689E-03
            4389            4584     35.5028E-03     36.9689E-03
            4388            4584     35.5028E-03     36.9689E-03
            4390            4585     32.3003E-03     33.8547E-03
            4371            4585     32.3003E-03     33.8547E-03
            4372            4585     32.3003E-03     33.8547E-03
            4389            4585     32.3003E-03     33.8547E-03
            4372            4586     29.2335E-03     30.8599E-03
            4373            4586     29.2335E-03     30.8599E-03
            4391            4586     29.2335E-03     30.8599E-03
            4390            4586     29.2335E-03     30.8599E-03
            4391            4587     26.2223E-03     27.9051E-03
            4373            4587     26.2223E-03     27.9051E-03
            4374            4587     26.2223E-03     27.9051E-03
            4392            4587     26.2223E-03     27.9051E-03
            4375            4588     23.2547E-03     24.9732E-03
            4374            4588     23.2547E-03     24.9732E-03
            4392            4588     23.2547E-03     24.9732E-03
            4393            4588     23.2547E-03     24.9732E-03
            4394            4589     20.3022E-03     22.0366E-03
            4376            4589     20.3022E-03     22.0366E-03
            4375            4589     20.3022E-03     22.0366E-03
            4393            4589     20.3022E-03     22.0366E-03
            4376            4590     17.3668E-03     19.0906E-03
            4395            4590     17.3668E-03     19.0906E-03
            4394            4590     17.3668E-03     19.0906E-03
            4377            4590     17.3668E-03     19.0906E-03
            4377            4591     14.4402E-03     16.1251E-03
            4395            4591     14.4402E-03     16.1251E-03
            4396            4591     14.4402E-03     16.1251E-03
            4378            4591     14.4402E-03     16.1251E-03
            4397            4592     11.5362E-03     13.1404E-03
            4379            4592     11.5362E-03     13.1404E-03
            4396            4592     11.5362E-03     13.1404E-03
            4378            4592     11.5362E-03     13.1404E-03
            4380            4593     8.65721E-03     10.1338E-03
            4398            4593     8.65721E-03     10.1338E-03
            4379            4593     8.65721E-03     10.1338E-03
            4397            4593     8.65721E-03     10.1338E-03
            4380            4594     5.85245E-03     7.12089E-03
            4399            4594     5.85245E-03     7.12089E-03
            4398            4594     5.85245E-03     7.12089E-03
            4381            4594     5.85245E-03     7.12089E-03
            4399            4595     3.06222E-03     4.35284E-03
            4382            4595     3.06222E-03     4.35284E-03
            4381            4595     3.06222E-03     4.35284E-03
            4400            4595     3.06222E-03     4.35284E-03
            4401            4596     61.1814E-03     61.4506E-03
            4384            4596     61.1814E-03     61.4506E-03
            4402            4596     61.1814E-03     61.4506E-03
            4383            4596     61.1814E-03     61.4506E-03
            4403            4597     54.7380E-03     55.6303E-03
            4402            4597     54.7380E-03     55.6303E-03
            4385            4597     54.7380E-03     55.6303E-03
            4384            4597     54.7380E-03     55.6303E-03
            4404            4598     48.5852E-03     49.9077E-03
            4386            4598     48.5852E-03     49.9077E-03
            4403            4598     48.5852E-03     49.9077E-03
            4385            4598     48.5852E-03     49.9077E-03
            4405            4599     44.0073E-03     45.4093E-03
            4387            4599     44.0073E-03     45.4093E-03
            4386            4599     44.0073E-03     45.4093E-03
            4404            4599     44.0073E-03     45.4093E-03
            4387            4600     40.1014E-03     41.5226E-03
            4406            4600     40.1014E-03     41.5226E-03
            4405            4600     40.1014E-03     41.5226E-03
            4388            4600     40.1014E-03     41.5226E-03
            4406            4601     36.5643E-03     38.0229E-03
            4388            4601     36.5643E-03     38.0229E-03
            4389            4601     36.5643E-03     38.0229E-03
            4407            4601     36.5643E-03     38.0229E-03
            4408            4602     33.2721E-03     34.7436E-03
            4407            4602     33.2721E-03     34.7436E-03
            4390            4602     33.2721E-03     34.7436E-03
            4389            4602     33.2721E-03     34.7436E-03
            4391            4603     30.0920E-03     31.5877E-03
            4408            4603     30.0920E-03     31.5877E-03
            4390            4603     30.0920E-03     31.5877E-03
            4409            4603     30.0920E-03     31.5877E-03
            4410            4604     26.9947E-03     28.5009E-03
            4409            4604     26.9947E-03     28.5009E-03
            4391            4604     26.9947E-03     28.5009E-03
            4392            4604     26.9947E-03     28.5009E-03
            4393            4605     23.9296E-03     25.4457E-03
            4410            4605     23.9296E-03     25.4457E-03
            4392            4605     23.9296E-03     25.4457E-03
            4411            4605     23.9296E-03     25.4457E-03
            4393            4606     20.8917E-03     22.4040E-03
            4411            4606     20.8917E-03     22.4040E-03
            4394            4606     20.8917E-03     22.4040E-03
            4412            4606     20.8917E-03     22.4040E-03
            4394            4607     17.8636E-03     19.3626E-03
            4413            4607     17.8636E-03     19.3626E-03
            4412            4607     17.8636E-03     19.3626E-03
            4395            4607     17.8636E-03     19.3626E-03
            4395            4608     14.8494E-03     16.3124E-03
            4396            4608     14.8494E-03     16.3124E-03
            4414            4608     14.8494E-03     16.3124E-03
            4413            4608     14.8494E-03     16.3124E-03
            4396            4609     11.8430E-03     13.2541E-03
            4397            4609     11.8430E-03     13.2541E-03
            4414            4609     11.8430E-03     13.2541E-03
            4415            4609     11.8430E-03     13.2541E-03
            4397            4610     8.85775E-03     10.1779E-03
            4398            4610     8.85775E-03     10.1779E-03
            4416            4610     8.85775E-03     10.1779E-03
            4415            4610     8.85775E-03     10.1779E-03
            4398            4611     5.86285E-03     7.14048E-03
            4416            4611     5.86285E-03     7.14048E-03
            4399            4611     5.86285E-03     7.14048E-03
            4417            4611     5.86285E-03     7.14048E-03
            4399            4612     2.89746E-03     4.25414E-03
            4400            4612     2.89746E-03     4.25414E-03
            4418            4612     2.89746E-03     4.25414E-03
            4417            4612     2.89746E-03     4.25414E-03
            4420            4613     59.1374E-03     60.2007E-03
            4419            4613     59.1374E-03     60.2007E-03
            4401            4613     59.1374E-03     60.2007E-03
            4402            4613     59.1374E-03     60.2007E-03
            4421            4614     54.6184E-03     55.5921E-03
            4420            4614     54.6184E-03     55.5921E-03
            4402            4614     54.6184E-03     55.5921E-03
            4403            4614     54.6184E-03     55.5921E-03
            4404            4615     49.6593E-03     50.8244E-03
            4403            4615     49.6593E-03     50.8244E-03
            4421            4615     49.6593E-03     50.8244E-03
            4422            4615     49.6593E-03     50.8244E-03
            4423            4616     45.0430E-03     46.4275E-03
            4405            4616     45.0430E-03     46.4275E-03
            4422            4616     45.0430E-03     46.4275E-03
            4404            4616     45.0430E-03     46.4275E-03
            4423            4617     41.1408E-03     42.5496E-03
            4424            4617     41.1408E-03     42.5496E-03
            4405            4617     41.1408E-03     42.5496E-03
            4406            4617     41.1408E-03     42.5496E-03
            4406            4618     37.5474E-03     38.9485E-03
            4424            4618     37.5474E-03     38.9485E-03
            4407            4618     37.5474E-03     38.9485E-03
            4425            4618     37.5474E-03     38.9485E-03
            4426            4619     34.1713E-03     35.5595E-03
            4407            4619     34.1713E-03     35.5595E-03
            4408            4619     34.1713E-03     35.5595E-03
            4425            4619     34.1713E-03     35.5595E-03
            4426            4620     30.9240E-03     32.2857E-03
            4427            4620     30.9240E-03     32.2857E-03
            4408            4620     30.9240E-03     32.2857E-03
            4409            4620     30.9240E-03     32.2857E-03
            4427            4621     27.7443E-03     29.0925E-03
            4428            4621     27.7443E-03     29.0925E-03
            4409            4621     27.7443E-03     29.0925E-03
            4410            4621     27.7443E-03     29.0925E-03
            4410            4622     24.6131E-03     25.9436E-03
            4428            4622     24.6131E-03     25.9436E-03
            4429            4622     24.6131E-03     25.9436E-03
            4411            4622     24.6131E-03     25.9436E-03
            4412            4623     21.5053E-03     22.8248E-03
            4429            4623     21.5053E-03     22.8248E-03
            4430            4623     21.5053E-03     22.8248E-03
            4411            4623     21.5053E-03     22.8248E-03
            4430            4624     18.4199E-03     19.7208E-03
            4431            4624     18.4199E-03     19.7208E-03
            4412            4624     18.4199E-03     19.7208E-03
            4413            4624     18.4199E-03     19.7208E-03
            4414            4625     15.3499E-03     16.6317E-03
            4413            4625     15.3499E-03     16.6317E-03
            4431            4625     15.3499E-03     16.6317E-03
            4432            4625     15.3499E-03     16.6317E-03
            4432            4626     12.3073E-03     13.5455E-03
            4433            4626     12.3073E-03     13.5455E-03
            4415            4626     12.3073E-03     13.5455E-03
            4414            4626     12.3073E-03     13.5455E-03
            4415            4627     9.28978E-03     10.4895E-03
            4416            4627     9.28978E-03     10.4895E-03
            4433            4627     9.28978E-03     10.4895E-03
            4434            4627     9.28978E-03     10.4895E-03
            4416            4628     6.34438E-03     7.50074E-03
            4417            4628     6.34438E-03     7.50074E-03
            4434            4628     6.34438E-03     7.50074E-03
            4435            4628     6.34438E-03     7.50074E-03
            4436            4629     3.75045E-03     4.58433E-03
            4435            4629     3.75045E-03     4.58433E-03
            4418            4629     3.75045E-03     4.58433E-03
            4417            4629     3.75045E-03     4.58433E-03
            4438            4630     57.3094E-03     58.0220E-03
            4437            4630     57.3094E-03     58.0220E-03
            4419            4630     57.3094E-03     58.0220E-03
            4420            4630     57.3094E-03     58.0220E-03
            4421            4631     53.4792E-03     54.5923E-03
            4438            4631     53.4792E-03     54.5923E-03
            4439            4631     53.4792E-03     54.5923E-03
            4420            4631     53.4792E-03     54.5923E-03
            4440            4632     49.5548E-03     50.7710E-03
            4422            4632     49.5548E-03     50.7710E-03
            4439            4632     49.5548E-03     50.7710E-03
            4421            4632     49.5548E-03     50.7710E-03
            4441            4633     45.6010E-03     46.8831E-03
            4422            4633     45.6010E-03     46.8831E-03
            4440            4633     45.6010E-03     46.8831E-03
            4423            4633     45.6010E-03     46.8831E-03
            4424            4634     41.8027E-03     43.1492E-03
            4441            4634     41.8027E-03     43.1492E-03
            4442            4634     41.8027E-03     43.1492E-03
            4423            4634     41.8027E-03     43.1492E-03
            4425            4635     38.2904E-03     39.5994E-03
            4424            4635     38.2904E-03     39.5994E-03
            4442            4635     38.2904E-03     39.5994E-03
            4443            4635     38.2904E-03     39.5994E-03
            4444            4636     34.9030E-03     36.1664E-03
            4426            4636     34.9030E-03     36.1664E-03
            4443            4636     34.9030E-03     36.1664E-03
            4425            4636     34.9030E-03     36.1664E-03
            4445            4637     31.6227E-03     32.8416E-03
            4426            4637     31.6227E-03     32.8416E-03
            4444            4637     31.6227E-03     32.8416E-03
            4427            4637     31.6227E-03     32.8416E-03
            4428            4638     28.4052E-03     29.5827E-03
            4445            4638     28.4052E-03     29.5827E-03
            4427            4638     28.4052E-03     29.5827E-03
            4446            4638     28.4052E-03     29.5827E-03
            4428            4639     25.2299E-03     26.3820E-03
            4446            4639     25.2299E-03     26.3820E-03
            4447            4639     25.2299E-03     26.3820E-03
            4429            4639     25.2299E-03     26.3820E-03
            4447            4640     22.0876E-03     23.2211E-03
            4448            4640     22.0876E-03     23.2211E-03
            4429            4640     22.0876E-03     23.2211E-03
            4430            4640     22.0876E-03     23.2211E-03
            4430            4641     18.9722E-03     20.0986E-03
            4448            4641     18.9722E-03     20.0986E-03
            4449            4641     18.9722E-03     20.0986E-03
            4431            4641     18.9722E-03     20.0986E-03
            4431            4642     15.8899E-03     17.0046E-03
            4450            4642     15.8899E-03     17.0046E-03
            4432            4642     15.8899E-03     17.0046E-03
            4449            4642     15.8899E-03     17.0046E-03
            4451            4643     12.8501E-03     13.9552E-03
            4433            4643     12.8501E-03     13.9552E-03
            4450            4643     12.8501E-03     13.9552E-03
            4432            4643     12.8501E-03     13.9552E-03
            4433            4644     9.89405E-03     10.9586E-03
            4452            4644     9.89405E-03     10.9586E-03
            4451            4644     9.89405E-03     10.9586E-03
            4434            4644     9.89405E-03     10.9586E-03
            4453            4645     7.12960E-03     8.05612E-03
            4435            4645     7.12960E-03     8.05612E-03
            4452            4645     7.12960E-03     8.05612E-03
            4434            4645     7.12960E-03     8.05612E-03
            4453            4646     4.90190E-03     5.42113E-03
            4454            4646     4.90190E-03     5.42113E-03
            4436            4646     4.90190E-03     5.42113E-03
            4435            4646     4.90190E-03     5.42113E-03
            4456            4647     55.1942E-03     55.9807E-03
            4438            4647     55.1942E-03     55.9807E-03
            4437            4647     55.1942E-03     55.9807E-03
            4455            4647     55.1942E-03     55.9807E-03
            4456            4648     52.1319E-03     53.1129E-03
            4439            4648     52.1319E-03     53.1129E-03
            4457            4648     52.1319E-03     53.1129E-03
            4438            4648     52.1319E-03     53.1129E-03
            4439            4649     48.8440E-03     50.0381E-03
            4457            4649     48.8440E-03     50.0381E-03
            4440            4649     48.8440E-03     50.0381E-03
            4458            4649     48.8440E-03     50.0381E-03
            4458            4650     45.4717E-03     46.7198E-03
            4440            4650     45.4717E-03     46.7198E-03
            4441            4650     45.4717E-03     46.7198E-03
            4459            4650     45.4717E-03     46.7198E-03
            4459            4651     42.0675E-03     43.2836E-03
            4441            4651     42.0675E-03     43.2836E-03
            4442            4651     42.0675E-03     43.2836E-03
            4460            4651     42.0675E-03     43.2836E-03
            4460            4652     38.6808E-03     39.8556E-03
            4442            4652     38.6808E-03     39.8556E-03
            4461            4652     38.6808E-03     39.8556E-03
            4443            4652     38.6808E-03     39.8556E-03
            4443            4653     35.3795E-03     36.4808E-03
            4462            4653     35.3795E-03     36.4808E-03
            4444            4653     35.3795E-03     36.4808E-03
            4461            4653     35.3795E-03     36.4808E-03
            4444            4654     32.1180E-03     33.1574E-03
            4445            4654     32.1180E-03     33.1574E-03
            4462            4654     32.1180E-03     33.1574E-03
            4463            4654     32.1180E-03     33.1574E-03
            4445            4655     28.9069E-03     29.8976E-03
            4464            4655     28.9069E-03     29.8976E-03
            4446            4655     28.9069E-03     29.8976E-03
            4463            4655     28.9069E-03     29.8976E-03
            4446            4656     25.7310E-03     26.6889E-03
            4464            4656     25.7310E-03     26.6889E-03
            4447            4656     25.7310E-03     26.6889E-03
            4465            4656     25.7310E-03     26.6889E-03
            4465            4657     22.5903E-03     23.5347E-03
            4466            4657     22.5903E-03     23.5347E-03
            4447            4657     22.5903E-03     23.5347E-03
            4448            4657     22.5903E-03     23.5347E-03
            4467            4658     19.4843E-03     20.4328E-03
            4448            4658     19.4843E-03     20.4328E-03
            4466            4658     19.4843E-03     20.4328E-03
            4449            4658     19.4843E-03     20.4328E-03
            4449            4659     16.4261E-03     17.3906E-03
            4450            4659     16.4261E-03     17.3906E-03
            4468            4659     16.4261E-03     17.3906E-03
            4467            4659     16.4261E-03     17.3906E-03
            4468            4660     13.4413E-03     14.4113E-03
            4469            4660     13.4413E-03     14.4113E-03
            4451            4660     13.4413E-03     14.4113E-03
            4450            4660     13.4413E-03     14.4113E-03
            4470            4661     10.5962E-03     11.5320E-03
            4452            4661     10.5962E-03     11.5320E-03
            4469            4661     10.5962E-03     11.5320E-03
            4451            4661     10.5962E-03     11.5320E-03
            4453            4662     8.03983E-03     8.80273E-03
            4470            4662     8.03983E-03     8.80273E-03
            4452            4662     8.03983E-03     8.80273E-03
            4471            4662     8.03983E-03     8.80273E-03
            4453            4663     6.10976E-03     6.49076E-03
            4454            4663     6.10976E-03     6.49076E-03
            4471            4663     6.10976E-03     6.49076E-03
            4472            4663     6.10976E-03     6.49076E-03
            4456            4664     53.0765E-03     53.7525E-03
            4473            4664     53.0765E-03     53.7525E-03
            4474            4664     53.0765E-03     53.7525E-03
            4455            4664     53.0765E-03     53.7525E-03
            4474            4665     50.4783E-03     51.4628E-03
            4475            4665     50.4783E-03     51.4628E-03
            4456            4665     50.4783E-03     51.4628E-03
            4457            4665     50.4783E-03     51.4628E-03
            4457            4666     47.8009E-03     48.9101E-03
            4476            4666     47.8009E-03     48.9101E-03
            4458            4666     47.8009E-03     48.9101E-03
            4475            4666     47.8009E-03     48.9101E-03
            4459            4667     44.9041E-03     46.0386E-03
            4458            4667     44.9041E-03     46.0386E-03
            4477            4667     44.9041E-03     46.0386E-03
            4476            4667     44.9041E-03     46.0386E-03
            4478            4668     41.8610E-03     42.9268E-03
            4459            4668     41.8610E-03     42.9268E-03
            4460            4668     41.8610E-03     42.9268E-03
            4477            4668     41.8610E-03     42.9268E-03
            4461            4669     38.7196E-03     39.6923E-03
            4478            4669     38.7196E-03     39.6923E-03
            4479            4669     38.7196E-03     39.6923E-03
            4460            4669     38.7196E-03     39.6923E-03
            4480            4670     35.5356E-03     36.4301E-03
            4461            4670     35.5356E-03     36.4301E-03
            4479            4670     35.5356E-03     36.4301E-03
            4462            4670     35.5356E-03     36.4301E-03
            4462            4671     32.3648E-03     33.1870E-03
            4481            4671     32.3648E-03     33.1870E-03
            4480            4671     32.3648E-03     33.1870E-03
            4463            4671     32.3648E-03     33.1870E-03
            4463            4672     29.2065E-03     29.9802E-03
            4481            4672     29.2065E-03     29.9802E-03
            4482            4672     29.2065E-03     29.9802E-03
            4464            4672     29.2065E-03     29.9802E-03
            4483            4673     26.0811E-03     26.8243E-03
            4482            4673     26.0811E-03     26.8243E-03
            4465            4673     26.0811E-03     26.8243E-03
            4464            4673     26.0811E-03     26.8243E-03
            4466            4674     22.9879E-03     23.7251E-03
            4484            4674     22.9879E-03     23.7251E-03
            4483            4674     22.9879E-03     23.7251E-03
            4465            4674     22.9879E-03     23.7251E-03
            4466            4675     19.9389E-03     20.6925E-03
            4485            4675     19.9389E-03     20.6925E-03
            4484            4675     19.9389E-03     20.6925E-03
            4467            4675     19.9389E-03     20.6925E-03
            4467            4676     16.9450E-03     17.7476E-03
            4485            4676     16.9450E-03     17.7476E-03
            4486            4676     16.9450E-03     17.7476E-03
            4468            4676     16.9450E-03     17.7476E-03
            4487            4677     14.0583E-03     14.9042E-03
            4468            4677     14.0583E-03     14.9042E-03
            4486            4677     14.0583E-03     14.9042E-03
            4469            4677     14.0583E-03     14.9042E-03
            4469            4678     11.3556E-03     12.1804E-03
            4487            4678     11.3556E-03     12.1804E-03
            4470            4678     11.3556E-03     12.1804E-03
            4488            4678     11.3556E-03     12.1804E-03
            4489            4679     9.01509E-03     9.71083E-03
            4470            4679     9.01509E-03     9.71083E-03
            4471            4679     9.01509E-03     9.71083E-03
            4488            4679     9.01509E-03     9.71083E-03
            4490            4680     7.38033E-03     7.64129E-03
            4471            4680     7.38033E-03     7.64129E-03
            4489            4680     7.38033E-03     7.64129E-03
            4472            4680     7.38033E-03     7.64129E-03
            4473            4681     50.7679E-03     51.3723E-03
            4491            4681     50.7679E-03     51.3723E-03
            4492            4681     50.7679E-03     51.3723E-03
            4474            4681     50.7679E-03     51.3723E-03
            4492            4682     48.6576E-03     49.5806E-03
            4475            4682     48.6576E-03     49.5806E-03
            4474            4682     48.6576E-03     49.5806E-03
            4493            4682     48.6576E-03     49.5806E-03
            4476            4683     46.4409E-03     47.4540E-03
            4493            4683     46.4409E-03     47.4540E-03
            4475            4683     46.4409E-03     47.4540E-03
            4494            4683     46.4409E-03     47.4540E-03
            4477            4684     44.0043E-03     44.9257E-03
            4476            4684     44.0043E-03     44.9257E-03
            4494            4684     44.0043E-03     44.9257E-03
            4495            4684     44.0043E-03     44.9257E-03
            4478            4685     41.2744E-03     42.0958E-03
            4477            4685     41.2744E-03     42.0958E-03
            4496            4685     41.2744E-03     42.0958E-03
            4495            4685     41.2744E-03     42.0958E-03
            4497            4686     38.3748E-03     39.0894E-03
            4478            4686     38.3748E-03     39.0894E-03
            4496            4686     38.3748E-03     39.0894E-03
            4479            4686     38.3748E-03     39.0894E-03
            4479            4687     35.3763E-03     36.0036E-03
            4498            4687     35.3763E-03     36.0036E-03
            4497            4687     35.3763E-03     36.0036E-03
            4480            4687     35.3763E-03     36.0036E-03
            4480            4688     32.3328E-03     32.9031E-03
            4498            4688     32.3328E-03     32.9031E-03
            4499            4688     32.3328E-03     32.9031E-03
            4481            4688     32.3328E-03     32.9031E-03
            4499            4689     29.2928E-03     29.8198E-03
            4482            4689     29.2928E-03     29.8198E-03
            4500            4689     29.2928E-03     29.8198E-03
            4481            4689     29.2928E-03     29.8198E-03
            4483            4690     26.2676E-03     26.7751E-03
            4500            4690     26.2676E-03     26.7751E-03
            4482            4690     26.2676E-03     26.7751E-03
            4501            4690     26.2676E-03     26.7751E-03
            4484            4691     23.2790E-03     23.7858E-03
            4483            4691     23.2790E-03     23.7858E-03
            4501            4691     23.2790E-03     23.7858E-03
            4502            4691     23.2790E-03     23.7858E-03
            4485            4692     20.3373E-03     20.8746E-03
            4484            4692     20.3373E-03     20.8746E-03
            4503            4692     20.3373E-03     20.8746E-03
            4502            4692     20.3373E-03     20.8746E-03
            4503            4693     17.4656E-03     18.0644E-03
            4504            4693     17.4656E-03     18.0644E-03
            4486            4693     17.4656E-03     18.0644E-03
            4485            4693     17.4656E-03     18.0644E-03
            4504            4694     14.6983E-03     15.4171E-03
            4487            4694     14.6983E-03     15.4171E-03
            4505            4694     14.6983E-03     15.4171E-03
            4486            4694     14.6983E-03     15.4171E-03
            4505            4695     12.1713E-03     12.9503E-03
            4488            4695     12.1713E-03     12.9503E-03
            4506            4695     12.1713E-03     12.9503E-03
            4487            4695     12.1713E-03     12.9503E-03
            4506            4696     10.0563E-03     10.6895E-03
            4489            4696     10.0563E-03     10.6895E-03
            4488            4696     10.0563E-03     10.6895E-03
            4507            4696     10.0563E-03     10.6895E-03
            4489            4697     8.63282E-03     8.97303E-03
            4490            4697     8.63282E-03     8.97303E-03
            4507            4697     8.63282E-03     8.97303E-03
            4508            4697     8.63282E-03     8.97303E-03
            4509            4698     48.2034E-03     48.8116E-03
            4491            4698     48.2034E-03     48.8116E-03
            4510            4698     48.2034E-03     48.8116E-03
            4492            4698     48.2034E-03     48.8116E-03
            4510            4699     46.5811E-03     47.3722E-03
            4493            4699     46.5811E-03     47.3722E-03
            4492            4699     46.5811E-03     47.3722E-03
            4511            4699     46.5811E-03     47.3722E-03
            4493            4700     44.8822E-03     45.5914E-03
            4511            4700     44.8822E-03     45.5914E-03
            4494            4700     44.8822E-03     45.5914E-03
            4512            4700     44.8822E-03     45.5914E-03
            4494            4701     42.7664E-03     43.3605E-03
            4513            4701     42.7664E-03     43.3605E-03
            4512            4701     42.7664E-03     43.3605E-03
            4495            4701     42.7664E-03     43.3605E-03
            4514            4702     40.3445E-03     40.8038E-03
            4495            4702     40.3445E-03     40.8038E-03
            4496            4702     40.3445E-03     40.8038E-03
            4513            4702     40.3445E-03     40.8038E-03
            4515            4703     37.6865E-03     38.0595E-03
            4497            4703     37.6865E-03     38.0595E-03
            4514            4703     37.6865E-03     38.0595E-03
            4496            4703     37.6865E-03     38.0595E-03
            4516            4704     34.8973E-03     35.2180E-03
            4498            4704     34.8973E-03     35.2180E-03
            4497            4704     34.8973E-03     35.2180E-03
            4515            4704     34.8973E-03     35.2180E-03
            4499            4705     32.0473E-03     32.3299E-03
            4517            4705     32.0473E-03     32.3299E-03
            4516            4705     32.0473E-03     32.3299E-03
            4498            4705     32.0473E-03     32.3299E-03
            4517            4706     29.1724E-03     29.4394E-03
            4499            4706     29.1724E-03     29.4394E-03
            4500            4706     29.1724E-03     29.4394E-03
            4518            4706     29.1724E-03     29.4394E-03
            4500            4707     26.3124E-03     26.5706E-03
            4519            4707     26.3124E-03     26.5706E-03
            4501            4707     26.3124E-03     26.5706E-03
            4518            4707     26.3124E-03     26.5706E-03
            4501            4708     23.4833E-03     23.7494E-03
            4502            4708     23.4833E-03     23.7494E-03
            4520            4708     23.4833E-03     23.7494E-03
            4519            4708     23.4833E-03     23.7494E-03
            4521            4709     20.7083E-03     21.0037E-03
            4503            4709     20.7083E-03     21.0037E-03
            4520            4709     20.7083E-03     21.0037E-03
            4502            4709     20.7083E-03     21.0037E-03
            4521            4710     18.0128E-03     18.3783E-03
            4504            4710     18.0128E-03     18.3783E-03
            4503            4710     18.0128E-03     18.3783E-03
            4522            4710     18.0128E-03     18.3783E-03
            4523            4711     15.4293E-03     15.9338E-03
            4504            4711     15.4293E-03     15.9338E-03
            4522            4711     15.4293E-03     15.9338E-03
            4505            4711     15.4293E-03     15.9338E-03
            4506            4712     13.0424E-03     13.8026E-03
            4523            4712     13.0424E-03     13.8026E-03
            4524            4712     13.0424E-03     13.8026E-03
            4505            4712     13.0424E-03     13.8026E-03
            4525            4713     11.1581E-03     11.9327E-03
            4524            4713     11.1581E-03     11.9327E-03
            4506            4713     11.1581E-03     11.9327E-03
            4507            4713     11.1581E-03     11.9327E-03
            4507            4714     9.97130E-03     10.3020E-03
            4508            4714     9.97130E-03     10.3020E-03
            4525            4714     9.97130E-03     10.3020E-03
            4526            4714     9.97130E-03     10.3020E-03
            4527            4715     45.3622E-03     45.5717E-03
            4509            4715     45.3622E-03     45.5717E-03
            4510            4715     45.3622E-03     45.5717E-03
            4528            4715     45.3622E-03     45.5717E-03
            4528            4716     44.3639E-03     44.6619E-03
            4510            4716     44.3639E-03     44.6619E-03
            4511            4716     44.3639E-03     44.6619E-03
            4529            4716     44.3639E-03     44.6619E-03
            4530            4717     43.0396E-03     43.2127E-03
            4529            4717     43.0396E-03     43.2127E-03
            4512            4717     43.0396E-03     43.2127E-03
            4511            4717     43.0396E-03     43.2127E-03
            4512            4718     41.2398E-03     41.2822E-03
            4513            4718     41.2398E-03     41.2822E-03
            4531            4718     41.2398E-03     41.2822E-03
            4530            4718     41.2398E-03     41.2822E-03
            4532            4719     39.0790E-03     39.0672E-03
            4513            4719     39.0790E-03     39.0672E-03
            4531            4719     39.0790E-03     39.0672E-03
            4514            4719     39.0790E-03     39.0672E-03
            4514            4720     36.6889E-03     36.6645E-03
            4533            4720     36.6889E-03     36.6645E-03
            4532            4720     36.6889E-03     36.6645E-03
            4515            4720     36.6889E-03     36.6645E-03
            4533            4721     34.1594E-03     34.1368E-03
            4516            4721     34.1594E-03     34.1368E-03
            4515            4721     34.1594E-03     34.1368E-03
            4534            4721     34.1594E-03     34.1368E-03
            4534            4722     31.5471E-03     31.5419E-03
            4535            4722     31.5471E-03     31.5419E-03
            4516            4722     31.5471E-03     31.5419E-03
            4517            4722     31.5471E-03     31.5419E-03
            4535            4723     28.9063E-03     28.9123E-03
            4518            4723     28.9063E-03     28.9123E-03
            4536            4723     28.9063E-03     28.9123E-03
            4517            4723     28.9063E-03     28.9123E-03
            4536            4724     26.2627E-03     26.2845E-03
            4537            4724     26.2627E-03     26.2845E-03
            4518            4724     26.2627E-03     26.2845E-03
            4519            4724     26.2627E-03     26.2845E-03
            4537            4725     23.6526E-03     23.6869E-03
            4520            4725     23.6526E-03     23.6869E-03
            4519            4725     23.6526E-03     23.6869E-03
            4538            4725     23.6526E-03     23.6869E-03
            4521            4726     21.0994E-03     21.1546E-03
            4520            4726     21.0994E-03     21.1546E-03
            4539            4726     21.0994E-03     21.1546E-03
            4538            4726     21.0994E-03     21.1546E-03
            4521            4727     18.6343E-03     18.7405E-03
            4540            4727     18.6343E-03     18.7405E-03
            4539            4727     18.6343E-03     18.7405E-03
            4522            4727     18.6343E-03     18.7405E-03
            4541            4728     16.3007E-03     16.5163E-03
            4522            4728     16.3007E-03     16.5163E-03
            4540            4728     16.3007E-03     16.5163E-03
            4523            4728     16.3007E-03     16.5163E-03
            4524            4729     14.1238E-03     14.6336E-03
            4542            4729     14.1238E-03     14.6336E-03
            4523            4729     14.1238E-03     14.6336E-03
            4541            4729     14.1238E-03     14.6336E-03
            4542            4730     12.2673E-03     13.3057E-03
            4543            4730     12.2673E-03     13.3057E-03
            4525            4730     12.2673E-03     13.3057E-03
            4524            4730     12.2673E-03     13.3057E-03
            4526            4731     11.3285E-03     12.2186E-03
            4543            4731     11.3285E-03     12.2186E-03
            4525            4731     11.3285E-03     12.2186E-03
            4544            4731     11.3285E-03     12.2186E-03
            4528            4732     42.3390E-03     41.4793E-03
            4527            4732     42.3390E-03     41.4793E-03
            4545            4732     42.3390E-03     41.4793E-03
            4546            4732     42.3390E-03     41.4793E-03
            4528            4733     42.0127E-03     41.2590E-03
            4547            4733     42.0127E-03     41.2590E-03
            4529            4733     42.0127E-03     41.2590E-03
            4546            4733     42.0127E-03     41.2590E-03
            4547            4734     40.9549E-03     40.1956E-03
            4529            4734     40.9549E-03     40.1956E-03
            4530            4734     40.9549E-03     40.1956E-03
            4548            4734     40.9549E-03     40.1956E-03
            4549            4735     39.4104E-03     38.7487E-03
            4548            4735     39.4104E-03     38.7487E-03
            4531            4735     39.4104E-03     38.7487E-03
            4530            4735     39.4104E-03     38.7487E-03
            4532            4736     37.5459E-03     36.9968E-03
            4549            4736     37.5459E-03     36.9968E-03
            4531            4736     37.5459E-03     36.9968E-03
            4550            4736     37.5459E-03     36.9968E-03
            4550            4737     35.4721E-03     35.0326E-03
            4533            4737     35.4721E-03     35.0326E-03
            4551            4737     35.4721E-03     35.0326E-03
            4532            4737     35.4721E-03     35.0326E-03
            4533            4738     33.2529E-03     32.9084E-03
            4552            4738     33.2529E-03     32.9084E-03
            4534            4738     33.2529E-03     32.9084E-03
            4551            4738     33.2529E-03     32.9084E-03
            4552            4739     30.9455E-03     30.6721E-03
            4535            4739     30.9455E-03     30.6721E-03
            4553            4739     30.9455E-03     30.6721E-03
            4534            4739     30.9455E-03     30.6721E-03
            4536            4740     28.5851E-03     28.3698E-03
            4553            4740     28.5851E-03     28.3698E-03
            4554            4740     28.5851E-03     28.3698E-03
            4535            4740     28.5851E-03     28.3698E-03
            4555            4741     26.2162E-03     26.0349E-03
            4536            4741     26.2162E-03     26.0349E-03
            4554            4741     26.2162E-03     26.0349E-03
            4537            4741     26.2162E-03     26.0349E-03
            4555            4742     23.8642E-03     23.7085E-03
            4537            4742     23.8642E-03     23.7085E-03
            4556            4742     23.8642E-03     23.7085E-03
            4538            4742     23.8642E-03     23.7085E-03
            4539            4743     21.5765E-03     21.4287E-03
            4557            4743     21.5765E-03     21.4287E-03
            4556            4743     21.5765E-03     21.4287E-03
            4538            4743     21.5765E-03     21.4287E-03
            4558            4744     19.3819E-03     19.2465E-03
            4539            4744     19.3819E-03     19.2465E-03
            4557            4744     19.3819E-03     19.2465E-03
            4540            4744     19.3819E-03     19.2465E-03
            4540            4745     17.3443E-03     17.2402E-03
            4559            4745     17.3443E-03     17.2402E-03
            4558            4745     17.3443E-03     17.2402E-03
            4541            4745     17.3443E-03     17.2402E-03
            4560            4746     15.4895E-03     15.5118E-03
            4542            4746     15.4895E-03     15.5118E-03
            4541            4746     15.4895E-03     15.5118E-03
            4559            4746     15.4895E-03     15.5118E-03
            4561            4747     13.8279E-03     14.3651E-03
            4560            4747     13.8279E-03     14.3651E-03
            4542            4747     13.8279E-03     14.3651E-03
            4543            4747     13.8279E-03     14.3651E-03
            4561            4748     12.5403E-03     14.0702E-03
            4544            4748     12.5403E-03     14.0702E-03
            4562            4748     12.5403E-03     14.0702E-03
            4543            4748     12.5403E-03     14.0702E-03
            4564            4749     40.6744E-03     41.3088E-03
            4546            4749     40.6744E-03     41.3088E-03
            4545            4749     40.6744E-03     41.3088E-03
            4563            4749     40.6744E-03     41.3088E-03
            4547            4750     37.3013E-03     37.2138E-03
            4565            4750     37.3013E-03     37.2138E-03
            4546            4750     37.3013E-03     37.2138E-03
            4564            4750     37.3013E-03     37.2138E-03
            4547            4751     34.8991E-03     34.7785E-03
            4548            4751     34.8991E-03     34.7785E-03
            4565            4751     34.8991E-03     34.7785E-03
            4566            4751     34.8991E-03     34.7785E-03
            4567            4752     32.6134E-03     32.6233E-03
            4549            4752     32.6134E-03     32.6233E-03
            4566            4752     32.6134E-03     32.6233E-03
            4548            4752     32.6134E-03     32.6233E-03
            4567            4753     30.4904E-03     30.6090E-03
            4549            4753     30.4904E-03     30.6090E-03
            4568            4753     30.4904E-03     30.6090E-03
            4550            4753     30.4904E-03     30.6090E-03
            4550            4754     28.3866E-03     28.6470E-03
            4569            4754     28.3866E-03     28.6470E-03
            4568            4754     28.3866E-03     28.6470E-03
            4551            4754     28.3866E-03     28.6470E-03
            4552            4755     26.3241E-03     26.6778E-03
            4569            4755     26.3241E-03     26.6778E-03
            4570            4755     26.3241E-03     26.6778E-03
            4551            4755     26.3241E-03     26.6778E-03
            4552            4756     24.2590E-03     24.7057E-03
            4570            4756     24.2590E-03     24.7057E-03
            4571            4756     24.2590E-03     24.7057E-03
            4553            4756     24.2590E-03     24.7057E-03
            4553            4757     22.2104E-03     22.7135E-03
            4572            4757     22.2104E-03     22.7135E-03
            4554            4757     22.2104E-03     22.7135E-03
            4571            4757     22.2104E-03     22.7135E-03
            4572            4758     20.1668E-03     20.7162E-03
            4573            4758     20.1668E-03     20.7162E-03
            4554            4758     20.1668E-03     20.7162E-03
            4555            4758     20.1668E-03     20.7162E-03
            4573            4759     18.1504E-03     18.7197E-03
            4556            4759     18.1504E-03     18.7197E-03
            4555            4759     18.1504E-03     18.7197E-03
            4574            4759     18.1504E-03     18.7197E-03
            4557            4760     16.1667E-03     16.7416E-03
            4575            4760     16.1667E-03     16.7416E-03
            4574            4760     16.1667E-03     16.7416E-03
            4556            4760     16.1667E-03     16.7416E-03
            4575            4761     14.2450E-03     14.8010E-03
            4576            4761     14.2450E-03     14.8010E-03
            4558            4761     14.2450E-03     14.8010E-03
            4557            4761     14.2450E-03     14.8010E-03
            4558            4762     12.4056E-03     12.9366E-03
            4576            4762     12.4056E-03     12.9366E-03
            4577            4762     12.4056E-03     12.9366E-03
            4559            4762     12.4056E-03     12.9366E-03
            4560            4763     10.6798E-03     11.1712E-03
            4559            4763     10.6798E-03     11.1712E-03
            4577            4763     10.6798E-03     11.1712E-03
            4578            4763     10.6798E-03     11.1712E-03
            4579            4764     9.08603E-03     9.65170E-03
            4561            4764     9.08603E-03     9.65170E-03
            4578            4764     9.08603E-03     9.65170E-03
            4560            4764     9.08603E-03     9.65170E-03
            4579            4765     7.39329E-03     8.58139E-03
            4562            4765     7.39329E-03     8.58139E-03
            4580            4765     7.39329E-03     8.58139E-03
            4561            4765     7.39329E-03     8.58139E-03
            4582            4766     41.4887E-03     42.3839E-03
            4564            4766     41.4887E-03     42.3839E-03
            4563            4766     41.4887E-03     42.3839E-03
            4581            4766     41.4887E-03     42.3839E-03
            4582            4767     34.7790E-03     35.9325E-03
            4565            4767     34.7790E-03     35.9325E-03
            4564            4767     34.7790E-03     35.9325E-03
            4583            4767     34.7790E-03     35.9325E-03
            4565            4768     30.4146E-03     31.4892E-03
            4566            4768     30.4146E-03     31.4892E-03
            4584            4768     30.4146E-03     31.4892E-03
            4583            4768     30.4146E-03     31.4892E-03
            4566            4769     27.2708E-03     28.3201E-03
            4585            4769     27.2708E-03     28.3201E-03
            4567            4769     27.2708E-03     28.3201E-03
            4584            4769     27.2708E-03     28.3201E-03
            4585            4770     24.5947E-03     25.6786E-03
            4568            4770     24.5947E-03     25.6786E-03
            4567            4770     24.5947E-03     25.6786E-03
            4586            4770     24.5947E-03     25.6786E-03
            4587            4771     22.2906E-03     23.4175E-03
            4568            4771     22.2906E-03     23.4175E-03
            4586            4771     22.2906E-03     23.4175E-03
            4569            4771     22.2906E-03     23.4175E-03
            4570            4772     20.1633E-03     21.3408E-03
            4569            4772     20.1633E-03     21.3408E-03
            4587            4772     20.1633E-03     21.3408E-03
            4588            4772     20.1633E-03     21.3408E-03
            4571            4773     18.1738E-03     19.3950E-03
            4588            4773     18.1738E-03     19.3950E-03
            4570            4773     18.1738E-03     19.3950E-03
            4589            4773     18.1738E-03     19.3950E-03
            4590            4774     16.2523E-03     17.5081E-03
            4589            4774     16.2523E-03     17.5081E-03
            4571            4774     16.2523E-03     17.5081E-03
            4572            4774     16.2523E-03     17.5081E-03
            4573            4775     14.3821E-03     15.6612E-03
            4590            4775     14.3821E-03     15.6612E-03
            4572            4775     14.3821E-03     15.6612E-03
            4591            4775     14.3821E-03     15.6612E-03
            4592            4776     12.5372E-03     13.8251E-03
            4591            4776     12.5372E-03     13.8251E-03
            4574            4776     12.5372E-03     13.8251E-03
            4573            4776     12.5372E-03     13.8251E-03
            4575            4777     10.7120E-03     11.9942E-03
            4574            4777     10.7120E-03     11.9942E-03
            4592            4777     10.7120E-03     11.9942E-03
            4593            4777     10.7120E-03     11.9942E-03
            4575            4778     8.89936E-03     10.1565E-03
            4594            4778     8.89936E-03     10.1565E-03
            4593            4778     8.89936E-03     10.1565E-03
            4576            4778     8.89936E-03     10.1565E-03
            4594            4779     7.10016E-03     8.31024E-03
            4595            4779     7.10016E-03     8.31024E-03
            4576            4779     7.10016E-03     8.31024E-03
            4577            4779     7.10016E-03     8.31024E-03
            4577            4780     5.31791E-03     6.45211E-03
            4595            4780     5.31791E-03     6.45211E-03
            4578            4780     5.31791E-03     6.45211E-03
            4596            4780     5.31791E-03     6.45211E-03
            4579            4781     3.57668E-03     4.57415E-03
            4578            4781     3.57668E-03     4.57415E-03
            4597            4781     3.57668E-03     4.57415E-03
            4596            4781     3.57668E-03     4.57415E-03
            4598            4782     1.94432E-03     2.70208E-03
            4580            4782     1.94432E-03     2.70208E-03
            4579            4782     1.94432E-03     2.70208E-03
            4597            4782     1.94432E-03     2.70208E-03
            4600            4783     41.1208E-03     41.2916E-03
            4581            4783     41.1208E-03     41.2916E-03
            4599            4783     41.1208E-03     41.2916E-03
            4582            4783     41.1208E-03     41.2916E-03
            4583            4784     36.0566E-03     36.6897E-03
            4600            4784     36.0566E-03     36.6897E-03
            4601            4784     36.0566E-03     36.6897E-03
            4582            4784     36.0566E-03     36.6897E-03
            4584            4785     31.3990E-03     32.3625E-03
            4602            4785     31.3990E-03     32.3625E-03
            4601            4785     31.3990E-03     32.3625E-03
            4583            4785     31.3990E-03     32.3625E-03
            4602            4786     28.0670E-03     29.1012E-03
            4603            4786     28.0670E-03     29.1012E-03
            4584            4786     28.0670E-03     29.1012E-03
            4585            4786     28.0670E-03     29.1012E-03
            4585            4787     25.3355E-03     26.3874E-03
            4586            4787     25.3355E-03     26.3874E-03
            4603            4787     25.3355E-03     26.3874E-03
            4604            4787     25.3355E-03     26.3874E-03
            4604            4788     22.9453E-03     24.0288E-03
            4587            4788     22.9453E-03     24.0288E-03
            4586            4788     22.9453E-03     24.0288E-03
            4605            4788     22.9453E-03     24.0288E-03
            4588            4789     20.7892E-03     21.8836E-03
            4605            4789     20.7892E-03     21.8836E-03
            4606            4789     20.7892E-03     21.8836E-03
            4587            4789     20.7892E-03     21.8836E-03
            4589            4790     18.7528E-03     19.8644E-03
            4607            4790     18.7528E-03     19.8644E-03
            4588            4790     18.7528E-03     19.8644E-03
            4606            4790     18.7528E-03     19.8644E-03
            4589            4791     16.8042E-03     17.9224E-03
            4590            4791     16.8042E-03     17.9224E-03
            4607            4791     16.8042E-03     17.9224E-03
            4608            4791     16.8042E-03     17.9224E-03
            4608            4792     14.8987E-03     16.0203E-03
            4609            4792     14.8987E-03     16.0203E-03
            4591            4792     14.8987E-03     16.0203E-03
            4590            4792     14.8987E-03     16.0203E-03
            4610            4793     13.0273E-03     14.1425E-03
            4592            4793     13.0273E-03     14.1425E-03
            4591            4793     13.0273E-03     14.1425E-03
            4609            4793     13.0273E-03     14.1425E-03
            4611            4794     11.1757E-03     12.2730E-03
            4610            4794     11.1757E-03     12.2730E-03
            4592            4794     11.1757E-03     12.2730E-03
            4593            4794     11.1757E-03     12.2730E-03
            4611            4795     9.34536E-03     10.4089E-03
            4612            4795     9.34536E-03     10.4089E-03
            4594            4795     9.34536E-03     10.4089E-03
            4593            4795     9.34536E-03     10.4089E-03
            4594            4796     7.53964E-03     8.54583E-03
            4612            4796     7.53964E-03     8.54583E-03
            4613            4796     7.53964E-03     8.54583E-03
            4595            4796     7.53964E-03     8.54583E-03
            4614            4797     5.77648E-03     6.68705E-03
            4613            4797     5.77648E-03     6.68705E-03
            4596            4797     5.77648E-03     6.68705E-03
            4595            4797     5.77648E-03     6.68705E-03
            4615            4798     4.10129E-03     4.85388E-03
            4597            4798     4.10129E-03     4.85388E-03
            4614            4798     4.10129E-03     4.85388E-03
            4596            4798     4.10129E-03     4.85388E-03
            4615            4799     2.65648E-03     3.13249E-03
            4597            4799     2.65648E-03     3.13249E-03
            4598            4799     2.65648E-03     3.13249E-03
            4616            4799     2.65648E-03     3.13249E-03
            4617            4800     39.1936E-03     39.9267E-03
            4599            4800     39.1936E-03     39.9267E-03
            4600            4800     39.1936E-03     39.9267E-03
            4618            4800     39.1936E-03     39.9267E-03
            4619            4801     35.6728E-03     36.2963E-03
            4618            4801     35.6728E-03     36.2963E-03
            4600            4801     35.6728E-03     36.2963E-03
            4601            4801     35.6728E-03     36.2963E-03
            4601            4802     31.9741E-03     32.7448E-03
            4620            4802     31.9741E-03     32.7448E-03
            4602            4802     31.9741E-03     32.7448E-03
            4619            4802     31.9741E-03     32.7448E-03
            4602            4803     28.6603E-03     29.6100E-03
            4620            4803     28.6603E-03     29.6100E-03
            4621            4803     28.6603E-03     29.6100E-03
            4603            4803     28.6603E-03     29.6100E-03
            4622            4804     25.9713E-03     26.9643E-03
            4604            4804     25.9713E-03     26.9643E-03
            4621            4804     25.9713E-03     26.9643E-03
            4603            4804     25.9713E-03     26.9643E-03
            4604            4805     23.5804E-03     24.5857E-03
            4623            4805     23.5804E-03     24.5857E-03
            4622            4805     23.5804E-03     24.5857E-03
            4605            4805     23.5804E-03     24.5857E-03
            4605            4806     21.3969E-03     22.4069E-03
            4624            4806     21.3969E-03     22.4069E-03
            4606            4806     21.3969E-03     22.4069E-03
            4623            4806     21.3969E-03     22.4069E-03
            4606            4807     19.3423E-03     20.3414E-03
            4607            4807     19.3423E-03     20.3414E-03
            4625            4807     19.3423E-03     20.3414E-03
            4624            4807     19.3423E-03     20.3414E-03
            4607            4808     17.3613E-03     18.3529E-03
            4608            4808     17.3613E-03     18.3529E-03
            4625            4808     17.3613E-03     18.3529E-03
            4626            4808     17.3613E-03     18.3529E-03
            4608            4809     15.4332E-03     16.4105E-03
            4627            4809     15.4332E-03     16.4105E-03
            4626            4809     15.4332E-03     16.4105E-03
            4609            4809     15.4332E-03     16.4105E-03
            4628            4810     13.5363E-03     14.4976E-03
            4610            4810     13.5363E-03     14.4976E-03
            4609            4810     13.5363E-03     14.4976E-03
            4627            4810     13.5363E-03     14.4976E-03
            4629            4811     11.6700E-03     12.6060E-03
            4628            4811     11.6700E-03     12.6060E-03
            4610            4811     11.6700E-03     12.6060E-03
            4611            4811     11.6700E-03     12.6060E-03
            4630            4812     9.83310E-03     10.7292E-03
            4629            4812     9.83310E-03     10.7292E-03
            4612            4812     9.83310E-03     10.7292E-03
            4611            4812     9.83310E-03     10.7292E-03
            4630            4813     8.03994E-03     8.87277E-03
            4612            4813     8.03994E-03     8.87277E-03
            4631            4813     8.03994E-03     8.87277E-03
            4613            4813     8.03994E-03     8.87277E-03
            4614            4814     6.31995E-03     7.04737E-03
            4631            4814     6.31995E-03     7.04737E-03
            4632            4814     6.31995E-03     7.04737E-03
            4613            4814     6.31995E-03     7.04737E-03
            4633            4815     4.73637E-03     5.30089E-03
            4615            4815     4.73637E-03     5.30089E-03
            4614            4815     4.73637E-03     5.30089E-03
            4632            4815     4.73637E-03     5.30089E-03
            4634            4816     3.49423E-03     3.74254E-03
            4633            4816     3.49423E-03     3.74254E-03
            4615            4816     3.49423E-03     3.74254E-03
            4616            4816     3.49423E-03     3.74254E-03
            4635            4817     37.4730E-03     37.9315E-03
            4618            4817     37.4730E-03     37.9315E-03
            4617            4817     37.4730E-03     37.9315E-03
            4636            4817     37.4730E-03     37.9315E-03
            4618            4818     34.5246E-03     35.2357E-03
            4637            4818     34.5246E-03     35.2357E-03
            4636            4818     34.5246E-03     35.2357E-03
            4619            4818     34.5246E-03     35.2357E-03
            4619            4819     31.6772E-03     32.4465E-03
            4637            4819     31.6772E-03     32.4465E-03
            4620            4819     31.6772E-03     32.4465E-03
            4638            4819     31.6772E-03     32.4465E-03
            4621            4820     28.9187E-03     29.7583E-03
            4639            4820     28.9187E-03     29.7583E-03
            4620            4820     28.9187E-03     29.7583E-03
            4638            4820     28.9187E-03     29.7583E-03
            4639            4821     26.3611E-03     27.2764E-03
            4621            4821     26.3611E-03     27.2764E-03
            4622            4821     26.3611E-03     27.2764E-03
            4640            4821     26.3611E-03     27.2764E-03
            4640            4822     24.0754E-03     24.9911E-03
            4623            4822     24.0754E-03     24.9911E-03
            4622            4822     24.0754E-03     24.9911E-03
            4641            4822     24.0754E-03     24.9911E-03
            4642            4823     21.9190E-03     22.8228E-03
            4623            4823     21.9190E-03     22.8228E-03
            4624            4823     21.9190E-03     22.8228E-03
            4641            4823     21.9190E-03     22.8228E-03
            4625            4824     19.8681E-03     20.7519E-03
            4624            4824     19.8681E-03     20.7519E-03
            4643            4824     19.8681E-03     20.7519E-03
            4642            4824     19.8681E-03     20.7519E-03
            4644            4825     17.8796E-03     18.7395E-03
            4625            4825     17.8796E-03     18.7395E-03
            4643            4825     17.8796E-03     18.7395E-03
            4626            4825     17.8796E-03     18.7395E-03
            4644            4826     15.9354E-03     16.7756E-03
            4627            4826     15.9354E-03     16.7756E-03
            4626            4826     15.9354E-03     16.7756E-03
            4645            4826     15.9354E-03     16.7756E-03
            4645            4827     14.0281E-03     14.8461E-03
            4627            4827     14.0281E-03     14.8461E-03
            4646            4827     14.0281E-03     14.8461E-03
            4628            4827     14.0281E-03     14.8461E-03
            4646            4828     12.1540E-03     12.9468E-03
            4629            4828     12.1540E-03     12.9468E-03
            4647            4828     12.1540E-03     12.9468E-03
            4628            4828     12.1540E-03     12.9468E-03
            4647            4829     10.3235E-03     11.0795E-03
            4629            4829     10.3235E-03     11.0795E-03
            4630            4829     10.3235E-03     11.0795E-03
            4648            4829     10.3235E-03     11.0795E-03
            4649            4830     8.55512E-03     9.24704E-03
            4630            4830     8.55512E-03     9.24704E-03
            4648            4830     8.55512E-03     9.24704E-03
            4631            4830     8.55512E-03     9.24704E-03
            4632            4831     6.88735E-03     7.48059E-03
            4649            4831     6.88735E-03     7.48059E-03
            4631            4831     6.88735E-03     7.48059E-03
            4650            4831     6.88735E-03     7.48059E-03
            4650            4832     5.41535E-03     5.82537E-03
            4632            4832     5.41535E-03     5.82537E-03
            4651            4832     5.41535E-03     5.82537E-03
            4633            4832     5.41535E-03     5.82537E-03
            4651            4833     4.31573E-03     4.42928E-03
            4633            4833     4.31573E-03     4.42928E-03
            4652            4833     4.31573E-03     4.42928E-03
            4634            4833     4.31573E-03     4.42928E-03
            4654            4834     35.5693E-03     36.0784E-03
            4635            4834     35.5693E-03     36.0784E-03
            4636            4834     35.5693E-03     36.0784E-03
            4653            4834     35.5693E-03     36.0784E-03
            4654            4835     33.2728E-03     33.8591E-03
            4637            4835     33.2728E-03     33.8591E-03
            4636            4835     33.2728E-03     33.8591E-03
            4655            4835     33.2728E-03     33.8591E-03
            4656            4836     30.9525E-03     31.6968E-03
            4655            4836     30.9525E-03     31.6968E-03
            4637            4836     30.9525E-03     31.6968E-03
            4638            4836     30.9525E-03     31.6968E-03
            4638            4837     28.6978E-03     29.5006E-03
            4639            4837     28.6978E-03     29.5006E-03
            4657            4837     28.6978E-03     29.5006E-03
            4656            4837     28.6978E-03     29.5006E-03
            4658            4838     26.4974E-03     27.3096E-03
            4639            4838     26.4974E-03     27.3096E-03
            4640            4838     26.4974E-03     27.3096E-03
            4657            4838     26.4974E-03     27.3096E-03
            4659            4839     24.3503E-03     25.1655E-03
            4641            4839     24.3503E-03     25.1655E-03
            4640            4839     24.3503E-03     25.1655E-03
            4658            4839     24.3503E-03     25.1655E-03
            4660            4840     22.2952E-03     23.0769E-03
            4641            4840     22.2952E-03     23.0769E-03
            4642            4840     22.2952E-03     23.0769E-03
            4659            4840     22.2952E-03     23.0769E-03
            4642            4841     20.2784E-03     21.0297E-03
            4660            4841     20.2784E-03     21.0297E-03
            4661            4841     20.2784E-03     21.0297E-03
            4643            4841     20.2784E-03     21.0297E-03
            4661            4842     18.3080E-03     19.0296E-03
            4662            4842     18.3080E-03     19.0296E-03
            4643            4842     18.3080E-03     19.0296E-03
            4644            4842     18.3080E-03     19.0296E-03
            4644            4843     16.3695E-03     17.0664E-03
            4645            4843     16.3695E-03     17.0664E-03
            4663            4843     16.3695E-03     17.0664E-03
            4662            4843     16.3695E-03     17.0664E-03
            4663            4844     14.4650E-03     15.1440E-03
            4664            4844     14.4650E-03     15.1440E-03
            4645            4844     14.4650E-03     15.1440E-03
            4646            4844     14.4650E-03     15.1440E-03
            4665            4845     12.6004E-03     13.2609E-03
            4647            4845     12.6004E-03     13.2609E-03
            4646            4845     12.6004E-03     13.2609E-03
            4664            4845     12.6004E-03     13.2609E-03
            4648            4846     10.7876E-03     11.4209E-03
            4666            4846     10.7876E-03     11.4209E-03
            4647            4846     10.7876E-03     11.4209E-03
            4665            4846     10.7876E-03     11.4209E-03
            4648            4847     9.05545E-03     9.64219E-03
            4667            4847     9.05545E-03     9.64219E-03
            4649            4847     9.05545E-03     9.64219E-03
            4666            4847     9.05545E-03     9.64219E-03
            4667            4848     7.45703E-03     7.94105E-03
            4650            4848     7.45703E-03     7.94105E-03
            4649            4848     7.45703E-03     7.94105E-03
            4668            4848     7.45703E-03     7.94105E-03
            4668            4849     6.08250E-03     6.40018E-03
            4669            4849     6.08250E-03     6.40018E-03
            4650            4849     6.08250E-03     6.40018E-03
            4651            4849     6.08250E-03     6.40018E-03
            4669            4850     5.11294E-03     5.14650E-03
            4651            4850     5.11294E-03     5.14650E-03
            4652            4850     5.11294E-03     5.14650E-03
            4670            4850     5.11294E-03     5.14650E-03
            4654            4851     33.7301E-03     34.1223E-03
            4653            4851     33.7301E-03     34.1223E-03
            4672            4851     33.7301E-03     34.1223E-03
            4671            4851     33.7301E-03     34.1223E-03
            4673            4852     31.8149E-03     32.4085E-03
            4672            4852     31.8149E-03     32.4085E-03
            4655            4852     31.8149E-03     32.4085E-03
            4654            4852     31.8149E-03     32.4085E-03
            4656            4853     30.0310E-03     30.7078E-03
            4673            4853     30.0310E-03     30.7078E-03
            4655            4853     30.0310E-03     30.7078E-03
            4674            4853     30.0310E-03     30.7078E-03
            4675            4854     28.2028E-03     28.9361E-03
            4656            4854     28.2028E-03     28.9361E-03
            4674            4854     28.2028E-03     28.9361E-03
            4657            4854     28.2028E-03     28.9361E-03
            4658            4855     26.3300E-03     27.0560E-03
            4676            4855     26.3300E-03     27.0560E-03
            4675            4855     26.3300E-03     27.0560E-03
            4657            4855     26.3300E-03     27.0560E-03
            4659            4856     24.4205E-03     25.1007E-03
            4658            4856     24.4205E-03     25.1007E-03
            4677            4856     24.4205E-03     25.1007E-03
            4676            4856     24.4205E-03     25.1007E-03
            4659            4857     22.4758E-03     23.1187E-03
            4677            4857     22.4758E-03     23.1187E-03
            4678            4857     22.4758E-03     23.1187E-03
            4660            4857     22.4758E-03     23.1187E-03
            4678            4858     20.5416E-03     21.1395E-03
            4661            4858     20.5416E-03     21.1395E-03
            4679            4858     20.5416E-03     21.1395E-03
            4660            4858     20.5416E-03     21.1395E-03
            4679            4859     18.6106E-03     19.1775E-03
            4661            4859     18.6106E-03     19.1775E-03
            4662            4859     18.6106E-03     19.1775E-03
            4680            4859     18.6106E-03     19.1775E-03
            4662            4860     16.7047E-03     17.2490E-03
            4681            4860     16.7047E-03     17.2490E-03
            4680            4860     16.7047E-03     17.2490E-03
            4663            4860     16.7047E-03     17.2490E-03
            4682            4861     14.8258E-03     15.3582E-03
            4681            4861     14.8258E-03     15.3582E-03
            4663            4861     14.8258E-03     15.3582E-03
            4664            4861     14.8258E-03     15.3582E-03
            4665            4862     12.9880E-03     13.5180E-03
            4683            4862     12.9880E-03     13.5180E-03
            4682            4862     12.9880E-03     13.5180E-03
            4664            4862     12.9880E-03     13.5180E-03
            4665            4863     11.2121E-03     11.7370E-03
            4683            4863     11.2121E-03     11.7370E-03
            4666            4863     11.2121E-03     11.7370E-03
            4684            4863     11.2121E-03     11.7370E-03
            4684            4864     9.53108E-03     10.0263E-03
            4685            4864     9.53108E-03     10.0263E-03
            4666            4864     9.53108E-03     10.0263E-03
            4667            4864     9.53108E-03     10.0263E-03
            4686            4865     8.00631E-03     8.43086E-03
            4668            4865     8.00631E-03     8.43086E-03
            4667            4865     8.00631E-03     8.43086E-03
            4685            4865     8.00631E-03     8.43086E-03
            4686            4866     6.74255E-03     6.99347E-03
            4669            4866     6.74255E-03     6.99347E-03
            4668            4866     6.74255E-03     6.99347E-03
            4687            4866     6.74255E-03     6.99347E-03
            4669            4867     5.86876E-03     5.87837E-03
            4687            4867     5.86876E-03     5.87837E-03
            4670            4867     5.86876E-03     5.87837E-03
            4688            4867     5.86876E-03     5.87837E-03
            4689            4868     31.7466E-03     32.1194E-03
            4690            4868     31.7466E-03     32.1194E-03
            4671            4868     31.7466E-03     32.1194E-03
            4672            4868     31.7466E-03     32.1194E-03
            4672            4869     30.2963E-03     30.8221E-03
            4690            4869     30.2963E-03     30.8221E-03
            4673            4869     30.2963E-03     30.8221E-03
            4691            4869     30.2963E-03     30.8221E-03
            4674            4870     28.9277E-03     29.5728E-03
            4673            4870     28.9277E-03     29.5728E-03
            4692            4870     28.9277E-03     29.5728E-03
            4691            4870     28.9277E-03     29.5728E-03
            4675            4871     27.5168E-03     28.1556E-03
            4693            4871     27.5168E-03     28.1556E-03
            4692            4871     27.5168E-03     28.1556E-03
            4674            4871     27.5168E-03     28.1556E-03
            4676            4872     25.9583E-03     26.5464E-03
            4693            4872     25.9583E-03     26.5464E-03
            4675            4872     25.9583E-03     26.5464E-03
            4694            4872     25.9583E-03     26.5464E-03
            4694            4873     24.2586E-03     24.7866E-03
            4677            4873     24.2586E-03     24.7866E-03
            4676            4873     24.2586E-03     24.7866E-03
            4695            4873     24.2586E-03     24.7866E-03
            4696            4874     22.4701E-03     22.9359E-03
            4678            4874     22.4701E-03     22.9359E-03
            4677            4874     22.4701E-03     22.9359E-03
            4695            4874     22.4701E-03     22.9359E-03
            4678            4875     20.6258E-03     21.0507E-03
            4696            4875     20.6258E-03     21.0507E-03
            4679            4875     20.6258E-03     21.0507E-03
            4697            4875     20.6258E-03     21.0507E-03
            4697            4876     18.7730E-03     19.1645E-03
            4679            4876     18.7730E-03     19.1645E-03
            4698            4876     18.7730E-03     19.1645E-03
            4680            4876     18.7730E-03     19.1645E-03
            4680            4877     16.9224E-03     17.2984E-03
            4681            4877     16.9224E-03     17.2984E-03
            4699            4877     16.9224E-03     17.2984E-03
            4698            4877     16.9224E-03     17.2984E-03
            4700            4878     15.0993E-03     15.4735E-03
            4681            4878     15.0993E-03     15.4735E-03
            4699            4878     15.0993E-03     15.4735E-03
            4682            4878     15.0993E-03     15.4735E-03
            4682            4879     13.3152E-03     13.7025E-03
            4683            4879     13.3152E-03     13.7025E-03
            4701            4879     13.3152E-03     13.7025E-03
            4700            4879     13.3152E-03     13.7025E-03
            4702            4880     11.5941E-03     12.0101E-03
            4684            4880     11.5941E-03     12.0101E-03
            4701            4880     11.5941E-03     12.0101E-03
            4683            4880     11.5941E-03     12.0101E-03
            4684            4881     9.98262E-03     10.4108E-03
            4703            4881     9.98262E-03     10.4108E-03
            4702            4881     9.98262E-03     10.4108E-03
            4685            4881     9.98262E-03     10.4108E-03
            4704            4882     8.54358E-03     8.92232E-03
            4686            4882     8.54358E-03     8.92232E-03
            4685            4882     8.54358E-03     8.92232E-03
            4703            4882     8.54358E-03     8.92232E-03
            4687            4883     7.38005E-03     7.63770E-03
            4704            4883     7.38005E-03     7.63770E-03
            4686            4883     7.38005E-03     7.63770E-03
            4705            4883     7.38005E-03     7.63770E-03
            4706            4884     6.62725E-03     6.61785E-03
            4705            4884     6.62725E-03     6.61785E-03
            4688            4884     6.62725E-03     6.61785E-03
            4687            4884     6.62725E-03     6.61785E-03
            4708            4885     29.6951E-03     29.9913E-03
            4690            4885     29.6951E-03     29.9913E-03
            4707            4885     29.6951E-03     29.9913E-03
            4689            4885     29.6951E-03     29.9913E-03
            4690            4886     28.6298E-03     29.1466E-03
            4709            4886     28.6298E-03     29.1466E-03
            4691            4886     28.6298E-03     29.1466E-03
            4708            4886     28.6298E-03     29.1466E-03
            4710            4887     27.7271E-03     28.2779E-03
            4692            4887     27.7271E-03     28.2779E-03
            4691            4887     27.7271E-03     28.2779E-03
            4709            4887     27.7271E-03     28.2779E-03
            4711            4888     26.6879E-03     27.1789E-03
            4692            4888     26.6879E-03     27.1789E-03
            4693            4888     26.6879E-03     27.1789E-03
            4710            4888     26.6879E-03     27.1789E-03
            4712            4889     25.4047E-03     25.8020E-03
            4693            4889     25.4047E-03     25.8020E-03
            4694            4889     25.4047E-03     25.8020E-03
            4711            4889     25.4047E-03     25.8020E-03
            4713            4890     23.9018E-03     24.2201E-03
            4712            4890     23.9018E-03     24.2201E-03
            4695            4890     23.9018E-03     24.2201E-03
            4694            4890     23.9018E-03     24.2201E-03
            4696            4891     22.2578E-03     22.5215E-03
            4714            4891     22.2578E-03     22.5215E-03
            4713            4891     22.2578E-03     22.5215E-03
            4695            4891     22.2578E-03     22.5215E-03
            4696            4892     20.5387E-03     20.7608E-03
            4715            4892     20.5387E-03     20.7608E-03
            4714            4892     20.5387E-03     20.7608E-03
            4697            4892     20.5387E-03     20.7608E-03
            4698            4893     18.7815E-03     18.9831E-03
            4697            4893     18.7815E-03     18.9831E-03
            4715            4893     18.7815E-03     18.9831E-03
            4716            4893     18.7815E-03     18.9831E-03
            4698            4894     17.0262E-03     17.2177E-03
            4716            4894     17.0262E-03     17.2177E-03
            4717            4894     17.0262E-03     17.2177E-03
            4699            4894     17.0262E-03     17.2177E-03
            4700            4895     15.2872E-03     15.4879E-03
            4699            4895     15.2872E-03     15.4879E-03
            4717            4895     15.2872E-03     15.4879E-03
            4718            4895     15.2872E-03     15.4879E-03
            4718            4896     13.5912E-03     13.8201E-03
            4701            4896     13.5912E-03     13.8201E-03
            4700            4896     13.5912E-03     13.8201E-03
            4719            4896     13.5912E-03     13.8201E-03
            4720            4897     11.9558E-03     12.2381E-03
            4701            4897     11.9558E-03     12.2381E-03
            4702            4897     11.9558E-03     12.2381E-03
            4719            4897     11.9558E-03     12.2381E-03
            4702            4898     10.4203E-03     10.7873E-03
            4721            4898     10.4203E-03     10.7873E-03
            4720            4898     10.4203E-03     10.7873E-03
            4703            4898     10.4203E-03     10.7873E-03
            4703            4899     9.08078E-03     9.46892E-03
            4722            4899     9.08078E-03     9.46892E-03
            4721            4899     9.08078E-03     9.46892E-03
            4704            4899     9.08078E-03     9.46892E-03
            4723            4900     8.02469E-03     8.29236E-03
            4704            4900     8.02469E-03     8.29236E-03
            4705            4900     8.02469E-03     8.29236E-03
            4722            4900     8.02469E-03     8.29236E-03
            4723            4901     7.35661E-03     7.44531E-03
            4724            4901     7.35661E-03     7.44531E-03
            4705            4901     7.35661E-03     7.44531E-03
            4706            4901     7.35661E-03     7.44531E-03
            4726            4902     27.4707E-03     27.7440E-03
            4708            4902     27.4707E-03     27.7440E-03
            4707            4902     27.4707E-03     27.7440E-03
            4725            4902     27.4707E-03     27.7440E-03
            4708            4903     26.8642E-03     27.2902E-03
            4709            4903     26.8642E-03     27.2902E-03
            4726            4903     26.8642E-03     27.2902E-03
            4727            4903     26.8642E-03     27.2902E-03
            4728            4904     26.4623E-03     26.8197E-03
            4709            4904     26.4623E-03     26.8197E-03
            4727            4904     26.4623E-03     26.8197E-03
            4710            4904     26.4623E-03     26.8197E-03
            4728            4905     25.7552E-03     25.9767E-03
            4710            4905     25.7552E-03     25.9767E-03
            4711            4905     25.7552E-03     25.9767E-03
            4729            4905     25.7552E-03     25.9767E-03
            4711            4906     24.6724E-03     24.7982E-03
            4729            4906     24.6724E-03     24.7982E-03
            4730            4906     24.6724E-03     24.7982E-03
            4712            4906     24.6724E-03     24.7982E-03
            4731            4907     23.3468E-03     23.4084E-03
            4730            4907     23.3468E-03     23.4084E-03
            4713            4907     23.3468E-03     23.4084E-03
            4712            4907     23.3468E-03     23.4084E-03
            4713            4908     21.8586E-03     21.8829E-03
            4732            4908     21.8586E-03     21.8829E-03
            4714            4908     21.8586E-03     21.8829E-03
            4731            4908     21.8586E-03     21.8829E-03
            4714            4909     20.2785E-03     20.2851E-03
            4733            4909     20.2785E-03     20.2851E-03
            4715            4909     20.2785E-03     20.2851E-03
            4732            4909     20.2785E-03     20.2851E-03
            4716            4910     18.6576E-03     18.6555E-03
            4715            4910     18.6576E-03     18.6555E-03
            4734            4910     18.6576E-03     18.6555E-03
            4733            4910     18.6576E-03     18.6555E-03
            4734            4911     17.0251E-03     17.0282E-03
            4716            4911     17.0251E-03     17.0282E-03
            4717            4911     17.0251E-03     17.0282E-03
            4735            4911     17.0251E-03     17.0282E-03
            4736            4912     15.4136E-03     15.4303E-03
            4718            4912     15.4136E-03     15.4303E-03
            4735            4912     15.4136E-03     15.4303E-03
            4717            4912     15.4136E-03     15.4303E-03
            4719            4913     13.8371E-03     13.8915E-03
            4718            4913     13.8371E-03     13.8915E-03
            4737            4913     13.8371E-03     13.8915E-03
            4736            4913     13.8371E-03     13.8915E-03
            4719            4914     12.3269E-03     12.4475E-03
            4738            4914     12.3269E-03     12.4475E-03
            4720            4914     12.3269E-03     12.4475E-03
            4737            4914     12.3269E-03     12.4475E-03
            4721            4915     10.9002E-03     11.1445E-03
            4739            4915     10.9002E-03     11.1445E-03
            4738            4915     10.9002E-03     11.1445E-03
            4720            4915     10.9002E-03     11.1445E-03
            4721            4916     9.62295E-03     10.0590E-03
            4722            4916     9.62295E-03     10.0590E-03
            4740            4916     9.62295E-03     10.0590E-03
            4739            4916     9.62295E-03     10.0590E-03
            4740            4917     8.68765E-03     9.10798E-03
            4741            4917     8.68765E-03     9.10798E-03
            4723            4917     8.68765E-03     9.10798E-03
            4722            4917     8.68765E-03     9.10798E-03
            4741            4918     8.13692E-03     8.25028E-03
            4723            4918     8.13692E-03     8.25028E-03
            4742            4918     8.13692E-03     8.25028E-03
            4724            4918     8.13692E-03     8.25028E-03
            4725            4919     25.0199E-03     25.1056E-03
            4726            4919     25.0199E-03     25.1056E-03
            4743            4919     25.0199E-03     25.1056E-03
            4744            4919     25.0199E-03     25.1056E-03
            4745            4920     25.1403E-03     25.2275E-03
            4727            4920     25.1403E-03     25.2275E-03
            4744            4920     25.1403E-03     25.2275E-03
            4726            4920     25.1403E-03     25.2275E-03
            4745            4921     25.2003E-03     25.1139E-03
            4727            4921     25.2003E-03     25.1139E-03
            4746            4921     25.2003E-03     25.1139E-03
            4728            4921     25.2003E-03     25.1139E-03
            4746            4922     24.6635E-03     24.4813E-03
            4728            4922     24.6635E-03     24.4813E-03
            4729            4922     24.6635E-03     24.4813E-03
            4747            4922     24.6635E-03     24.4813E-03
            4747            4923     23.7590E-03     23.5303E-03
            4748            4923     23.7590E-03     23.5303E-03
            4729            4923     23.7590E-03     23.5303E-03
            4730            4923     23.7590E-03     23.5303E-03
            4748            4924     22.6010E-03     22.3656E-03
            4730            4924     22.6010E-03     22.3656E-03
            4749            4924     22.6010E-03     22.3656E-03
            4731            4924     22.6010E-03     22.3656E-03
            4750            4925     21.2897E-03     21.0612E-03
            4749            4925     21.2897E-03     21.0612E-03
            4732            4925     21.2897E-03     21.0612E-03
            4731            4925     21.2897E-03     21.0612E-03
            4732            4926     19.8843E-03     19.6697E-03
            4733            4926     19.8843E-03     19.6697E-03
            4750            4926     19.8843E-03     19.6697E-03
            4751            4926     19.8843E-03     19.6697E-03
            4751            4927     18.4305E-03     18.2339E-03
            4752            4927     18.4305E-03     18.2339E-03
            4734            4927     18.4305E-03     18.2339E-03
            4733            4927     18.4305E-03     18.2339E-03
            4753            4928     16.9642E-03     16.7845E-03
            4752            4928     16.9642E-03     16.7845E-03
            4735            4928     16.9642E-03     16.7845E-03
            4734            4928     16.9642E-03     16.7845E-03
            4753            4929     15.5101E-03     15.3539E-03
            4754            4929     15.5101E-03     15.3539E-03
            4735            4929     15.5101E-03     15.3539E-03
            4736            4929     15.5101E-03     15.3539E-03
            4737            4930     14.0964E-03     13.9706E-03
            4755            4930     14.0964E-03     13.9706E-03
            4754            4930     14.0964E-03     13.9706E-03
            4736            4930     14.0964E-03     13.9706E-03
            4738            4931     12.7400E-03     12.6781E-03
            4755            4931     12.7400E-03     12.6781E-03
            4737            4931     12.7400E-03     12.6781E-03
            4756            4931     12.7400E-03     12.6781E-03
            4739            4932     11.4740E-03     11.5225E-03
            4756            4932     11.4740E-03     11.5225E-03
            4738            4932     11.4740E-03     11.5225E-03
            4757            4932     11.4740E-03     11.5225E-03
            4757            4933     10.2973E-03     10.6031E-03
            4739            4933     10.2973E-03     10.6031E-03
            4740            4933     10.2973E-03     10.6031E-03
            4758            4933     10.2973E-03     10.6031E-03
            4741            4934     9.31789E-03     10.0207E-03
            4740            4934     9.31789E-03     10.0207E-03
            4758            4934     9.31789E-03     10.0207E-03
            4759            4934     9.31789E-03     10.0207E-03
            4741            4935     8.91649E-03     9.48567E-03
            4742            4935     8.91649E-03     9.48567E-03
            4760            4935     8.91649E-03     9.48567E-03
            4759            4935     8.91649E-03     9.48567E-03
            4743            4936     22.7305E-03     21.9401E-03
            4762            4936     22.7305E-03     21.9401E-03
            4744            4936     22.7305E-03     21.9401E-03
            4761            4936     22.7305E-03     21.9401E-03
            4745            4937     23.6640E-03     22.8799E-03
            4763            4937     23.6640E-03     22.8799E-03
            4762            4937     23.6640E-03     22.8799E-03
            4744            4937     23.6640E-03     22.8799E-03
            4745            4938     23.8147E-03     23.0417E-03
            4763            4938     23.8147E-03     23.0417E-03
            4764            4938     23.8147E-03     23.0417E-03
            4746            4938     23.8147E-03     23.0417E-03
            4746            4939     23.3988E-03     22.6963E-03
            4747            4939     23.3988E-03     22.6963E-03
            4765            4939     23.3988E-03     22.6963E-03
            4764            4939     23.3988E-03     22.6963E-03
            4747            4940     22.6620E-03     22.0463E-03
            4765            4940     22.6620E-03     22.0463E-03
            4766            4940     22.6620E-03     22.0463E-03
            4748            4940     22.6620E-03     22.0463E-03
            4748            4941     21.7107E-03     21.1731E-03
            4766            4941     21.7107E-03     21.1731E-03
            4749            4941     21.7107E-03     21.1731E-03
            4767            4941     21.7107E-03     21.1731E-03
            4749            4942     20.6129E-03     20.1448E-03
            4767            4942     20.6129E-03     20.1448E-03
            4768            4942     20.6129E-03     20.1448E-03
            4750            4942     20.6129E-03     20.1448E-03
            4769            4943     19.4221E-03     19.0109E-03
            4750            4943     19.4221E-03     19.0109E-03
            4751            4943     19.4221E-03     19.0109E-03
            4768            4943     19.4221E-03     19.0109E-03
            4770            4944     18.1747E-03     17.8085E-03
            4752            4944     18.1747E-03     17.8085E-03
            4769            4944     18.1747E-03     17.8085E-03
            4751            4944     18.1747E-03     17.8085E-03
            4753            4945     16.9050E-03     16.5747E-03
            4771            4945     16.9050E-03     16.5747E-03
            4770            4945     16.9050E-03     16.5747E-03
            4752            4945     16.9050E-03     16.5747E-03
            4772            4946     15.6400E-03     15.3384E-03
            4771            4946     15.6400E-03     15.3384E-03
            4753            4946     15.6400E-03     15.3384E-03
            4754            4946     15.6400E-03     15.3384E-03
            4755            4947     14.4110E-03     14.1339E-03
            4773            4947     14.4110E-03     14.1339E-03
            4754            4947     14.4110E-03     14.1339E-03
            4772            4947     14.4110E-03     14.1339E-03
            4774            4948     13.2398E-03     12.9964E-03
            4773            4948     13.2398E-03     12.9964E-03
            4756            4948     13.2398E-03     12.9964E-03
            4755            4948     13.2398E-03     12.9964E-03
            4757            4949     12.1616E-03     11.9781E-03
            4774            4949     12.1616E-03     11.9781E-03
            4756            4949     12.1616E-03     11.9781E-03
            4775            4949     12.1616E-03     11.9781E-03
            4757            4950     11.1814E-03     11.1379E-03
            4776            4950     11.1814E-03     11.1379E-03
            4758            4950     11.1814E-03     11.1379E-03
            4775            4950     11.1814E-03     11.1379E-03
            4759            4951     10.2765E-03     10.6696E-03
            4777            4951     10.2765E-03     10.6696E-03
            4758            4951     10.2765E-03     10.6696E-03
            4776            4951     10.2765E-03     10.6696E-03
            4759            4952     9.56373E-03     10.6976E-03
            4777            4952     9.56373E-03     10.6976E-03
            4760            4952     9.56373E-03     10.6976E-03
            4778            4952     9.56373E-03     10.6976E-03
            4762            4953     21.6312E-03     21.9553E-03
            4780            4953     21.6312E-03     21.9553E-03
            4761            4953     21.6312E-03     21.9553E-03
            4779            4953     21.6312E-03     21.9553E-03
            4763            4954     19.8794E-03     19.7982E-03
            4780            4954     19.8794E-03     19.7982E-03
            4762            4954     19.8794E-03     19.7982E-03
            4781            4954     19.8794E-03     19.7982E-03
            4763            4955     18.7288E-03     18.6264E-03
            4764            4955     18.7288E-03     18.6264E-03
            4781            4955     18.7288E-03     18.6264E-03
            4782            4955     18.7288E-03     18.6264E-03
            4782            4956     17.6450E-03     17.6250E-03
            4783            4956     17.6450E-03     17.6250E-03
            4764            4956     17.6450E-03     17.6250E-03
            4765            4956     17.6450E-03     17.6250E-03
            4784            4957     16.6574E-03     16.7043E-03
            4766            4957     16.6574E-03     16.7043E-03
            4783            4957     16.6574E-03     16.7043E-03
            4765            4957     16.6574E-03     16.7043E-03
            4785            4958     15.6745E-03     15.8042E-03
            4784            4958     15.6745E-03     15.8042E-03
            4767            4958     15.6745E-03     15.8042E-03
            4766            4958     15.6745E-03     15.8042E-03
            4785            4959     14.7088E-03     14.8955E-03
            4786            4959     14.7088E-03     14.8955E-03
            4767            4959     14.7088E-03     14.8955E-03
            4768            4959     14.7088E-03     14.8955E-03
            4768            4960     13.7328E-03     13.9711E-03
            4787            4960     13.7328E-03     13.9711E-03
            4786            4960     13.7328E-03     13.9711E-03
            4769            4960     13.7328E-03     13.9711E-03
            4788            4961     12.7582E-03     13.0300E-03
            4770            4961     12.7582E-03     13.0300E-03
            4787            4961     12.7582E-03     13.0300E-03
            4769            4961     12.7582E-03     13.0300E-03
            4788            4962     11.7840E-03     12.0804E-03
            4770            4962     11.7840E-03     12.0804E-03
            4771            4962     11.7840E-03     12.0804E-03
            4789            4962     11.7840E-03     12.0804E-03
            4789            4963     10.8229E-03     11.1296E-03
            4771            4963     10.8229E-03     11.1296E-03
            4772            4963     10.8229E-03     11.1296E-03
            4790            4963     10.8229E-03     11.1296E-03
            4772            4964     9.88826E-03     10.1975E-03
            4791            4964     9.88826E-03     10.1975E-03
            4773            4964     9.88826E-03     10.1975E-03
            4790            4964     9.88826E-03     10.1975E-03
            4792            4965     8.99590E-03     9.29124E-03
            4791            4965     8.99590E-03     9.29124E-03
            4773            4965     8.99590E-03     9.29124E-03
            4774            4965     8.99590E-03     9.29124E-03
            4775            4966     8.16707E-03     8.45476E-03
            4792            4966     8.16707E-03     8.45476E-03
            4793            4966     8.16707E-03     8.45476E-03
            4774            4966     8.16707E-03     8.45476E-03
            4776            4967     7.41777E-03     7.68806E-03
            4775            4967     7.41777E-03     7.68806E-03
            4793            4967     7.41777E-03     7.68806E-03
            4794            4967     7.41777E-03     7.68806E-03
            4794            4968     6.76769E-03     7.12815E-03
            4776            4968     6.76769E-03     7.12815E-03
            4777            4968     6.76769E-03     7.12815E-03
            4795            4968     6.76769E-03     7.12815E-03
            4796            4969     6.00429E-03     6.93686E-03
            4777            4969     6.00429E-03     6.93686E-03
            4778            4969     6.00429E-03     6.93686E-03
            4795            4969     6.00429E-03     6.93686E-03
            4779            4970     21.9064E-03     22.6934E-03
            4798            4970     21.9064E-03     22.6934E-03
            4780            4970     21.9064E-03     22.6934E-03
            4797            4970     21.9064E-03     22.6934E-03
            4798            4971     17.2739E-03     18.2187E-03
            4799            4971     17.2739E-03     18.2187E-03
            4780            4971     17.2739E-03     18.2187E-03
            4781            4971     17.2739E-03     18.2187E-03
            4781            4972     14.5491E-03     15.4358E-03
            4782            4972     14.5491E-03     15.4358E-03
            4799            4972     14.5491E-03     15.4358E-03
            4800            4972     14.5491E-03     15.4358E-03
            4801            4973     12.7774E-03     13.6348E-03
            4782            4973     12.7774E-03     13.6348E-03
            4783            4973     12.7774E-03     13.6348E-03
            4800            4973     12.7774E-03     13.6348E-03
            4783            4974     11.3887E-03     12.2536E-03
            4802            4974     11.3887E-03     12.2536E-03
            4784            4974     11.3887E-03     12.2536E-03
            4801            4974     11.3887E-03     12.2536E-03
            4803            4975     10.2872E-03     11.1640E-03
            4784            4975     10.2872E-03     11.1640E-03
            4802            4975     10.2872E-03     11.1640E-03
            4785            4975     10.2872E-03     11.1640E-03
            4804            4976     9.32326E-03     10.2141E-03
            4785            4976     9.32326E-03     10.2141E-03
            4786            4976     9.32326E-03     10.2141E-03
            4803            4976     9.32326E-03     10.2141E-03
            4805            4977     8.45929E-03     9.36058E-03
            4786            4977     8.45929E-03     9.36058E-03
            4804            4977     8.45929E-03     9.36058E-03
            4787            4977     8.45929E-03     9.36058E-03
            4788            4978     7.64505E-03     8.54966E-03
            4806            4978     7.64505E-03     8.54966E-03
            4805            4978     7.64505E-03     8.54966E-03
            4787            4978     7.64505E-03     8.54966E-03
            4806            4979     6.86829E-03     7.76972E-03
            4788            4979     6.86829E-03     7.76972E-03
            4807            4979     6.86829E-03     7.76972E-03
            4789            4979     6.86829E-03     7.76972E-03
            4790            4980     6.11471E-03     7.00292E-03
            4808            4980     6.11471E-03     7.00292E-03
            4807            4980     6.11471E-03     7.00292E-03
            4789            4980     6.11471E-03     7.00292E-03
            4790            4981     5.38618E-03     6.24959E-03
            4791            4981     5.38618E-03     6.24959E-03
            4808            4981     5.38618E-03     6.24959E-03
            4809            4981     5.38618E-03     6.24959E-03
            4792            4982     4.68351E-03     5.50898E-03
            4810            4982     4.68351E-03     5.50898E-03
            4809            4982     4.68351E-03     5.50898E-03
            4791            4982     4.68351E-03     5.50898E-03
            4810            4983     4.02070E-03     4.79024E-03
            4792            4983     4.02070E-03     4.79024E-03
            4811            4983     4.02070E-03     4.79024E-03
            4793            4983     4.02070E-03     4.79024E-03
            4793            4984     3.41124E-03     4.10678E-03
            4811            4984     3.41124E-03     4.10678E-03
            4812            4984     3.41124E-03     4.10678E-03
            4794            4984     3.41124E-03     4.10678E-03
            4795            4985     2.88156E-03     3.50322E-03
            4794            4985     2.88156E-03     3.50322E-03
            4812            4985     2.88156E-03     3.50322E-03
            4813            4985     2.88156E-03     3.50322E-03
            4813            4986     2.52099E-03     2.97850E-03
            4796            4986     2.52099E-03     2.97850E-03
            4795            4986     2.52099E-03     2.97850E-03
            4814            4986     2.52099E-03     2.97850E-03
            4797            4987     21.1526E-03     21.2305E-03
            4798            4987     21.1526E-03     21.2305E-03
            4816            4987     21.1526E-03     21.2305E-03
            4815            4987     21.1526E-03     21.2305E-03
            4816            4988     17.7650E-03     18.1742E-03
            4799            4988     17.7650E-03     18.1742E-03
            4798            4988     17.7650E-03     18.1742E-03
            4817            4988     17.7650E-03     18.1742E-03
            4817            4989     14.9176E-03     15.5789E-03
            4799            4989     14.9176E-03     15.5789E-03
            4818            4989     14.9176E-03     15.5789E-03
            4800            4989     14.9176E-03     15.5789E-03
            4819            4990     13.0944E-03     13.8224E-03
            4818            4990     13.0944E-03     13.8224E-03
            4801            4990     13.0944E-03     13.8224E-03
            4800            4990     13.0944E-03     13.8224E-03
            4801            4991     11.7373E-03     12.4802E-03
            4802            4991     11.7373E-03     12.4802E-03
            4819            4991     11.7373E-03     12.4802E-03
            4820            4991     11.7373E-03     12.4802E-03
            4820            4992     10.6291E-03     11.3884E-03
            4821            4992     10.6291E-03     11.3884E-03
            4802            4992     10.6291E-03     11.3884E-03
            4803            4992     10.6291E-03     11.3884E-03
            4804            4993     9.68673E-03     10.4443E-03
            4821            4993     9.68673E-03     10.4443E-03
            4822            4993     9.68673E-03     10.4443E-03
            4803            4993     9.68673E-03     10.4443E-03
            4822            4994     8.82374E-03     9.58028E-03
            4804            4994     8.82374E-03     9.58028E-03
            4805            4994     8.82374E-03     9.58028E-03
            4823            4994     8.82374E-03     9.58028E-03
            4806            4995     8.01904E-03     8.76721E-03
            4823            4995     8.01904E-03     8.76721E-03
            4805            4995     8.01904E-03     8.76721E-03
            4824            4995     8.01904E-03     8.76721E-03
            4807            4996     7.24477E-03     7.98060E-03
            4825            4996     7.24477E-03     7.98060E-03
            4824            4996     7.24477E-03     7.98060E-03
            4806            4996     7.24477E-03     7.98060E-03
            4825            4997     6.49983E-03     7.21532E-03
            4808            4997     6.49983E-03     7.21532E-03
            4826            4997     6.49983E-03     7.21532E-03
            4807            4997     6.49983E-03     7.21532E-03
            4827            4998     5.78104E-03     6.46594E-03
            4808            4998     5.78104E-03     6.46594E-03
            4809            4998     5.78104E-03     6.46594E-03
            4826            4998     5.78104E-03     6.46594E-03
            4810            4999     5.09799E-03     5.73746E-03
            4827            4999     5.09799E-03     5.73746E-03
            4809            4999     5.09799E-03     5.73746E-03
            4828            4999     5.09799E-03     5.73746E-03
            4828            5000     4.46400E-03     5.03560E-03
            4829            5000     4.46400E-03     5.03560E-03
            4810            5000     4.46400E-03     5.03560E-03
            4811            5000     4.46400E-03     5.03560E-03
            4811            5001     3.89804E-03     4.38274E-03
            4829            5001     3.89804E-03     4.38274E-03
            4830            5001     3.89804E-03     4.38274E-03
            4812            5001     3.89804E-03     4.38274E-03
            4813            5002     3.45533E-03     3.78442E-03
            4812            5002     3.45533E-03     3.78442E-03
            4830            5002     3.45533E-03     3.78442E-03
            4831            5002     3.45533E-03     3.78442E-03
            4831            5003     3.20974E-03     3.23547E-03
            4813            5003     3.20974E-03     3.23547E-03
            4814            5003     3.20974E-03     3.23547E-03
            4832            5003     3.20974E-03     3.23547E-03
            4833            5004     19.3250E-03     19.7260E-03
            4816            5004     19.3250E-03     19.7260E-03
            4834            5004     19.3250E-03     19.7260E-03
            4815            5004     19.3250E-03     19.7260E-03
            4835            5005     17.0925E-03     17.4248E-03
            4816            5005     17.0925E-03     17.4248E-03
            4834            5005     17.0925E-03     17.4248E-03
            4817            5005     17.0925E-03     17.4248E-03
            4817            5006     14.9985E-03     15.4510E-03
            4835            5006     14.9985E-03     15.4510E-03
            4818            5006     14.9985E-03     15.4510E-03
            4836            5006     14.9985E-03     15.4510E-03
            4818            5007     13.2831E-03     13.8701E-03
            4836            5007     13.2831E-03     13.8701E-03
            4837            5007     13.2831E-03     13.8701E-03
            4819            5007     13.2831E-03     13.8701E-03
            4819            5008     12.0255E-03     12.6503E-03
            4837            5008     12.0255E-03     12.6503E-03
            4838            5008     12.0255E-03     12.6503E-03
            4820            5008     12.0255E-03     12.6503E-03
            4838            5009     10.9752E-03     11.6044E-03
            4839            5009     10.9752E-03     11.6044E-03
            4820            5009     10.9752E-03     11.6044E-03
            4821            5009     10.9752E-03     11.6044E-03
            4840            5010     10.0496E-03     10.6774E-03
            4839            5010     10.0496E-03     10.6774E-03
            4821            5010     10.0496E-03     10.6774E-03
            4822            5010     10.0496E-03     10.6774E-03
            4841            5011     9.20179E-03     9.81491E-03
            4840            5011     9.20179E-03     9.81491E-03
            4823            5011     9.20179E-03     9.81491E-03
            4822            5011     9.20179E-03     9.81491E-03
            4841            5012     8.39496E-03     8.99486E-03
            4842            5012     8.39496E-03     8.99486E-03
            4824            5012     8.39496E-03     8.99486E-03
            4823            5012     8.39496E-03     8.99486E-03
            4843            5013     7.62327E-03     8.20432E-03
            4825            5013     7.62327E-03     8.20432E-03
            4824            5013     7.62327E-03     8.20432E-03
            4842            5013     7.62327E-03     8.20432E-03
            4825            5014     6.87883E-03     7.43674E-03
            4844            5014     6.87883E-03     7.43674E-03
            4826            5014     6.87883E-03     7.43674E-03
            4843            5014     6.87883E-03     7.43674E-03
            4827            5015     6.16791E-03     6.69270E-03
            4845            5015     6.16791E-03     6.69270E-03
            4844            5015     6.16791E-03     6.69270E-03
            4826            5015     6.16791E-03     6.69270E-03
            4827            5016     5.50041E-03     5.97427E-03
            4845            5016     5.50041E-03     5.97427E-03
            4846            5016     5.50041E-03     5.97427E-03
            4828            5016     5.50041E-03     5.97427E-03
            4829            5017     4.89141E-03     5.29019E-03
            4846            5017     4.89141E-03     5.29019E-03
            4828            5017     4.89141E-03     5.29019E-03
            4847            5017     4.89141E-03     5.29019E-03
            4847            5018     4.37274E-03     4.65164E-03
            4848            5018     4.37274E-03     4.65164E-03
            4829            5018     4.37274E-03     4.65164E-03
            4830            5018     4.37274E-03     4.65164E-03
            4831            5019     3.98679E-03     4.05972E-03
            4849            5019     3.98679E-03     4.05972E-03
            4848            5019     3.98679E-03     4.05972E-03
            4830            5019     3.98679E-03     4.05972E-03
            4850            5020     3.71058E-03     3.58167E-03
            4832            5020     3.71058E-03     3.58167E-03
            4831            5020     3.71058E-03     3.58167E-03
            4849            5020     3.71058E-03     3.58167E-03
            4834            5021     17.6878E-03     17.8981E-03
            4852            5021     17.6878E-03     17.8981E-03
            4833            5021     17.6878E-03     17.8981E-03
            4851            5021     17.6878E-03     17.8981E-03
            4834            5022     15.9130E-03     16.2825E-03
            4835            5022     15.9130E-03     16.2825E-03
            4852            5022     15.9130E-03     16.2825E-03
            4853            5022     15.9130E-03     16.2825E-03
            4836            5023     14.4904E-03     14.9094E-03
            4835            5023     14.4904E-03     14.9094E-03
            4854            5023     14.4904E-03     14.9094E-03
            4853            5023     14.4904E-03     14.9094E-03
            4836            5024     13.2538E-03     13.7206E-03
            4855            5024     13.2538E-03     13.7206E-03
            4837            5024     13.2538E-03     13.7206E-03
            4854            5024     13.2538E-03     13.7206E-03
            4837            5025     12.1688E-03     12.6789E-03
            4838            5025     12.1688E-03     12.6789E-03
            4855            5025     12.1688E-03     12.6789E-03
            4856            5025     12.1688E-03     12.6789E-03
            4838            5026     11.2398E-03     11.7448E-03
            4857            5026     11.2398E-03     11.7448E-03
            4839            5026     11.2398E-03     11.7448E-03
            4856            5026     11.2398E-03     11.7448E-03
            4840            5027     10.3690E-03     10.8588E-03
            4857            5027     10.3690E-03     10.8588E-03
            4839            5027     10.3690E-03     10.8588E-03
            4858            5027     10.3690E-03     10.8588E-03
            4840            5028     9.54237E-03     10.0148E-03
            4841            5028     9.54237E-03     10.0148E-03
            4858            5028     9.54237E-03     10.0148E-03
            4859            5028     9.54237E-03     10.0148E-03
            4841            5029     8.74538E-03     9.19786E-03
            4842            5029     8.74538E-03     9.19786E-03
            4860            5029     8.74538E-03     9.19786E-03
            4859            5029     8.74538E-03     9.19786E-03
            4842            5030     7.97461E-03     8.40847E-03
            4861            5030     7.97461E-03     8.40847E-03
            4843            5030     7.97461E-03     8.40847E-03
            4860            5030     7.97461E-03     8.40847E-03
            4862            5031     7.23350E-03     7.64551E-03
            4844            5031     7.23350E-03     7.64551E-03
            4861            5031     7.23350E-03     7.64551E-03
            4843            5031     7.23350E-03     7.64551E-03
            4862            5032     6.52958E-03     6.91091E-03
            4863            5032     6.52958E-03     6.91091E-03
            4844            5032     6.52958E-03     6.91091E-03
            4845            5032     6.52958E-03     6.91091E-03
            4845            5033     5.87398E-03     6.20858E-03
            4846            5033     5.87398E-03     6.20858E-03
            4863            5033     5.87398E-03     6.20858E-03
            4864            5033     5.87398E-03     6.20858E-03
            4865            5034     5.28894E-03     5.54683E-03
            4846            5034     5.28894E-03     5.54683E-03
            4847            5034     5.28894E-03     5.54683E-03
            4864            5034     5.28894E-03     5.54683E-03
            4866            5035     4.79993E-03     4.92695E-03
            4847            5035     4.79993E-03     4.92695E-03
            4865            5035     4.79993E-03     4.92695E-03
            4848            5035     4.79993E-03     4.92695E-03
            4849            5036     4.41360E-03     4.39265E-03
            4866            5036     4.41360E-03     4.39265E-03
            4867            5036     4.41360E-03     4.39265E-03
            4848            5036     4.41360E-03     4.39265E-03
            4867            5037     4.15993E-03     3.98016E-03
            4868            5037     4.15993E-03     3.98016E-03
            4849            5037     4.15993E-03     3.98016E-03
            4850            5037     4.15993E-03     3.98016E-03
            4869            5038     15.9580E-03     16.1850E-03
            4870            5038     15.9580E-03     16.1850E-03
            4851            5038     15.9580E-03     16.1850E-03
            4852            5038     15.9580E-03     16.1850E-03
            4852            5039     14.6931E-03     14.9731E-03
            4870            5039     14.6931E-03     14.9731E-03
            4871            5039     14.6931E-03     14.9731E-03
            4853            5039     14.6931E-03     14.9731E-03
            4853            5040     13.7285E-03     14.1127E-03
            4871            5040     13.7285E-03     14.1127E-03
            4872            5040     13.7285E-03     14.1127E-03
            4854            5040     13.7285E-03     14.1127E-03
            4873            5041     12.9346E-03     13.3411E-03
            4854            5041     12.9346E-03     13.3411E-03
            4872            5041     12.9346E-03     13.3411E-03
            4855            5041     12.9346E-03     13.3411E-03
            4874            5042     12.1676E-03     12.5591E-03
            4856            5042     12.1676E-03     12.5591E-03
            4855            5042     12.1676E-03     12.5591E-03
            4873            5042     12.1676E-03     12.5591E-03
            4875            5043     11.3815E-03     11.7580E-03
            4874            5043     11.3815E-03     11.7580E-03
            4857            5043     11.3815E-03     11.7580E-03
            4856            5043     11.3815E-03     11.7580E-03
            4857            5044     10.6016E-03     10.9489E-03
            4875            5044     10.6016E-03     10.9489E-03
            4876            5044     10.6016E-03     10.9489E-03
            4858            5044     10.6016E-03     10.9489E-03
            4858            5045     9.81242E-03     10.1372E-03
            4876            5045     9.81242E-03     10.1372E-03
            4877            5045     9.81242E-03     10.1372E-03
            4859            5045     9.81242E-03     10.1372E-03
            4877            5046     9.03626E-03     9.34151E-03
            4859            5046     9.03626E-03     9.34151E-03
            4878            5046     9.03626E-03     9.34151E-03
            4860            5046     9.03626E-03     9.34151E-03
            4878            5047     8.27662E-03     8.56540E-03
            4879            5047     8.27662E-03     8.56540E-03
            4860            5047     8.27662E-03     8.56540E-03
            4861            5047     8.27662E-03     8.56540E-03
            4879            5048     7.54529E-03     7.81833E-03
            4862            5048     7.54529E-03     7.81833E-03
            4861            5048     7.54529E-03     7.81833E-03
            4880            5048     7.54529E-03     7.81833E-03
            4880            5049     6.85092E-03     7.10548E-03
            4881            5049     6.85092E-03     7.10548E-03
            4862            5049     6.85092E-03     7.10548E-03
            4863            5049     6.85092E-03     7.10548E-03
            4882            5050     6.21126E-03     6.43187E-03
            4863            5050     6.21126E-03     6.43187E-03
            4881            5050     6.21126E-03     6.43187E-03
            4864            5050     6.21126E-03     6.43187E-03
            4883            5051     5.64339E-03     5.79978E-03
            4882            5051     5.64339E-03     5.79978E-03
            4865            5051     5.64339E-03     5.79978E-03
            4864            5051     5.64339E-03     5.79978E-03
            4865            5052     5.16801E-03     5.23137E-03
            4884            5052     5.16801E-03     5.23137E-03
            4883            5052     5.16801E-03     5.23137E-03
            4866            5052     5.16801E-03     5.23137E-03
            4885            5053     4.81117E-03     4.73547E-03
            4866            5053     4.81117E-03     4.73547E-03
            4867            5053     4.81117E-03     4.73547E-03
            4884            5053     4.81117E-03     4.73547E-03
            4885            5054     4.57124E-03     4.36326E-03
            4886            5054     4.57124E-03     4.36326E-03
            4867            5054     4.57124E-03     4.36326E-03
            4868            5054     4.57124E-03     4.36326E-03
            4888            5055     14.2781E-03     14.4130E-03
            4870            5055     14.2781E-03     14.4130E-03
            4887            5055     14.2781E-03     14.4130E-03
            4869            5055     14.2781E-03     14.4130E-03
            4889            5056     13.3516E-03     13.6328E-03
            4888            5056     13.3516E-03     13.6328E-03
            4871            5056     13.3516E-03     13.6328E-03
            4870            5056     13.3516E-03     13.6328E-03
            4872            5057     12.8865E-03     13.2038E-03
            4890            5057     12.8865E-03     13.2038E-03
            4889            5057     12.8865E-03     13.2038E-03
            4871            5057     12.8865E-03     13.2038E-03
            4873            5058     12.4862E-03     12.8046E-03
            4890            5058     12.4862E-03     12.8046E-03
            4872            5058     12.4862E-03     12.8046E-03
            4891            5058     12.4862E-03     12.8046E-03
            4892            5059     12.0083E-03     12.2847E-03
            4874            5059     12.0083E-03     12.2847E-03
            4891            5059     12.0083E-03     12.2847E-03
            4873            5059     12.0083E-03     12.2847E-03
            4874            5060     11.4107E-03     11.6351E-03
            4892            5060     11.4107E-03     11.6351E-03
            4893            5060     11.4107E-03     11.6351E-03
            4875            5060     11.4107E-03     11.6351E-03
            4894            5061     10.7156E-03     10.9112E-03
            4875            5061     10.7156E-03     10.9112E-03
            4876            5061     10.7156E-03     10.9112E-03
            4893            5061     10.7156E-03     10.9112E-03
            4876            5062     9.98900E-03     10.1575E-03
            4895            5062     9.98900E-03     10.1575E-03
            4894            5062     9.98900E-03     10.1575E-03
            4877            5062     9.98900E-03     10.1575E-03
            4877            5063     9.24453E-03     9.39778E-03
            4896            5063     9.24453E-03     9.39778E-03
            4878            5063     9.24453E-03     9.39778E-03
            4895            5063     9.24453E-03     9.39778E-03
            4897            5064     8.51242E-03     8.65523E-03
            4896            5064     8.51242E-03     8.65523E-03
            4879            5064     8.51242E-03     8.65523E-03
            4878            5064     8.51242E-03     8.65523E-03
            4879            5065     7.80219E-03     7.94004E-03
            4880            5065     7.80219E-03     7.94004E-03
            4897            5065     7.80219E-03     7.94004E-03
            4898            5065     7.80219E-03     7.94004E-03
            4898            5066     7.12920E-03     7.26389E-03
            4899            5066     7.12920E-03     7.26389E-03
            4880            5066     7.12920E-03     7.26389E-03
            4881            5066     7.12920E-03     7.26389E-03
            4881            5067     6.50634E-03     6.63612E-03
            4882            5067     6.50634E-03     6.63612E-03
            4899            5067     6.50634E-03     6.63612E-03
            4900            5067     6.50634E-03     6.63612E-03
            4882            5068     5.95811E-03     6.05937E-03
            4901            5068     5.95811E-03     6.05937E-03
            4900            5068     5.95811E-03     6.05937E-03
            4883            5068     5.95811E-03     6.05937E-03
            4902            5069     5.50447E-03     5.53580E-03
            4883            5069     5.50447E-03     5.53580E-03
            4901            5069     5.50447E-03     5.53580E-03
            4884            5069     5.50447E-03     5.53580E-03
            4902            5070     5.16848E-03     5.09991E-03
            4903            5070     5.16848E-03     5.09991E-03
            4885            5070     5.16848E-03     5.09991E-03
            4884            5070     5.16848E-03     5.09991E-03
            4904            5071     4.96380E-03     4.75361E-03
            4903            5071     4.96380E-03     4.75361E-03
            4886            5071     4.96380E-03     4.75361E-03
            4885            5071     4.96380E-03     4.75361E-03
            4887            5072     12.5027E-03     12.6100E-03
            4888            5072     12.5027E-03     12.6100E-03
            4905            5072     12.5027E-03     12.6100E-03
            4906            5072     12.5027E-03     12.6100E-03
            4889            5073     11.9987E-03     12.2123E-03
            4907            5073     11.9987E-03     12.2123E-03
            4906            5073     11.9987E-03     12.2123E-03
            4888            5073     11.9987E-03     12.2123E-03
            4908            5074     11.9823E-03     12.2425E-03
            4907            5074     11.9823E-03     12.2425E-03
            4890            5074     11.9823E-03     12.2425E-03
            4889            5074     11.9823E-03     12.2425E-03
            4891            5075     11.9947E-03     12.1800E-03
            4908            5075     11.9947E-03     12.1800E-03
            4890            5075     11.9947E-03     12.1800E-03
            4909            5075     11.9947E-03     12.1800E-03
            4909            5076     11.7616E-03     11.8680E-03
            4892            5076     11.7616E-03     11.8680E-03
            4891            5076     11.7616E-03     11.8680E-03
            4910            5076     11.7616E-03     11.8680E-03
            4910            5077     11.3015E-03     11.3596E-03
            4911            5077     11.3015E-03     11.3596E-03
            4892            5077     11.3015E-03     11.3596E-03
            4893            5077     11.3015E-03     11.3596E-03
            4894            5078     10.7152E-03     10.7363E-03
            4911            5078     10.7152E-03     10.7363E-03
            4893            5078     10.7152E-03     10.7363E-03
            4912            5078     10.7152E-03     10.7363E-03
            4912            5079     10.0496E-03     10.0547E-03
            4895            5079     10.0496E-03     10.0547E-03
            4894            5079     10.0496E-03     10.0547E-03
            4913            5079     10.0496E-03     10.0547E-03
            4913            5080     9.36284E-03     9.35802E-03
            4914            5080     9.36284E-03     9.35802E-03
            4896            5080     9.36284E-03     9.35802E-03
            4895            5080     9.36284E-03     9.35802E-03
            4897            5081     8.67334E-03     8.66794E-03
            4914            5081     8.67334E-03     8.66794E-03
            4915            5081     8.67334E-03     8.66794E-03
            4896            5081     8.67334E-03     8.66794E-03
            4897            5082     8.00412E-03     8.00569E-03
            4915            5082     8.00412E-03     8.00569E-03
            4916            5082     8.00412E-03     8.00569E-03
            4898            5082     8.00412E-03     8.00569E-03
            4917            5083     7.36699E-03     7.38369E-03
            4898            5083     7.36699E-03     7.38369E-03
            4899            5083     7.36699E-03     7.38369E-03
            4916            5083     7.36699E-03     7.38369E-03
            4900            5084     6.77354E-03     6.81556E-03
            4899            5084     6.77354E-03     6.81556E-03
            4918            5084     6.77354E-03     6.81556E-03
            4917            5084     6.77354E-03     6.81556E-03
            4901            5085     6.24255E-03     6.31695E-03
            4919            5085     6.24255E-03     6.31695E-03
            4918            5085     6.24255E-03     6.31695E-03
            4900            5085     6.24255E-03     6.31695E-03
            4919            5086     5.81634E-03     5.86836E-03
            4920            5086     5.81634E-03     5.86836E-03
            4901            5086     5.81634E-03     5.86836E-03
            4902            5086     5.81634E-03     5.86836E-03
            4920            5087     5.50555E-03     5.46516E-03
            4903            5087     5.50555E-03     5.46516E-03
            4921            5087     5.50555E-03     5.46516E-03
            4902            5087     5.50555E-03     5.46516E-03
            4922            5088     5.32255E-03     5.18803E-03
            4921            5088     5.32255E-03     5.18803E-03
            4904            5088     5.32255E-03     5.18803E-03
            4903            5088     5.32255E-03     5.18803E-03
            4905            5089     10.6659E-03     10.6794E-03
            4923            5089     10.6659E-03     10.6794E-03
            4906            5089     10.6659E-03     10.6794E-03
            4924            5089     10.6659E-03     10.6794E-03
            4906            5090     10.5756E-03     10.7569E-03
            4924            5090     10.5756E-03     10.7569E-03
            4907            5090     10.5756E-03     10.7569E-03
            4925            5090     10.5756E-03     10.7569E-03
            4925            5091     11.1655E-03     11.2539E-03
            4907            5091     11.1655E-03     11.2539E-03
            4908            5091     11.1655E-03     11.2539E-03
            4926            5091     11.1655E-03     11.2539E-03
            4908            5092     11.4924E-03     11.4565E-03
            4909            5092     11.4924E-03     11.4565E-03
            4926            5092     11.4924E-03     11.4565E-03
            4927            5092     11.4924E-03     11.4565E-03
            4928            5093     11.4084E-03     11.3015E-03
            4927            5093     11.4084E-03     11.3015E-03
            4910            5093     11.4084E-03     11.3015E-03
            4909            5093     11.4084E-03     11.3015E-03
            4910            5094     11.0750E-03     10.9273E-03
            4929            5094     11.0750E-03     10.9273E-03
            4928            5094     11.0750E-03     10.9273E-03
            4911            5094     11.0750E-03     10.9273E-03
            4912            5095     10.5784E-03     10.4160E-03
            4930            5095     10.5784E-03     10.4160E-03
            4929            5095     10.5784E-03     10.4160E-03
            4911            5095     10.5784E-03     10.4160E-03
            4930            5096     10.0033E-03     9.83483E-03
            4912            5096     10.0033E-03     9.83483E-03
            4913            5096     10.0033E-03     9.83483E-03
            4931            5096     10.0033E-03     9.83483E-03
            4932            5097     9.38775E-03     9.22404E-03
            4914            5097     9.38775E-03     9.22404E-03
            4913            5097     9.38775E-03     9.22404E-03
            4931            5097     9.38775E-03     9.22404E-03
            4914            5098     8.76807E-03     8.61428E-03
            4933            5098     8.76807E-03     8.61428E-03
            4915            5098     8.76807E-03     8.61428E-03
            4932            5098     8.76807E-03     8.61428E-03
            4915            5099     8.16012E-03     8.02390E-03
            4934            5099     8.16012E-03     8.02390E-03
            4916            5099     8.16012E-03     8.02390E-03
            4933            5099     8.16012E-03     8.02390E-03
            4917            5100     7.57754E-03     7.47309E-03
            4934            5100     7.57754E-03     7.47309E-03
            4935            5100     7.57754E-03     7.47309E-03
            4916            5100     7.57754E-03     7.47309E-03
            4918            5101     7.03355E-03     6.97646E-03
            4935            5101     7.03355E-03     6.97646E-03
            4917            5101     7.03355E-03     6.97646E-03
            4936            5101     7.03355E-03     6.97646E-03
            4937            5102     6.53100E-03     6.55434E-03
            4936            5102     6.53100E-03     6.55434E-03
            4918            5102     6.53100E-03     6.55434E-03
            4919            5102     6.53100E-03     6.55434E-03
            4919            5103     6.10016E-03     6.22928E-03
            4937            5103     6.10016E-03     6.22928E-03
            4938            5103     6.10016E-03     6.22928E-03
            4920            5103     6.10016E-03     6.22928E-03
            4921            5104     5.83159E-03     5.91786E-03
            4938            5104     5.83159E-03     5.91786E-03
            4939            5104     5.83159E-03     5.91786E-03
            4920            5104     5.83159E-03     5.91786E-03
            4922            5105     5.69204E-03     5.59303E-03
            4940            5105     5.69204E-03     5.59303E-03
            4921            5105     5.69204E-03     5.59303E-03
            4939            5105     5.69204E-03     5.59303E-03
            4924            5106     8.69227E-03     8.65109E-03
            4941            5106     8.69227E-03     8.65109E-03
            4923            5106     8.69227E-03     8.65109E-03
            4942            5106     8.69227E-03     8.65109E-03
            4925            5107     9.36278E-03     9.28064E-03
            4942            5107     9.36278E-03     9.28064E-03
            4943            5107     9.36278E-03     9.28064E-03
            4924            5107     9.36278E-03     9.28064E-03
            4925            5108     10.4813E-03     10.2130E-03
            4944            5108     10.4813E-03     10.2130E-03
            4943            5108     10.4813E-03     10.2130E-03
            4926            5108     10.4813E-03     10.2130E-03
            4927            5109     10.9105E-03     10.5629E-03
            4926            5109     10.9105E-03     10.5629E-03
            4944            5109     10.9105E-03     10.5629E-03
            4945            5109     10.9105E-03     10.5629E-03
            4946            5110     10.9374E-03     10.5688E-03
            4928            5110     10.9374E-03     10.5688E-03
            4945            5110     10.9374E-03     10.5688E-03
            4927            5110     10.9374E-03     10.5688E-03
            4929            5111     10.7090E-03     10.3406E-03
            4928            5111     10.7090E-03     10.3406E-03
            4947            5111     10.7090E-03     10.3406E-03
            4946            5111     10.7090E-03     10.3406E-03
            4947            5112     10.3275E-03     9.97179E-03
            4930            5112     10.3275E-03     9.97179E-03
            4929            5112     10.3275E-03     9.97179E-03
            4948            5112     10.3275E-03     9.97179E-03
            4949            5113     9.85827E-03     9.52069E-03
            4948            5113     9.85827E-03     9.52069E-03
            4931            5113     9.85827E-03     9.52069E-03
            4930            5113     9.85827E-03     9.52069E-03
            4949            5114     9.34577E-03     9.02754E-03
            4950            5114     9.34577E-03     9.02754E-03
            4931            5114     9.34577E-03     9.02754E-03
            4932            5114     9.34577E-03     9.02754E-03
            4933            5115     8.81643E-03     8.52140E-03
            4932            5115     8.81643E-03     8.52140E-03
            4951            5115     8.81643E-03     8.52140E-03
            4950            5115     8.81643E-03     8.52140E-03
            4951            5116     8.29202E-03     8.02488E-03
            4934            5116     8.29202E-03     8.02488E-03
            4933            5116     8.29202E-03     8.02488E-03
            4952            5116     8.29202E-03     8.02488E-03
            4953            5117     7.78539E-03     7.55523E-03
            4934            5117     7.78539E-03     7.55523E-03
            4935            5117     7.78539E-03     7.55523E-03
            4952            5117     7.78539E-03     7.55523E-03
            4953            5118     7.30468E-03     7.13573E-03
            4954            5118     7.30468E-03     7.13573E-03
            4935            5118     7.30468E-03     7.13573E-03
            4936            5118     7.30468E-03     7.13573E-03
            4937            5119     6.86101E-03     6.78218E-03
            4955            5119     6.86101E-03     6.78218E-03
            4954            5119     6.86101E-03     6.78218E-03
            4936            5119     6.86101E-03     6.78218E-03
            4955            5120     6.43940E-03     6.54153E-03
            4937            5120     6.43940E-03     6.54153E-03
            4938            5120     6.43940E-03     6.54153E-03
            4956            5120     6.43940E-03     6.54153E-03
            4956            5121     6.09498E-03     6.43674E-03
            4957            5121     6.09498E-03     6.43674E-03
            4939            5121     6.09498E-03     6.43674E-03
            4938            5121     6.09498E-03     6.43674E-03
            4957            5122     6.03141E-03     6.26390E-03
            4958            5122     6.03141E-03     6.26390E-03
            4940            5122     6.03141E-03     6.26390E-03
            4939            5122     6.03141E-03     6.26390E-03
            4941            5123     7.08878E-03     6.58942E-03
            4960            5123     7.08878E-03     6.58942E-03
            4959            5123     7.08878E-03     6.58942E-03
            4942            5123     7.08878E-03     6.58942E-03
            4961            5124     8.61205E-03     7.83782E-03
            4943            5124     8.61205E-03     7.83782E-03
            4942            5124     8.61205E-03     7.83782E-03
            4960            5124     8.61205E-03     7.83782E-03
            4944            5125     9.72751E-03     8.95394E-03
            4943            5125     9.72751E-03     8.95394E-03
            4962            5125     9.72751E-03     8.95394E-03
            4961            5125     9.72751E-03     8.95394E-03
            4963            5126     10.1870E-03     9.48442E-03
            4944            5126     10.1870E-03     9.48442E-03
            4962            5126     10.1870E-03     9.48442E-03
            4945            5126     10.1870E-03     9.48442E-03
            4963            5127     10.3271E-03     9.68532E-03
            4964            5127     10.3271E-03     9.68532E-03
            4946            5127     10.3271E-03     9.68532E-03
            4945            5127     10.3271E-03     9.68532E-03
            4964            5128     10.2316E-03     9.64929E-03
            4947            5128     10.2316E-03     9.64929E-03
            4946            5128     10.2316E-03     9.64929E-03
            4965            5128     10.2316E-03     9.64929E-03
            4947            5129     9.99774E-03     9.46418E-03
            4965            5129     9.99774E-03     9.46418E-03
            4948            5129     9.99774E-03     9.46418E-03
            4966            5129     9.99774E-03     9.46418E-03
            4966            5130     9.66689E-03     9.17482E-03
            4948            5130     9.66689E-03     9.17482E-03
            4967            5130     9.66689E-03     9.17482E-03
            4949            5130     9.66689E-03     9.17482E-03
            4967            5131     9.27918E-03     8.82599E-03
            4968            5131     9.27918E-03     8.82599E-03
            4950            5131     9.27918E-03     8.82599E-03
            4949            5131     9.27918E-03     8.82599E-03
            4968            5132     8.86171E-03     8.44293E-03
            4950            5132     8.86171E-03     8.44293E-03
            4969            5132     8.86171E-03     8.44293E-03
            4951            5132     8.86171E-03     8.44293E-03
            4970            5133     8.43330E-03     8.05212E-03
            4952            5133     8.43330E-03     8.05212E-03
            4969            5133     8.43330E-03     8.05212E-03
            4951            5133     8.43330E-03     8.05212E-03
            4971            5134     8.01406E-03     7.67183E-03
            4970            5134     8.01406E-03     7.67183E-03
            4953            5134     8.01406E-03     7.67183E-03
            4952            5134     8.01406E-03     7.67183E-03
            4971            5135     7.61153E-03     7.32207E-03
            4953            5135     7.61153E-03     7.32207E-03
            4972            5135     7.61153E-03     7.32207E-03
            4954            5135     7.61153E-03     7.32207E-03
            4954            5136     7.24081E-03     7.02591E-03
            4973            5136     7.24081E-03     7.02591E-03
            4955            5136     7.24081E-03     7.02591E-03
            4972            5136     7.24081E-03     7.02591E-03
            4956            5137     6.89324E-03     6.80439E-03
            4974            5137     6.89324E-03     6.80439E-03
            4955            5137     6.89324E-03     6.80439E-03
            4973            5137     6.89324E-03     6.80439E-03
            4957            5138     6.54011E-03     6.76097E-03
            4974            5138     6.54011E-03     6.76097E-03
            4956            5138     6.54011E-03     6.76097E-03
            4975            5138     6.54011E-03     6.76097E-03
            4958            5139     6.24994E-03     6.92897E-03
            4975            5139     6.24994E-03     6.92897E-03
            4957            5139     6.24994E-03     6.92897E-03
            4976            5139     6.24994E-03     6.92897E-03
            4978            5140     6.08711E-03     6.34420E-03
            4977            5140     6.08711E-03     6.34420E-03
            4960            5140     6.08711E-03     6.34420E-03
            4959            5140     6.08711E-03     6.34420E-03
            4960            5141     5.98361E-03     5.88726E-03
            4978            5141     5.98361E-03     5.88726E-03
            4979            5141     5.98361E-03     5.88726E-03
            4961            5141     5.98361E-03     5.88726E-03
            4962            5142     6.33503E-03     6.23835E-03
            4961            5142     6.33503E-03     6.23835E-03
            4979            5142     6.33503E-03     6.23835E-03
            4980            5142     6.33503E-03     6.23835E-03
            4963            5143     6.60847E-03     6.54289E-03
            4980            5143     6.60847E-03     6.54289E-03
            4981            5143     6.60847E-03     6.54289E-03
            4962            5143     6.60847E-03     6.54289E-03
            4963            5144     6.69506E-03     6.66540E-03
            4964            5144     6.69506E-03     6.66540E-03
            4982            5144     6.69506E-03     6.66540E-03
            4981            5144     6.69506E-03     6.66540E-03
            4983            5145     6.67121E-03     6.66951E-03
            4964            5145     6.67121E-03     6.66951E-03
            4982            5145     6.67121E-03     6.66951E-03
            4965            5145     6.67121E-03     6.66951E-03
            4984            5146     6.55961E-03     6.57841E-03
            4966            5146     6.55961E-03     6.57841E-03
            4965            5146     6.55961E-03     6.57841E-03
            4983            5146     6.55961E-03     6.57841E-03
            4984            5147     6.40408E-03     6.43407E-03
            4967            5147     6.40408E-03     6.43407E-03
            4985            5147     6.40408E-03     6.43407E-03
            4966            5147     6.40408E-03     6.43407E-03
            4986            5148     6.21464E-03     6.25033E-03
            4968            5148     6.21464E-03     6.25033E-03
            4967            5148     6.21464E-03     6.25033E-03
            4985            5148     6.21464E-03     6.25033E-03
            4969            5149     6.01150E-03     6.04873E-03
            4986            5149     6.01150E-03     6.04873E-03
            4987            5149     6.01150E-03     6.04873E-03
            4968            5149     6.01150E-03     6.04873E-03
            4988            5150     5.80173E-03     5.83786E-03
            4987            5150     5.80173E-03     5.83786E-03
            4969            5150     5.80173E-03     5.83786E-03
            4970            5150     5.80173E-03     5.83786E-03
            4971            5151     5.59623E-03     5.63128E-03
            4988            5151     5.59623E-03     5.63128E-03
            4989            5151     5.59623E-03     5.63128E-03
            4970            5151     5.59623E-03     5.63128E-03
            4989            5152     5.39979E-03     5.43250E-03
            4971            5152     5.39979E-03     5.43250E-03
            4990            5152     5.39979E-03     5.43250E-03
            4972            5152     5.39979E-03     5.43250E-03
            4991            5153     5.22390E-03     5.26068E-03
            4973            5153     5.22390E-03     5.26068E-03
            4972            5153     5.22390E-03     5.26068E-03
            4990            5153     5.22390E-03     5.26068E-03
            4974            5154     5.05635E-03     5.09251E-03
            4991            5154     5.05635E-03     5.09251E-03
            4973            5154     5.05635E-03     5.09251E-03
            4992            5154     5.05635E-03     5.09251E-03
            4975            5155     4.89308E-03     5.03414E-03
            4992            5155     4.89308E-03     5.03414E-03
            4974            5155     4.89308E-03     5.03414E-03
            4993            5155     4.89308E-03     5.03414E-03
            4975            5156     4.54428E-03     5.14358E-03
            4976            5156     4.54428E-03     5.14358E-03
            4994            5156     4.54428E-03     5.14358E-03
            4993            5156     4.54428E-03     5.14358E-03
            4996            5157     5.44845E-03     6.09991E-03
            4977            5157     5.44845E-03     6.09991E-03
            4995            5157     5.44845E-03     6.09991E-03
            4978            5157     5.44845E-03     6.09991E-03
            4997            5158     3.86158E-03     4.56599E-03
            4978            5158     3.86158E-03     4.56599E-03
            4996            5158     3.86158E-03     4.56599E-03
            4979            5158     3.86158E-03     4.56599E-03
            4997            5159     3.58166E-03     4.23695E-03
            4998            5159     3.58166E-03     4.23695E-03
            4979            5159     3.58166E-03     4.23695E-03
            4980            5159     3.58166E-03     4.23695E-03
            4998            5160     3.61421E-03     4.18244E-03
            4999            5160     3.61421E-03     4.18244E-03
            4980            5160     3.61421E-03     4.18244E-03
            4981            5160     3.61421E-03     4.18244E-03
            5000            5161     3.54384E-03     4.08430E-03
            4981            5161     3.54384E-03     4.08430E-03
            4982            5161     3.54384E-03     4.08430E-03
            4999            5161     3.54384E-03     4.08430E-03
            4983            5162     3.47611E-03     3.99610E-03
            5001            5162     3.47611E-03     3.99610E-03
            5000            5162     3.47611E-03     3.99610E-03
            4982            5162     3.47611E-03     3.99610E-03
            5002            5163     3.40204E-03     3.89914E-03
            4983            5163     3.40204E-03     3.89914E-03
            5001            5163     3.40204E-03     3.89914E-03
            4984            5163     3.40204E-03     3.89914E-03
            4984            5164     3.33304E-03     3.80866E-03
            5003            5164     3.33304E-03     3.80866E-03
            5002            5164     3.33304E-03     3.80866E-03
            4985            5164     3.33304E-03     3.80866E-03
            5004            5165     3.27413E-03     3.72009E-03
            4985            5165     3.27413E-03     3.72009E-03
            5003            5165     3.27413E-03     3.72009E-03
            4986            5165     3.27413E-03     3.72009E-03
            4986            5166     3.22065E-03     3.63905E-03
            4987            5166     3.22065E-03     3.63905E-03
            5005            5166     3.22065E-03     3.63905E-03
            5004            5166     3.22065E-03     3.63905E-03
            4988            5167     3.17552E-03     3.56020E-03
            4987            5167     3.17552E-03     3.56020E-03
            5006            5167     3.17552E-03     3.56020E-03
            5005            5167     3.17552E-03     3.56020E-03
            4988            5168     3.13550E-03     3.48803E-03
            5006            5168     3.13550E-03     3.48803E-03
            4989            5168     3.13550E-03     3.48803E-03
            5007            5168     3.13550E-03     3.48803E-03
            4989            5169     3.10057E-03     3.41601E-03
            5008            5169     3.10057E-03     3.41601E-03
            4990            5169     3.10057E-03     3.41601E-03
            5007            5169     3.10057E-03     3.41601E-03
            4991            5170     3.07339E-03     3.35132E-03
            5008            5170     3.07339E-03     3.35132E-03
            5009            5170     3.07339E-03     3.35132E-03
            4990            5170     3.07339E-03     3.35132E-03
            5010            5171     3.04904E-03     3.27420E-03
            5009            5171     3.04904E-03     3.27420E-03
            4991            5171     3.04904E-03     3.27420E-03
            4992            5171     3.04904E-03     3.27420E-03
            4992            5172     3.00730E-03     3.21130E-03
            5011            5172     3.00730E-03     3.21130E-03
            4993            5172     3.00730E-03     3.21130E-03
            5010            5172     3.00730E-03     3.21130E-03
            4994            5173     2.97216E-03     3.19879E-03
            4993            5173     2.97216E-03     3.19879E-03
            5012            5173     2.97216E-03     3.19879E-03
            5011            5173     2.97216E-03     3.19879E-03
            4995            5174     4.22175E-03     4.22463E-03
            5013            5174     4.22175E-03     4.22463E-03
            4996            5174     4.22175E-03     4.22463E-03
            5014            5174     4.22175E-03     4.22463E-03
            5015            5175     3.90409E-03     4.19264E-03
            4996            5175     3.90409E-03     4.19264E-03
            4997            5175     3.90409E-03     4.19264E-03
            5014            5175     3.90409E-03     4.19264E-03
            4997            5176     4.02824E-03     4.25540E-03
            5015            5176     4.02824E-03     4.25540E-03
            5016            5176     4.02824E-03     4.25540E-03
            4998            5176     4.02824E-03     4.25540E-03
            4999            5177     3.93591E-03     4.14604E-03
            4998            5177     3.93591E-03     4.14604E-03
            5016            5177     3.93591E-03     4.14604E-03
            5017            5177     3.93591E-03     4.14604E-03
            5017            5178     3.80936E-03     4.01270E-03
            4999            5178     3.80936E-03     4.01270E-03
            5018            5178     3.80936E-03     4.01270E-03
            5000            5178     3.80936E-03     4.01270E-03
            5000            5179     3.69475E-03     3.89083E-03
            5018            5179     3.69475E-03     3.89083E-03
            5001            5179     3.69475E-03     3.89083E-03
            5019            5179     3.69475E-03     3.89083E-03
            5020            5180     3.60413E-03     3.79314E-03
            5001            5180     3.60413E-03     3.79314E-03
            5019            5180     3.60413E-03     3.79314E-03
            5002            5180     3.60413E-03     3.79314E-03
            5003            5181     3.52854E-03     3.70716E-03
            5021            5181     3.52854E-03     3.70716E-03
            5002            5181     3.52854E-03     3.70716E-03
            5020            5181     3.52854E-03     3.70716E-03
            5004            5182     3.46278E-03     3.63241E-03
            5003            5182     3.46278E-03     3.63241E-03
            5022            5182     3.46278E-03     3.63241E-03
            5021            5182     3.46278E-03     3.63241E-03
            5022            5183     3.40492E-03     3.56239E-03
            5005            5183     3.40492E-03     3.56239E-03
            5004            5183     3.40492E-03     3.56239E-03
            5023            5183     3.40492E-03     3.56239E-03
            5005            5184     3.35268E-03     3.49909E-03
            5023            5184     3.35268E-03     3.49909E-03
            5006            5184     3.35268E-03     3.49909E-03
            5024            5184     3.35268E-03     3.49909E-03
            5006            5185     3.30620E-03     3.43921E-03
            5025            5185     3.30620E-03     3.43921E-03
            5007            5185     3.30620E-03     3.43921E-03
            5024            5185     3.30620E-03     3.43921E-03
            5007            5186     3.26720E-03     3.38634E-03
            5025            5186     3.26720E-03     3.38634E-03
            5008            5186     3.26720E-03     3.38634E-03
            5026            5186     3.26720E-03     3.38634E-03
            5027            5187     3.23125E-03     3.33915E-03
            5008            5187     3.23125E-03     3.33915E-03
            5026            5187     3.23125E-03     3.33915E-03
            5009            5187     3.23125E-03     3.33915E-03
            5010            5188     3.20331E-03     3.31377E-03
            5009            5188     3.20331E-03     3.31377E-03
            5028            5188     3.20331E-03     3.31377E-03
            5027            5188     3.20331E-03     3.31377E-03
            5011            5189     3.24104E-03     3.24970E-03
            5028            5189     3.24104E-03     3.24970E-03
            5010            5189     3.24104E-03     3.24970E-03
            5029            5189     3.24104E-03     3.24970E-03
            5030            5190     3.35952E-03     3.06316E-03
            5029            5190     3.35952E-03     3.06316E-03
            5011            5190     3.35952E-03     3.06316E-03
            5012            5190     3.35952E-03     3.06316E-03
            5013            5191     2.77183E-03     2.76196E-03
            5032            5191     2.77183E-03     2.76196E-03
            5031            5191     2.77183E-03     2.76196E-03
            5014            5191     2.77183E-03     2.76196E-03
            5014            5192     3.54776E-03     3.51217E-03
            5032            5192     3.54776E-03     3.51217E-03
            5033            5192     3.54776E-03     3.51217E-03
            5015            5192     3.54776E-03     3.51217E-03
            5015            5193     4.22401E-03     4.04899E-03
            5016            5193     4.22401E-03     4.04899E-03
            5034            5193     4.22401E-03     4.04899E-03
            5033            5193     4.22401E-03     4.04899E-03
            5016            5194     4.12916E-03     3.98285E-03
            5035            5194     4.12916E-03     3.98285E-03
            5034            5194     4.12916E-03     3.98285E-03
            5017            5194     4.12916E-03     3.98285E-03
            5017            5195     4.01539E-03     3.88339E-03
            5035            5195     4.01539E-03     3.88339E-03
            5018            5195     4.01539E-03     3.88339E-03
            5036            5195     4.01539E-03     3.88339E-03
            5036            5196     3.89968E-03     3.77380E-03
            5019            5196     3.89968E-03     3.77380E-03
            5037            5196     3.89968E-03     3.77380E-03
            5018            5196     3.89968E-03     3.77380E-03
            5037            5197     3.80912E-03     3.69018E-03
            5038            5197     3.80912E-03     3.69018E-03
            5020            5197     3.80912E-03     3.69018E-03
            5019            5197     3.80912E-03     3.69018E-03
            5039            5198     3.73381E-03     3.62241E-03
            5038            5198     3.73381E-03     3.62241E-03
            5020            5198     3.73381E-03     3.62241E-03
            5021            5198     3.73381E-03     3.62241E-03
            5021            5199     3.66649E-03     3.56284E-03
            5040            5199     3.66649E-03     3.56284E-03
            5039            5199     3.66649E-03     3.56284E-03
            5022            5199     3.66649E-03     3.56284E-03
            5022            5200     3.60568E-03     3.50974E-03
            5041            5200     3.60568E-03     3.50974E-03
            5040            5200     3.60568E-03     3.50974E-03
            5023            5200     3.60568E-03     3.50974E-03
            5023            5201     3.54943E-03     3.46189E-03
            5041            5201     3.54943E-03     3.46189E-03
            5042            5201     3.54943E-03     3.46189E-03
            5024            5201     3.54943E-03     3.46189E-03
            5025            5202     3.49860E-03     3.41868E-03
            5042            5202     3.49860E-03     3.41868E-03
            5024            5202     3.49860E-03     3.41868E-03
            5043            5202     3.49860E-03     3.41868E-03
            5025            5203     3.45416E-03     3.38352E-03
            5044            5203     3.45416E-03     3.38352E-03
            5026            5203     3.45416E-03     3.38352E-03
            5043            5203     3.45416E-03     3.38352E-03
            5045            5204     3.41537E-03     3.35600E-03
            5027            5204     3.41537E-03     3.35600E-03
            5026            5204     3.41537E-03     3.35600E-03
            5044            5204     3.41537E-03     3.35600E-03
            5027            5205     3.38435E-03     3.35296E-03
            5028            5205     3.38435E-03     3.35296E-03
            5046            5205     3.38435E-03     3.35296E-03
            5045            5205     3.38435E-03     3.35296E-03
            5028            5206     3.40652E-03     3.33378E-03
            5046            5206     3.40652E-03     3.33378E-03
            5047            5206     3.40652E-03     3.33378E-03
            5029            5206     3.40652E-03     3.33378E-03
            5048            5207     3.49271E-03     3.21373E-03
            5047            5207     3.49271E-03     3.21373E-03
            5029            5207     3.49271E-03     3.21373E-03
            5030            5207     3.49271E-03     3.21373E-03
            5049            5208     2.40004E-03     2.48586E-03
            5031            5208     2.40004E-03     2.48586E-03
            5050            5208     2.40004E-03     2.48586E-03
            5032            5208     2.40004E-03     2.48586E-03
            5050            5209     3.19886E-03     2.66812E-03
            5051            5209     3.19886E-03     2.66812E-03
            5032            5209     3.19886E-03     2.66812E-03
            5033            5209     3.19886E-03     2.66812E-03
            5034            5210     3.94425E-03     3.41287E-03
            5051            5210     3.94425E-03     3.41287E-03
            5052            5210     3.94425E-03     3.41287E-03
            5033            5210     3.94425E-03     3.41287E-03
            5052            5211     4.16328E-03     3.65468E-03
            5034            5211     4.16328E-03     3.65468E-03
            5053            5211     4.16328E-03     3.65468E-03
            5035            5211     4.16328E-03     3.65468E-03
            5053            5212     4.14300E-03     3.67325E-03
            5035            5212     4.14300E-03     3.67325E-03
            5036            5212     4.14300E-03     3.67325E-03
            5054            5212     4.14300E-03     3.67325E-03
            5037            5213     4.08810E-03     3.64329E-03
            5054            5213     4.08810E-03     3.64329E-03
            5055            5213     4.08810E-03     3.64329E-03
            5036            5213     4.08810E-03     3.64329E-03
            5055            5214     4.01847E-03     3.60120E-03
            5037            5214     4.01847E-03     3.60120E-03
            5056            5214     4.01847E-03     3.60120E-03
            5038            5214     4.01847E-03     3.60120E-03
            5039            5215     3.94988E-03     3.55889E-03
            5038            5215     3.94988E-03     3.55889E-03
            5057            5215     3.94988E-03     3.55889E-03
            5056            5215     3.94988E-03     3.55889E-03
            5057            5216     3.88459E-03     3.51872E-03
            5058            5216     3.88459E-03     3.51872E-03
            5040            5216     3.88459E-03     3.51872E-03
            5039            5216     3.88459E-03     3.51872E-03
            5040            5217     3.82102E-03     3.48339E-03
            5059            5217     3.82102E-03     3.48339E-03
            5041            5217     3.82102E-03     3.48339E-03
            5058            5217     3.82102E-03     3.48339E-03
            5059            5218     3.76148E-03     3.45110E-03
            5060            5218     3.76148E-03     3.45110E-03
            5041            5218     3.76148E-03     3.45110E-03
            5042            5218     3.76148E-03     3.45110E-03
            5060            5219     3.70622E-03     3.42648E-03
            5042            5219     3.70622E-03     3.42648E-03
            5061            5219     3.70622E-03     3.42648E-03
            5043            5219     3.70622E-03     3.42648E-03
            5043            5220     3.65470E-03     3.40528E-03
            5061            5220     3.65470E-03     3.40528E-03
            5062            5220     3.65470E-03     3.40528E-03
            5044            5220     3.65470E-03     3.40528E-03
            5044            5221     3.61359E-03     3.39854E-03
            5045            5221     3.61359E-03     3.39854E-03
            5063            5221     3.61359E-03     3.39854E-03
            5062            5221     3.61359E-03     3.39854E-03
            5045            5222     3.57670E-03     3.38913E-03
            5063            5222     3.57670E-03     3.38913E-03
            5064            5222     3.57670E-03     3.38913E-03
            5046            5222     3.57670E-03     3.38913E-03
            5047            5223     3.51974E-03     3.42747E-03
            5065            5223     3.51974E-03     3.42747E-03
            5064            5223     3.51974E-03     3.42747E-03
            5046            5223     3.51974E-03     3.42747E-03
            5066            5224     3.45784E-03     3.54756E-03
            5065            5224     3.45784E-03     3.54756E-03
            5047            5224     3.45784E-03     3.54756E-03
            5048            5224     3.45784E-03     3.54756E-03
            5175            5310     200.326E-03     201.372E-03
            5194            5310     200.326E-03     201.372E-03
            5176            5310     200.326E-03     201.372E-03
            5193            5310     200.326E-03     201.372E-03
            5194            5311     195.991E-03     197.550E-03
            5176            5311     195.991E-03     197.550E-03
            5177            5311     195.991E-03     197.550E-03
            5195            5311     195.991E-03     197.550E-03
            5177            5312     190.168E-03     192.834E-03
            5196            5312     190.168E-03     192.834E-03
            5178            5312     190.168E-03     192.834E-03
            5195            5312     190.168E-03     192.834E-03
            5197            5313     186.135E-03     189.299E-03
            5179            5313     186.135E-03     189.299E-03
            5196            5313     186.135E-03     189.299E-03
            5178            5313     186.135E-03     189.299E-03
            5198            5314     182.588E-03     185.989E-03
            5180            5314     182.588E-03     185.989E-03
            5197            5314     182.588E-03     185.989E-03
            5179            5314     182.588E-03     185.989E-03
            5181            5315     179.793E-03     183.357E-03
            5199            5315     179.793E-03     183.357E-03
            5180            5315     179.793E-03     183.357E-03
            5198            5315     179.793E-03     183.357E-03
            5182            5316     177.523E-03     181.140E-03
            5199            5316     177.523E-03     181.140E-03
            5181            5316     177.523E-03     181.140E-03
            5200            5316     177.523E-03     181.140E-03
            5182            5317     175.798E-03     179.412E-03
            5183            5317     175.798E-03     179.412E-03
            5200            5317     175.798E-03     179.412E-03
            5201            5317     175.798E-03     179.412E-03
            5201            5318     174.542E-03     178.040E-03
            5183            5318     174.542E-03     178.040E-03
            5184            5318     174.542E-03     178.040E-03
            5202            5318     174.542E-03     178.040E-03
            5203            5319     173.777E-03     177.076E-03
            5202            5319     173.777E-03     177.076E-03
            5184            5319     173.777E-03     177.076E-03
            5185            5319     173.777E-03     177.076E-03
            5185            5320     173.375E-03     176.393E-03
            5204            5320     173.375E-03     176.393E-03
            5203            5320     173.375E-03     176.393E-03
            5186            5320     173.375E-03     176.393E-03
            5204            5321     173.377E-03     175.975E-03
            5187            5321     173.377E-03     175.975E-03
            5205            5321     173.377E-03     175.975E-03
            5186            5321     173.377E-03     175.975E-03
            5187            5322     173.322E-03     175.446E-03
            5188            5322     173.322E-03     175.446E-03
            5205            5322     173.322E-03     175.446E-03
            5206            5322     173.322E-03     175.446E-03
            5189            5323     173.137E-03     174.398E-03
            5188            5323     173.137E-03     174.398E-03
            5206            5323     173.137E-03     174.398E-03
            5207            5323     173.137E-03     174.398E-03
            5189            5324     171.037E-03     171.025E-03
            5208            5324     171.037E-03     171.025E-03
            5190            5324     171.037E-03     171.025E-03
            5207            5324     171.037E-03     171.025E-03
            5191            5325     169.590E-03     168.706E-03
            5208            5325     169.590E-03     168.706E-03
            5190            5325     169.590E-03     168.706E-03
            5209            5325     169.590E-03     168.706E-03
            5192            5326     163.615E-03     160.371E-03
            5210            5326     163.615E-03     160.371E-03
            5209            5326     163.615E-03     160.371E-03
            5191            5326     163.615E-03     160.371E-03
            5194            5327     196.936E-03     199.208E-03
            5193            5327     196.936E-03     199.208E-03
            5211            5327     196.936E-03     199.208E-03
            5212            5327     196.936E-03     199.208E-03
            5194            5328     195.241E-03     198.637E-03
            5195            5328     195.241E-03     198.637E-03
            5213            5328     195.241E-03     198.637E-03
            5212            5328     195.241E-03     198.637E-03
            5196            5329     191.330E-03     194.800E-03
            5213            5329     191.330E-03     194.800E-03
            5214            5329     191.330E-03     194.800E-03
            5195            5329     191.330E-03     194.800E-03
            5196            5330     187.434E-03     191.429E-03
            5197            5330     187.434E-03     191.429E-03
            5214            5330     187.434E-03     191.429E-03
            5215            5330     187.434E-03     191.429E-03
            5198            5331     184.539E-03     188.466E-03
            5216            5331     184.539E-03     188.466E-03
            5215            5331     184.539E-03     188.466E-03
            5197            5331     184.539E-03     188.466E-03
            5199            5332     182.017E-03     186.036E-03
            5216            5332     182.017E-03     186.036E-03
            5217            5332     182.017E-03     186.036E-03
            5198            5332     182.017E-03     186.036E-03
            5217            5333     180.061E-03     184.085E-03
            5218            5333     180.061E-03     184.085E-03
            5200            5333     180.061E-03     184.085E-03
            5199            5333     180.061E-03     184.085E-03
            5200            5334     178.487E-03     182.488E-03
            5219            5334     178.487E-03     182.488E-03
            5218            5334     178.487E-03     182.488E-03
            5201            5334     178.487E-03     182.488E-03
            5201            5335     177.366E-03     181.313E-03
            5202            5335     177.366E-03     181.313E-03
            5219            5335     177.366E-03     181.313E-03
            5220            5335     177.366E-03     181.313E-03
            5203            5336     176.620E-03     180.442E-03
            5220            5336     176.620E-03     180.442E-03
            5221            5336     176.620E-03     180.442E-03
            5202            5336     176.620E-03     180.442E-03
            5221            5337     176.382E-03     180.074E-03
            5203            5337     176.382E-03     180.074E-03
            5204            5337     176.382E-03     180.074E-03
            5222            5337     176.382E-03     180.074E-03
            5204            5338     176.560E-03     180.000E-03
            5205            5338     176.560E-03     180.000E-03
            5222            5338     176.560E-03     180.000E-03
            5223            5338     176.560E-03     180.000E-03
            5205            5339     177.278E-03     180.517E-03
            5206            5339     177.278E-03     180.517E-03
            5223            5339     177.278E-03     180.517E-03
            5224            5339     177.278E-03     180.517E-03
            5224            5340     177.790E-03     180.644E-03
            5225            5340     177.790E-03     180.644E-03
            5206            5340     177.790E-03     180.644E-03
            5207            5340     177.790E-03     180.644E-03
            5207            5341     177.116E-03     179.136E-03
            5226            5341     177.116E-03     179.136E-03
            5208            5341     177.116E-03     179.136E-03
            5225            5341     177.116E-03     179.136E-03
            5209            5342     170.652E-03     171.234E-03
            5227            5342     170.652E-03     171.234E-03
            5226            5342     170.652E-03     171.234E-03
            5208            5342     170.652E-03     171.234E-03
            5227            5343     146.495E-03     144.194E-03
            5209            5343     146.495E-03     144.194E-03
            5210            5343     146.495E-03     144.194E-03
            5228            5343     146.495E-03     144.194E-03
            5211            5344     190.807E-03     193.482E-03
            5212            5344     190.807E-03     193.482E-03
            5229            5344     190.807E-03     193.482E-03
            5230            5344     190.807E-03     193.482E-03
            5230            5345     191.683E-03     196.043E-03
            5213            5345     191.683E-03     196.043E-03
            5212            5345     191.683E-03     196.043E-03
            5231            5345     191.683E-03     196.043E-03
            5231            5346     190.312E-03     194.378E-03
            5214            5346     190.312E-03     194.378E-03
            5213            5346     190.312E-03     194.378E-03
            5232            5346     190.312E-03     194.378E-03
            5215            5347     188.068E-03     191.680E-03
            5233            5347     188.068E-03     191.680E-03
            5232            5347     188.068E-03     191.680E-03
            5214            5347     188.068E-03     191.680E-03
            5234            5348     185.906E-03     189.583E-03
            5215            5348     185.906E-03     189.583E-03
            5216            5348     185.906E-03     189.583E-03
            5233            5348     185.906E-03     189.583E-03
            5234            5349     184.092E-03     187.707E-03
            5235            5349     184.092E-03     187.707E-03
            5217            5349     184.092E-03     187.707E-03
            5216            5349     184.092E-03     187.707E-03
            5235            5350     182.517E-03     186.142E-03
            5236            5350     182.517E-03     186.142E-03
            5218            5350     182.517E-03     186.142E-03
            5217            5350     182.517E-03     186.142E-03
            5218            5351     181.268E-03     184.880E-03
            5237            5351     181.268E-03     184.880E-03
            5236            5351     181.268E-03     184.880E-03
            5219            5351     181.268E-03     184.880E-03
            5220            5352     180.253E-03     183.842E-03
            5219            5352     180.253E-03     183.842E-03
            5237            5352     180.253E-03     183.842E-03
            5238            5352     180.253E-03     183.842E-03
            5238            5353     179.599E-03     183.188E-03
            5239            5353     179.599E-03     183.188E-03
            5220            5353     179.599E-03     183.188E-03
            5221            5353     179.599E-03     183.188E-03
            5239            5354     179.275E-03     182.800E-03
            5240            5354     179.275E-03     182.800E-03
            5221            5354     179.275E-03     182.800E-03
            5222            5354     179.275E-03     182.800E-03
            5240            5355     179.497E-03     183.061E-03
            5241            5355     179.497E-03     183.061E-03
            5223            5355     179.497E-03     183.061E-03
            5222            5355     179.497E-03     183.061E-03
            5241            5356     180.097E-03     183.580E-03
            5224            5356     180.097E-03     183.580E-03
            5223            5356     180.097E-03     183.580E-03
            5242            5356     180.097E-03     183.580E-03
            5225            5357     180.727E-03     184.352E-03
            5224            5357     180.727E-03     184.352E-03
            5242            5357     180.727E-03     184.352E-03
            5243            5357     180.727E-03     184.352E-03
            5244            5358     179.486E-03     183.165E-03
            5225            5358     179.486E-03     183.165E-03
            5243            5358     179.486E-03     183.165E-03
            5226            5358     179.486E-03     183.165E-03
            5226            5359     168.270E-03     168.117E-03
            5245            5359     168.270E-03     168.117E-03
            5227            5359     168.270E-03     168.117E-03
            5244            5359     168.270E-03     168.117E-03
            5246            5360     139.017E-03     132.216E-03
            5245            5360     139.017E-03     132.216E-03
            5227            5360     139.017E-03     132.216E-03
            5228            5360     139.017E-03     132.216E-03
            5248            5361     185.396E-03     188.218E-03
            5230            5361     185.396E-03     188.218E-03
            5247            5361     185.396E-03     188.218E-03
            5229            5361     185.396E-03     188.218E-03
            5248            5362     187.329E-03     191.244E-03
            5249            5362     187.329E-03     191.244E-03
            5230            5362     187.329E-03     191.244E-03
            5231            5362     187.329E-03     191.244E-03
            5232            5363     188.365E-03     191.477E-03
            5250            5363     188.365E-03     191.477E-03
            5231            5363     188.365E-03     191.477E-03
            5249            5363     188.365E-03     191.477E-03
            5250            5364     188.213E-03     190.833E-03
            5232            5364     188.213E-03     190.833E-03
            5251            5364     188.213E-03     190.833E-03
            5233            5364     188.213E-03     190.833E-03
            5251            5365     187.282E-03     189.804E-03
            5233            5365     187.282E-03     189.804E-03
            5252            5365     187.282E-03     189.804E-03
            5234            5365     187.282E-03     189.804E-03
            5252            5366     186.293E-03     188.761E-03
            5253            5366     186.293E-03     188.761E-03
            5235            5366     186.293E-03     188.761E-03
            5234            5366     186.293E-03     188.761E-03
            5254            5367     185.311E-03     187.743E-03
            5235            5367     185.311E-03     187.743E-03
            5253            5367     185.311E-03     187.743E-03
            5236            5367     185.311E-03     187.743E-03
            5255            5368     184.367E-03     186.797E-03
            5236            5368     184.367E-03     186.797E-03
            5254            5368     184.367E-03     186.797E-03
            5237            5368     184.367E-03     186.797E-03
            5256            5369     183.554E-03     186.016E-03
            5255            5369     183.554E-03     186.016E-03
            5238            5369     183.554E-03     186.016E-03
            5237            5369     183.554E-03     186.016E-03
            5239            5370     182.818E-03     185.343E-03
            5257            5370     182.818E-03     185.343E-03
            5238            5370     182.818E-03     185.343E-03
            5256            5370     182.818E-03     185.343E-03
            5239            5371     182.311E-03     184.965E-03
            5257            5371     182.311E-03     184.965E-03
            5240            5371     182.311E-03     184.965E-03
            5258            5371     182.311E-03     184.965E-03
            5240            5372     181.938E-03     184.716E-03
            5258            5372     181.938E-03     184.716E-03
            5241            5372     181.938E-03     184.716E-03
            5259            5372     181.938E-03     184.716E-03
            5242            5373     181.711E-03     184.776E-03
            5260            5373     181.711E-03     184.776E-03
            5241            5373     181.711E-03     184.776E-03
            5259            5373     181.711E-03     184.776E-03
            5261            5374     180.969E-03     184.304E-03
            5242            5374     180.969E-03     184.304E-03
            5243            5374     180.969E-03     184.304E-03
            5260            5374     180.969E-03     184.304E-03
            5244            5375     177.648E-03     181.374E-03
            5261            5375     177.648E-03     181.374E-03
            5243            5375     177.648E-03     181.374E-03
            5262            5375     177.648E-03     181.374E-03
            5262            5376     167.129E-03     170.302E-03
            5245            5376     167.129E-03     170.302E-03
            5244            5376     167.129E-03     170.302E-03
            5263            5376     167.129E-03     170.302E-03
            5263            5377     138.998E-03     138.319E-03
            5245            5377     138.998E-03     138.319E-03
            5264            5377     138.998E-03     138.319E-03
            5246            5377     138.998E-03     138.319E-03
            5266            5378     178.311E-03     182.185E-03
            5248            5378     178.311E-03     182.185E-03
            5265            5378     178.311E-03     182.185E-03
            5247            5378     178.311E-03     182.185E-03
            5266            5379     183.844E-03     185.690E-03
            5248            5379     183.844E-03     185.690E-03
            5267            5379     183.844E-03     185.690E-03
            5249            5379     183.844E-03     185.690E-03
            5267            5380     187.209E-03     188.226E-03
            5250            5380     187.209E-03     188.226E-03
            5268            5380     187.209E-03     188.226E-03
            5249            5380     187.209E-03     188.226E-03
            5268            5381     188.626E-03     189.620E-03
            5250            5381     188.626E-03     189.620E-03
            5251            5381     188.626E-03     189.620E-03
            5269            5381     188.626E-03     189.620E-03
            5252            5382     189.174E-03     189.852E-03
            5269            5382     189.174E-03     189.852E-03
            5251            5382     189.174E-03     189.852E-03
            5270            5382     189.174E-03     189.852E-03
            5270            5383     189.033E-03     189.615E-03
            5253            5383     189.033E-03     189.615E-03
            5252            5383     189.033E-03     189.615E-03
            5271            5383     189.033E-03     189.615E-03
            5253            5384     188.616E-03     189.109E-03
            5271            5384     188.616E-03     189.109E-03
            5254            5384     188.616E-03     189.109E-03
            5272            5384     188.616E-03     189.109E-03
            5272            5385     188.037E-03     188.513E-03
            5254            5385     188.037E-03     188.513E-03
            5273            5385     188.037E-03     188.513E-03
            5255            5385     188.037E-03     188.513E-03
            5273            5386     187.321E-03     187.879E-03
            5274            5386     187.321E-03     187.879E-03
            5256            5386     187.321E-03     187.879E-03
            5255            5386     187.321E-03     187.879E-03
            5275            5387     186.590E-03     187.275E-03
            5257            5387     186.590E-03     187.275E-03
            5274            5387     186.590E-03     187.275E-03
            5256            5387     186.590E-03     187.275E-03
            5276            5388     185.684E-03     186.639E-03
            5257            5388     185.684E-03     186.639E-03
            5275            5388     185.684E-03     186.639E-03
            5258            5388     185.684E-03     186.639E-03
            5277            5389     184.641E-03     185.876E-03
            5276            5389     184.641E-03     185.876E-03
            5259            5389     184.641E-03     185.876E-03
            5258            5389     184.641E-03     185.876E-03
            5260            5390     182.963E-03     184.659E-03
            5259            5390     182.963E-03     184.659E-03
            5277            5390     182.963E-03     184.659E-03
            5278            5390     182.963E-03     184.659E-03
            5260            5391     180.108E-03     182.185E-03
            5261            5391     180.108E-03     182.185E-03
            5278            5391     180.108E-03     182.185E-03
            5279            5391     180.108E-03     182.185E-03
            5262            5392     174.223E-03     176.638E-03
            5261            5392     174.223E-03     176.638E-03
            5280            5392     174.223E-03     176.638E-03
            5279            5392     174.223E-03     176.638E-03
            5280            5393     164.930E-03     169.032E-03
            5263            5393     164.930E-03     169.032E-03
            5262            5393     164.930E-03     169.032E-03
            5281            5393     164.930E-03     169.032E-03
            5281            5394     145.602E-03     148.981E-03
            5282            5394     145.602E-03     148.981E-03
            5263            5394     145.602E-03     148.981E-03
            5264            5394     145.602E-03     148.981E-03
            5757            5777     488.524E-06     524.295E-06
            5739            5777     488.524E-06     524.295E-06
            5758            5777     488.524E-06     524.295E-06
            5740            5777     488.524E-06     524.295E-06
            5740            5778     369.175E-06     410.445E-06
            5758            5778     369.175E-06     410.445E-06
            5759            5778     369.175E-06     410.445E-06
            5741            5778     369.175E-06     410.445E-06
            5759            5779     328.745E-06     369.229E-06
            5741            5779     328.745E-06     369.229E-06
            5760            5779     328.745E-06     369.229E-06
            5742            5779     328.745E-06     369.229E-06
            5761            5780     318.422E-06     356.975E-06
            5760            5780     318.422E-06     356.975E-06
            5743            5780     318.422E-06     356.975E-06
            5742            5780     318.422E-06     356.975E-06
            5761            5781     310.601E-06     347.027E-06
            5762            5781     310.601E-06     347.027E-06
            5743            5781     310.601E-06     347.027E-06
            5744            5781     310.601E-06     347.027E-06
            5745            5782     303.261E-06     338.404E-06
            5744            5782     303.261E-06     338.404E-06
            5763            5782     303.261E-06     338.404E-06
            5762            5782     303.261E-06     338.404E-06
            5763            5783     295.112E-06     329.009E-06
            5746            5783     295.112E-06     329.009E-06
            5764            5783     295.112E-06     329.009E-06
            5745            5783     295.112E-06     329.009E-06
            5746            5784     287.561E-06     320.089E-06
            5764            5784     287.561E-06     320.089E-06
            5747            5784     287.561E-06     320.089E-06
            5765            5784     287.561E-06     320.089E-06
            5748            5785     280.330E-06     311.222E-06
            5747            5785     280.330E-06     311.222E-06
            5765            5785     280.330E-06     311.222E-06
            5766            5785     280.330E-06     311.222E-06
            5749            5786     274.163E-06     303.082E-06
            5766            5786     274.163E-06     303.082E-06
            5767            5786     274.163E-06     303.082E-06
            5748            5786     274.163E-06     303.082E-06
            5768            5787     268.805E-06     295.484E-06
            5749            5787     268.805E-06     295.484E-06
            5750            5787     268.805E-06     295.484E-06
            5767            5787     268.805E-06     295.484E-06
            5751            5788     264.660E-06     288.554E-06
            5768            5788     264.660E-06     288.554E-06
            5769            5788     264.660E-06     288.554E-06
            5750            5788     264.660E-06     288.554E-06
            5770            5789     261.404E-06     282.389E-06
            5751            5789     261.404E-06     282.389E-06
            5752            5789     261.404E-06     282.389E-06
            5769            5789     261.404E-06     282.389E-06
            5753            5790     259.490E-06     276.635E-06
            5771            5790     259.490E-06     276.635E-06
            5770            5790     259.490E-06     276.635E-06
            5752            5790     259.490E-06     276.635E-06
            5771            5791     257.890E-06     271.378E-06
            5753            5791     257.890E-06     271.378E-06
            5772            5791     257.890E-06     271.378E-06
            5754            5791     257.890E-06     271.378E-06
            5772            5792     254.745E-06     270.690E-06
            5755            5792     254.745E-06     270.690E-06
            5754            5792     254.745E-06     270.690E-06
            5773            5792     254.745E-06     270.690E-06
            5755            5793     253.848E-06     270.947E-06
            5773            5793     253.848E-06     270.947E-06
            5774            5793     253.848E-06     270.947E-06
            5756            5793     253.848E-06     270.947E-06
            5775            5794     401.650E-06     405.809E-06
            5758            5794     401.650E-06     405.809E-06
            5776            5794     401.650E-06     405.809E-06
            5757            5794     401.650E-06     405.809E-06
            5776            5795     365.301E-06     382.338E-06
            5759            5795     365.301E-06     382.338E-06
            5777            5795     365.301E-06     382.338E-06
            5758            5795     365.301E-06     382.338E-06
            5778            5796     347.912E-06     370.832E-06
            5759            5796     347.912E-06     370.832E-06
            5760            5796     347.912E-06     370.832E-06
            5777            5796     347.912E-06     370.832E-06
            5779            5797     340.413E-06     362.998E-06
            5761            5797     340.413E-06     362.998E-06
            5778            5797     340.413E-06     362.998E-06
            5760            5797     340.413E-06     362.998E-06
            5762            5798     331.506E-06     351.992E-06
            5779            5798     331.506E-06     351.992E-06
            5780            5798     331.506E-06     351.992E-06
            5761            5798     331.506E-06     351.992E-06
            5763            5799     320.048E-06     340.542E-06
            5780            5799     320.048E-06     340.542E-06
            5781            5799     320.048E-06     340.542E-06
            5762            5799     320.048E-06     340.542E-06
            5782            5800     310.533E-06     330.047E-06
            5781            5800     310.533E-06     330.047E-06
            5764            5800     310.533E-06     330.047E-06
            5763            5800     310.533E-06     330.047E-06
            5782            5801     301.391E-06     320.336E-06
            5783            5801     301.391E-06     320.336E-06
            5764            5801     301.391E-06     320.336E-06
            5765            5801     301.391E-06     320.336E-06
            5766            5802     293.809E-06     311.836E-06
            5784            5802     293.809E-06     311.836E-06
            5783            5802     293.809E-06     311.836E-06
            5765            5802     293.809E-06     311.836E-06
            5767            5803     287.055E-06     304.055E-06
            5784            5803     287.055E-06     304.055E-06
            5785            5803     287.055E-06     304.055E-06
            5766            5803     287.055E-06     304.055E-06
            5768            5804     281.444E-06     297.284E-06
            5767            5804     281.444E-06     297.284E-06
            5786            5804     281.444E-06     297.284E-06
            5785            5804     281.444E-06     297.284E-06
            5787            5805     276.812E-06     291.164E-06
            5769            5805     276.812E-06     291.164E-06
            5768            5805     276.812E-06     291.164E-06
            5786            5805     276.812E-06     291.164E-06
            5788            5806     273.038E-06     286.124E-06
            5769            5806     273.038E-06     286.124E-06
            5770            5806     273.038E-06     286.124E-06
            5787            5806     273.038E-06     286.124E-06
            5788            5807     270.652E-06     281.678E-06
            5771            5807     270.652E-06     281.678E-06
            5789            5807     270.652E-06     281.678E-06
            5770            5807     270.652E-06     281.678E-06
            5772            5808     269.579E-06     277.877E-06
            5771            5808     269.579E-06     277.877E-06
            5789            5808     269.579E-06     277.877E-06
            5790            5808     269.579E-06     277.877E-06
            5773            5809     270.864E-06     273.371E-06
            5772            5809     270.864E-06     273.371E-06
            5791            5809     270.864E-06     273.371E-06
            5790            5809     270.864E-06     273.371E-06
            5791            5810     279.555E-06     264.570E-06
            5773            5810     279.555E-06     264.570E-06
            5792            5810     279.555E-06     264.570E-06
            5774            5810     279.555E-06     264.570E-06
            5794            5811     278.605E-06     288.392E-06
            5775            5811     278.605E-06     288.392E-06
            5793            5811     278.605E-06     288.392E-06
            5776            5811     278.605E-06     288.392E-06
            5776            5812     311.944E-06     328.248E-06
            5794            5812     311.944E-06     328.248E-06
            5795            5812     311.944E-06     328.248E-06
            5777            5812     311.944E-06     328.248E-06
            5777            5813     353.299E-06     361.834E-06
            5795            5813     353.299E-06     361.834E-06
            5796            5813     353.299E-06     361.834E-06
            5778            5813     353.299E-06     361.834E-06
            5779            5814     356.128E-06     360.576E-06
            5778            5814     356.128E-06     360.576E-06
            5797            5814     356.128E-06     360.576E-06
            5796            5814     356.128E-06     360.576E-06
            5780            5815     345.668E-06     351.269E-06
            5797            5815     345.668E-06     351.269E-06
            5798            5815     345.668E-06     351.269E-06
            5779            5815     345.668E-06     351.269E-06
            5780            5816     334.889E-06     339.574E-06
            5781            5816     334.889E-06     339.574E-06
            5799            5816     334.889E-06     339.574E-06
            5798            5816     334.889E-06     339.574E-06
            5781            5817     323.761E-06     328.884E-06
            5799            5817     323.761E-06     328.884E-06
            5800            5817     323.761E-06     328.884E-06
            5782            5817     323.761E-06     328.884E-06
            5800            5818     314.854E-06     319.725E-06
            5801            5818     314.854E-06     319.725E-06
            5783            5818     314.854E-06     319.725E-06
            5782            5818     314.854E-06     319.725E-06
            5802            5819     306.899E-06     311.772E-06
            5801            5819     306.899E-06     311.772E-06
            5783            5819     306.899E-06     311.772E-06
            5784            5819     306.899E-06     311.772E-06
            5784            5820     300.276E-06     305.071E-06
            5785            5820     300.276E-06     305.071E-06
            5802            5820     300.276E-06     305.071E-06
            5803            5820     300.276E-06     305.071E-06
            5804            5821     294.518E-06     299.108E-06
            5785            5821     294.518E-06     299.108E-06
            5803            5821     294.518E-06     299.108E-06
            5786            5821     294.518E-06     299.108E-06
            5787            5822     289.538E-06     294.272E-06
            5804            5822     289.538E-06     294.272E-06
            5805            5822     289.538E-06     294.272E-06
            5786            5822     289.538E-06     294.272E-06
            5806            5823     285.638E-06     290.007E-06
            5787            5823     285.638E-06     290.007E-06
            5788            5823     285.638E-06     290.007E-06
            5805            5823     285.638E-06     290.007E-06
            5788            5824     282.183E-06     287.206E-06
            5806            5824     282.183E-06     287.206E-06
            5807            5824     282.183E-06     287.206E-06
            5789            5824     282.183E-06     287.206E-06
            5807            5825     281.224E-06     284.983E-06
            5789            5825     281.224E-06     284.983E-06
            5808            5825     281.224E-06     284.983E-06
            5790            5825     281.224E-06     284.983E-06
            5809            5826     287.586E-06     276.371E-06
            5808            5826     287.586E-06     276.371E-06
            5790            5826     287.586E-06     276.371E-06
            5791            5826     287.586E-06     276.371E-06
            5810            5827     293.241E-06     263.843E-06
            5791            5827     293.241E-06     263.843E-06
            5792            5827     293.241E-06     263.843E-06
            5809            5827     293.241E-06     263.843E-06
            5794            5828     185.757E-06     183.206E-06
            5811            5828     185.757E-06     183.206E-06
            5812            5828     185.757E-06     183.206E-06
            5793            5828     185.757E-06     183.206E-06
            5795            5829     272.832E-06     273.619E-06
            5812            5829     272.832E-06     273.619E-06
            5794            5829     272.832E-06     273.619E-06
            5813            5829     272.832E-06     273.619E-06
            5813            5830     341.078E-06     330.262E-06
            5796            5830     341.078E-06     330.262E-06
            5814            5830     341.078E-06     330.262E-06
            5795            5830     341.078E-06     330.262E-06
            5796            5831     354.888E-06     342.629E-06
            5797            5831     354.888E-06     342.629E-06
            5814            5831     354.888E-06     342.629E-06
            5815            5831     354.888E-06     342.629E-06
            5797            5832     351.468E-06     339.564E-06
            5816            5832     351.468E-06     339.564E-06
            5815            5832     351.468E-06     339.564E-06
            5798            5832     351.468E-06     339.564E-06
            5799            5833     343.270E-06     332.356E-06
            5816            5833     343.270E-06     332.356E-06
            5817            5833     343.270E-06     332.356E-06
            5798            5833     343.270E-06     332.356E-06
            5800            5834     334.924E-06     324.693E-06
            5817            5834     334.924E-06     324.693E-06
            5799            5834     334.924E-06     324.693E-06
            5818            5834     334.924E-06     324.693E-06
            5819            5835     327.028E-06     317.618E-06
            5800            5835     327.028E-06     317.618E-06
            5818            5835     327.028E-06     317.618E-06
            5801            5835     327.028E-06     317.618E-06
            5801            5836     320.109E-06     311.539E-06
            5820            5836     320.109E-06     311.539E-06
            5819            5836     320.109E-06     311.539E-06
            5802            5836     320.109E-06     311.539E-06
            5802            5837     313.817E-06     306.143E-06
            5803            5837     313.817E-06     306.143E-06
            5820            5837     313.817E-06     306.143E-06
            5821            5837     313.817E-06     306.143E-06
            5803            5838     308.218E-06     301.608E-06
            5821            5838     308.218E-06     301.608E-06
            5804            5838     308.218E-06     301.608E-06
            5822            5838     308.218E-06     301.608E-06
            5822            5839     303.270E-06     297.630E-06
            5804            5839     303.270E-06     297.630E-06
            5805            5839     303.270E-06     297.630E-06
            5823            5839     303.270E-06     297.630E-06
            5823            5840     298.776E-06     294.710E-06
            5805            5840     298.776E-06     294.710E-06
            5806            5840     298.776E-06     294.710E-06
            5824            5840     298.776E-06     294.710E-06
            5807            5841     295.212E-06     292.393E-06
            5824            5841     295.212E-06     292.393E-06
            5806            5841     295.212E-06     292.393E-06
            5825            5841     295.212E-06     292.393E-06
            5807            5842     292.177E-06     291.207E-06
            5826            5842     292.177E-06     291.207E-06
            5825            5842     292.177E-06     291.207E-06
            5808            5842     292.177E-06     291.207E-06
            5827            5843     290.889E-06     291.016E-06
            5808            5843     290.889E-06     291.016E-06
            5826            5843     290.889E-06     291.016E-06
            5809            5843     290.889E-06     291.016E-06
            5828            5844     298.382E-06     285.029E-06
            5827            5844     298.382E-06     285.029E-06
            5809            5844     298.382E-06     285.029E-06
            5810            5844     298.382E-06     285.029E-06
            5812            5845     152.193E-06     162.930E-06
            5811            5845     152.193E-06     162.930E-06
            5829            5845     152.193E-06     162.930E-06
            5830            5845     152.193E-06     162.930E-06
            5813            5846     251.428E-06     216.487E-06
            5812            5846     251.428E-06     216.487E-06
            5831            5846     251.428E-06     216.487E-06
            5830            5846     251.428E-06     216.487E-06
            5814            5847     313.461E-06     280.364E-06
            5813            5847     313.461E-06     280.364E-06
            5831            5847     313.461E-06     280.364E-06
            5832            5847     313.461E-06     280.364E-06
            5815            5848     340.411E-06     310.197E-06
            5814            5848     340.411E-06     310.197E-06
            5833            5848     340.411E-06     310.197E-06
            5832            5848     340.411E-06     310.197E-06
            5833            5849     349.052E-06     319.671E-06
            5834            5849     349.052E-06     319.671E-06
            5815            5849     349.052E-06     319.671E-06
            5816            5849     349.052E-06     319.671E-06
            5835            5850     348.164E-06     321.136E-06
            5816            5850     348.164E-06     321.136E-06
            5834            5850     348.164E-06     321.136E-06
            5817            5850     348.164E-06     321.136E-06
            5835            5851     344.441E-06     318.798E-06
            5817            5851     344.441E-06     318.798E-06
            5818            5851     344.441E-06     318.798E-06
            5836            5851     344.441E-06     318.798E-06
            5819            5852     339.164E-06     315.375E-06
            5836            5852     339.164E-06     315.375E-06
            5818            5852     339.164E-06     315.375E-06
            5837            5852     339.164E-06     315.375E-06
            5820            5853     333.599E-06     311.573E-06
            5819            5853     333.599E-06     311.573E-06
            5838            5853     333.599E-06     311.573E-06
            5837            5853     333.599E-06     311.573E-06
            5820            5854     328.064E-06     307.948E-06
            5838            5854     328.064E-06     307.948E-06
            5839            5854     328.064E-06     307.948E-06
            5821            5854     328.064E-06     307.948E-06
            5839            5855     322.694E-06     304.719E-06
            5821            5855     322.694E-06     304.719E-06
            5822            5855     322.694E-06     304.719E-06
            5840            5855     322.694E-06     304.719E-06
            5823            5856     317.731E-06     301.917E-06
            5841            5856     317.731E-06     301.917E-06
            5822            5856     317.731E-06     301.917E-06
            5840            5856     317.731E-06     301.917E-06
            5824            5857     312.969E-06     299.821E-06
            5841            5857     312.969E-06     299.821E-06
            5823            5857     312.969E-06     299.821E-06
            5842            5857     312.969E-06     299.821E-06
            5843            5858     308.847E-06     298.188E-06
            5825            5858     308.847E-06     298.188E-06
            5824            5858     308.847E-06     298.188E-06
            5842            5858     308.847E-06     298.188E-06
            5844            5859     304.102E-06     297.506E-06
            5825            5859     304.102E-06     297.506E-06
            5843            5859     304.102E-06     297.506E-06
            5826            5859     304.102E-06     297.506E-06
            5844            5860     297.064E-06     302.078E-06
            5827            5860     297.064E-06     302.078E-06
            5826            5860     297.064E-06     302.078E-06
            5845            5860     297.064E-06     302.078E-06
            5846            5861     291.565E-06     309.545E-06
            5827            5861     291.565E-06     309.545E-06
            5845            5861     291.565E-06     309.545E-06
            5828            5861     291.565E-06     309.545E-06


  Minimum                            59.9919E-06     137.597E-06
      At Element                             856            5811
            Node                             308             197

  Maximum                            200.880E-03     202.193E-03
      At Element                            5193            5175
            Node                             629              22

           Total                         257.959         262.406


